78
C78 Isomer 12284 Symmetry C1
C         5.28796503188347   -1.16547726035732   -0.13540954330962
C         5.21610520137317   -0.03760386059582    0.68467210945426
C         5.00316942902952    1.11180978285425   -0.18290343420789
C         4.84829235848700   -0.77479523686231   -1.48287658479851
C         4.59254305332161    0.60953152957865   -1.45920286524097
C         3.82750373807620   -1.67284443936560   -1.87850355806428
C         4.56633786250675   -2.29324045284412    0.24504967176665
C         3.79989595557007   -2.72625910533128   -0.92017185090290
C         3.67731195688146   -2.25416551277924    1.35185909855954
C         4.28271580804216    0.04678999655983    1.76006366585850
C         3.43648233910576   -1.05276747977614    2.08787160531261
C         4.19073057084013    2.01284226982303    0.50434121331444
C         3.70870360001352    1.36301272318237    1.71412529400657
C         3.30175598846038    2.77505653361640   -0.24418743741954
C         3.39343393332407    1.11594664853269   -2.07376944789563
C         2.92457949317849    2.33121541509922   -1.56677425371364
C         2.58058519859109   -1.20803212524258   -2.42948495827637
C         2.40092483061276    0.20388979270801   -2.61601845372099
C         1.41685373779074   -2.03951909504704   -2.25877429119197
C         2.58176761587889   -3.22580483976561   -0.47529293112246
C         2.53091135955473   -3.00762662626322    0.94797448324674
C         1.41126999344173   -3.03747069796444   -1.23467370722330
C         1.30432886991963   -2.86565935043532    1.56142487654201
C         2.09726958357534   -0.78364268982484    2.58262619882796
C         1.08602878018745   -1.80366421289829    2.49484111361744
C         2.43320351797930    1.64061396506675    2.20553208191528
C         1.63793448462441    0.56674001660033    2.76456978771289
C         2.15378640755066    3.29109878549343    0.37975979849914
C         1.76030390804098    2.80107757731745    1.65128991373516
C         1.58044039544279    2.76274106152309   -1.77380225361210
C         1.14174894370100    3.47094040545905   -0.62268165606856
C         1.08149819809535    0.68788590546398   -2.90350163434848
C         0.66917019048775    2.01137949944567   -2.51921116690591
C         0.15025659086769   -1.61085053206654   -2.75713132331859
C         0.04850878008540   -0.25642317103107   -3.20830022589147
C        -1.03681366376329   -2.36418369848815   -2.42778873425718
C         0.19986990828984   -3.41546684689869   -0.58893302202077
C         0.20594808562263   -3.45144674579998    0.84085328687134
C        -1.02772461510376   -3.25539446802459   -1.29602608457824
C        -1.00115499526872   -3.47581944606304    1.52609329977726
C        -0.26656941063994   -1.57287813975627    2.92333750391747
C        -1.24238009661281   -2.53186573769204    2.59070025568911
C         0.26032038780718    0.82766755688791    3.10051867071754
C        -0.69137671425167   -0.24135128878813    3.27119374618320
C         0.43128424398833    3.01581912418716    1.98450175757752
C        -0.26352720953741    2.11523626430965    2.83682948096512
C        -0.21396519923587    3.61757395526797   -0.30500210501577
C        -0.52093364629749    3.59815068091252    1.07104469009797
C        -0.72486286954261    2.38284196407960   -2.38753512468166
C        -1.18935201969822    3.18920336287631   -1.27167907322262
C        -1.23469053546988    0.26181520144038   -3.49082220145798
C        -1.64167974586659    1.57539150682361   -3.04832443387895
C        -2.29176176646050   -1.83440899468690   -2.80568616192375
C        -2.35048502013712   -0.57736434166922   -3.41423715223307
C        -3.45368100252402   -1.90193567940562   -1.93152340466194
C        -2.23120670227968   -3.48533862312687   -0.58485879433892
C        -2.18773030544006   -3.66740009537630    0.80448572513851
C        -3.42135535289010   -2.69637184754734   -0.83315444490257
C        -2.64355321283585   -2.20462068727318    2.52487868646858
C        -3.23382024608128   -2.88133695262005    1.42813070403580
C        -3.95692293081750   -2.21489235254509    0.43630452951162
C        -2.07606043207852    0.04664708042573    3.21993030784652
C        -3.03519032974939   -0.89858170615034    2.73941351880210
C        -1.66248119256366    2.34999965996890    2.63645126930792
C        -1.81735904872868    3.23635270727706    1.51066697250757
C        -2.56026681365862    1.33124344645145    2.82465977421626
C        -2.51192422404406    3.02292706406487   -0.81864416329797
C        -2.82075259321869    3.00449673921345    0.58236874504488
C        -3.01901829531928    1.49485726552095   -2.63394202312168
C        -3.46450291093277    0.17458198148108   -2.85083185965560
C        -4.07716832389176   -0.58632539328241   -1.85608004866800
C        -3.41637162930404    2.11327712130992   -1.45855334453874
C        -4.32286255097503   -0.84231164976963    0.59698387586828
C        -3.95059285119126   -0.24811048545231    1.82780402232643
C        -3.67723538745649    1.15137363586631    1.92111875149877
C        -3.78778226329570    1.96024354530812    0.80507216382150
C        -4.40686171115450   -0.00491431056527   -0.58912461277713
C        -4.14976251391261    1.38189440743502   -0.46292428409476
