78
C78 Isomer 23318 Symmetry C1
C         4.48460236273509   -1.10488393781939    0.36547859939472
C         4.25345019495582    0.01447678227880    1.17996737331463
C         4.18370285031493    1.13834501611100    0.27344690085701
C         4.36116248711661   -0.71053005869975   -1.02554667577245
C         4.09511713356540    0.66041158705691   -1.09304265929315
C         3.54524436061691   -1.65619591438184   -1.68448808938054
C         3.77013929486249   -2.30642532668529    0.53000714128100
C         3.18353991696051   -2.67708828267082   -0.73648190807160
C         3.00705385872675   -2.44334521316876    1.67760487992120
C         3.35467505583913   -0.06134453270963    2.28587814080437
C         2.82967760541373   -1.33622111239849    2.57131292945894
C         2.54529007144997    1.08820084550792    2.64022277899981
C         3.46647754513332    2.22935468814975    0.63879916562510
C         2.75990180533886    2.26879706766939    1.89981188758088
C         2.72072095694626    2.96887544556020   -0.34676295556098
C         3.11689967499685    1.17874741922299   -1.98726998870534
C         2.45290837232229    2.41387485648639   -1.62003835680759
C         2.64307084551329   -1.19235069706453   -2.66285145887210
C         2.46925768030499    0.23273193423367   -2.85821384296515
C         1.55006667882388   -2.06353085856463   -2.89031157550302
C         1.92017367606546   -3.30359584286988   -0.78890195602650
C         1.18751247240920   -3.06841739621252   -1.96667937644427
C         1.78867513984640   -3.20236227239055    1.63312978855228
C         1.19250971659605   -3.61288644125951    0.43005535385759
C         1.53999614634559   -1.48623293210872    3.18830642114029
C         0.99108619833810   -2.71506962986142    2.70971768037598
C         1.24825602485130    0.91698758659275    3.27548360792308
C         0.70648085115071   -0.40756393310305    3.50586673563384
C         0.32674544578807    1.97302350025320    3.20509552512405
C         1.76291718069263    3.26715123763069    1.75168313828191
C         1.74655651062462    3.71365359510418    0.37278861289193
C         0.57587216943597    3.15344535023752    2.44630657824496
C         0.54315792898025    4.05440271217557   -0.21737776779819
C         1.18444885075578    2.76585552599099   -2.22118186405168
C         0.26664985488734    3.59242605832332   -1.53184091931630
C         1.26040694848242    0.64667689050783   -3.46882471321045
C         0.63405319044520    1.86925573738180   -3.16097677726985
C         0.33799460428331   -1.60297294168109   -3.50033148153178
C         0.21286019466936   -0.27899825193734   -3.81463895196015
C        -0.25382622356947   -3.21775850863539   -2.00001097417489
C        -0.78090045589519   -2.33174630611023   -2.96656937084820
C        -0.25319084450424   -3.76768335619697    0.39410516034690
C        -0.97309097632633   -3.58308573375512   -0.85114934305821
C        -0.36348817745990   -2.91159496905929    2.69803495389857
C        -0.98064567802385   -3.54549863075899    1.57492482763324
C        -0.73102668156288   -0.63674795551095    3.55298481999856
C        -1.22794742825997   -1.91312450941072    3.23532591422070
C        -1.09581839801877    1.74581718134299    3.17287149573728
C        -1.64211717299479    0.46622368486238    3.35324048779532
C        -0.66489594252894    3.57239384874002    1.84560460692441
C        -0.68394131008798    4.01990504158219    0.54070023548158
C        -1.70182063334762    2.70495056861211    2.31697418077864
C        -1.15767073743276    3.38228265960307   -1.61574424278477
C        -1.73631055244452    3.60295658832815   -0.33820249948541
C        -0.80013430025585    1.70493533897661   -3.30797568538712
C        -1.06619625438668    0.36898614180775   -3.67029723079281
C        -1.69931405851276    2.42816164269030   -2.49902388718976
C        -2.05166195913734   -1.72992856784508   -2.82805827394761
C        -2.20454972607913   -0.33230371127081   -3.19447580761845
C        -2.33366754052036   -3.18065521463128   -0.84391634643851
C        -2.85739782126497   -2.27155264680616   -1.80784591956906
C        -2.34949821024634   -3.10694109654834    1.57723770014627
C        -2.50652803773825   -2.11369063611688    2.61095890737363
C        -3.03969981295089   -2.97006605651775    0.39102305873488
C        -2.92192775924113    0.26138230765574    2.78697773516385
C        -3.36276128081928   -1.05006222640969    2.41663541137961
C        -2.82035575134665    2.38297744980771    1.51142363344596
C        -2.83286762371749    2.82883858668340    0.12968924353332
C        -3.48474914176505    1.18969349923073    1.85404108201859
C        -2.89554133345531    1.78294451331768   -2.11756922716425
C        -3.16098542779435    0.43890830335666   -2.50134369785392
C        -3.47820774736272    2.01927403113159   -0.82461047240384
C        -3.87430625077563   -1.47671683427443   -1.15916129009627
C        -3.97820973225039   -1.89763409059306    0.21073064020949
C        -4.14811314343506   -0.95103700236277    1.21403611291178
C        -4.23070568086846    0.44107999635191    0.88063839504385
C        -4.00183936410406   -0.14296033644508   -1.48376482672138
C        -4.19040268609948    0.83739874429033   -0.44864142796442
