76
C76 Isomer 10464 Symmetry C1
C         5.30968793344622   -0.35927705420648    0.70838256033115
C         4.82506015926386    0.80031393931208    1.31438357785520
C         4.52185432052819    1.76192167085601    0.24833699344785
C         5.17386874620073   -0.21652527637586   -0.75491381962186
C         4.68896992147474    1.08850532420018   -1.00955458965186
C         4.48131425215695   -1.34972958065844   -1.24238088484066
C         4.75885190464746   -1.58256045621784    1.08437699152946
C         4.36319530792563   -2.26615616872734   -0.14778252531649
C         3.66682001140365   -1.65314490959757    1.98343941060538
C         3.71547607874211    0.75151090370721    2.19185982548122
C         3.07849531219126   -0.47880818703248    2.52981981112477
C         3.33832218262456    2.41472964506240    0.56312536681185
C         2.86501798486876    1.85302196601853    1.82185292819296
C         2.37625175492562    2.72822411609356   -0.44607828852429
C         3.66520677659552    1.23873071905129   -1.95257023284554
C         2.61098625413892    2.18240312362154   -1.72094297285774
C         3.35751434619523   -1.21218062240699   -2.12987691742425
C         3.06900409609844    0.09219127880289   -2.57739881806755
C         2.23816523957475   -2.12778687415936   -2.03732147714882
C         3.17529777854108   -2.92704903372636    0.08304986879953
C         2.76816555270879   -2.64488867617970    1.45243858217666
C         2.16970107303292   -3.01046804915768   -0.91684599887892
C         1.44590633976686   -2.71110538006803    1.81585525520458
C         1.65380181808880   -0.47763893666901    2.79337994676262
C         0.87229631391513   -1.67039802982614    2.63862714218446
C         1.53076802594532    1.87601743409644    2.12828840117113
C         0.91968358262479    0.74417777609264    2.79810092255212
C         1.03186616021146    2.99869818156548   -0.05296155746007
C         0.69643890736403    2.76169155192168    1.33477173042769
C        -0.04072670800068    2.95293649612224   -0.98932232748478
C         1.47338543691354    1.76691942978271   -2.47259706982561
C         1.73279781992796    0.45793388052193   -2.96596734830089
C         0.18003502916337    2.18623452212795   -2.18599513378648
C         0.98701692132448   -1.80844191229164   -2.68366610942036
C         0.69394908944370   -0.45828217410949   -3.10355445729596
C        -0.11234856394525   -2.63204193794491   -2.43936429719528
C         0.93780619384552   -3.55786329966863   -0.46341909366903
C         0.60323270387332   -3.50269872537377    0.94139371912585
C        -0.12763542427853   -3.57052852920729   -1.36705386702708
C        -0.70454851834092   -3.66869507492541    1.33183749870556
C        -0.53776972939843   -1.66391791288213    2.83444073010684
C        -1.25621807093581   -2.80480915256227    2.36424327420394
C        -0.48911251556009    0.76037342364725    3.01201949575664
C        -1.26560381175697   -0.44441799990325    3.06797193802345
C        -0.59460069672967    2.90331309957340    1.75267389358763
C        -1.15936650916811    1.98189027630818    2.72089737649005
C        -1.39555687511949    3.18660269966090   -0.54600030980400
C        -1.63764892671048    3.31956723417470    0.84906639044905
C        -2.46732508527980    2.73331702489927   -1.33551479510502
C        -0.88316122734805    1.41414216549470   -2.76769618118471
C        -0.65604611072673    0.05042806906379   -3.14689540798901
C        -2.19348240136112    1.84270081090942   -2.45867198637620
C        -1.46576625916439   -2.20799735789692   -2.65511274866516
C        -1.75321781810771   -0.88633779740082   -3.05634488673982
C        -1.48048879008546   -3.77066225549651   -0.96530082930682
C        -1.75841191550711   -3.94397750040514    0.38112584936177
C        -2.32439663873301   -2.91991649655402   -1.76759544384042
C        -2.62721558272506   -2.73597942276682    2.14865853929400
C        -2.95866256380811   -3.39801364744647    0.90599758816479
C        -2.69180363294108   -0.38372179020362    2.78356748030288
C        -3.32956408794891   -1.51107654966282    2.21529194491772
C        -2.53516467453025    2.02271448879047    2.53566367784779
C        -2.84680002539677    2.87974624248805    1.40406198036930
C        -3.29952863306683    0.84422793605814    2.43035170148280
C        -3.71561484177174    2.31405283507726   -0.75129739180608
C        -3.84457108191136    2.24885362899327    0.64000587043262
C        -4.16384133984361    0.97810778672512    1.27975538709521
C        -3.26150186119295    0.96542138865358   -2.58966154111074
C        -3.04811618981000   -0.42576787342624   -2.73523365618867
C        -4.18687075981681    1.19915348309613   -1.50369940578729
C        -3.48911019182135   -2.30605897748126   -1.21523295032395
C        -3.77382831120007   -2.53650124375547    0.17335299745112
C        -4.12797876127277   -1.41433649577452    1.03787706043737
C        -4.48136650270765   -0.16101305588514    0.50375066965865
C        -3.86486938610240   -1.07100543666258   -1.75518098144306
C        -4.48237030556813   -0.03099469787400   -0.92708807560919
