78
C78 Isomer 17176 Symmetry C1
C         4.10215146507303   -2.15892155812249    1.32945153178870
C         4.52010403579111   -1.88610428139702    0.02968693321331
C         4.86821836673785   -0.48166963511140   -0.04507144381420
C         4.09932462352759   -0.90013637679760    2.05956278546242
C         4.47750062524024    0.14533540481053    1.17173287309579
C         2.88915070172741   -0.82186020695479    2.74742106479607
C         2.87186130399503   -2.81161686012927    1.54931744149154
C         2.16827185997950   -2.06284237975018    2.55347585122362
C         2.13589924233705   -3.35199631363602    0.46233811049612
C         3.68609978871035   -2.21193928784115   -1.07379864804927
C         2.52881072696815   -3.00477116887576   -0.88199352586572
C         4.37770639112830   -0.00463946200724   -1.27444297503372
C         3.63661067090091   -1.06155165672358   -1.93761483663661
C         3.87043475281502    1.27905164338531   -1.31490126280263
C         3.70335558229159    1.34600571598186    1.15353818950871
C         3.58554201586861    1.99175546978388   -0.09511575634781
C         2.15744968256871    0.38167957738744    2.83669335619252
C         2.59563032090254    1.51583424881294    2.07024969519012
C         0.78525336995519    0.24024272801737    3.25518844133829
C         0.79091158798529   -2.15456369183536    2.71029884914426
C         0.07386741724250   -1.01570507006281    3.20299911630285
C         0.77799228292901   -3.68981226962163    0.75099628145907
C         0.13669360841201   -3.19954525692541    1.95598940179088
C        -0.04099421846578   -4.01864833539342   -0.33659704031684
C         1.51877337711582   -2.90772810800899   -1.89808715352142
C         0.30644257815422   -3.57898850232940   -1.64494085349279
C         2.51458758446426   -0.77459975965705   -2.72634423675339
C         1.51324985092818   -1.80659513020044   -2.82611513803970
C         2.85654750704289    1.60352695343977   -2.26715805003572
C         2.15951753525568    0.61257854865630   -2.97832059263567
C         2.52713620149071    2.90858607104546   -0.37669490339850
C         2.17468355034598    2.75543323334625   -1.75513903592447
C         1.65746628665757    2.58557946843992    1.84869139534436
C         1.57025277912398    3.27649595601404    0.58154950803488
C         0.03746340343300    1.40645406633854    3.31180153291314
C         0.50777187831217    2.59048661352717    2.66016396172324
C        -1.40993239598627    1.38830719159793    3.25484834411835
C        -1.35734596785302   -1.02598765497141    3.15098688984129
C        -2.12435189307045    0.19275948242119    3.03596860484538
C        -1.24073667166491   -3.28208044382233    2.07522950644747
C        -1.97587392563413   -2.22443705756601    2.72367993355909
C        -1.47552483552618   -4.03268385712751   -0.23093659342917
C        -2.06028772636837   -3.79748277191926    1.00165468589716
C        -0.92049919027925   -3.23602160550180   -2.29740756607936
C        -2.03724297302507   -3.46066366825833   -1.41553500088595
C         0.28648421314551   -1.46210078625668   -3.42901458697481
C        -0.92893225156635   -2.17220361521678   -3.16351417537353
C         0.82127193720378    0.94365908408548   -3.42710998782609
C        -0.07204611118432   -0.11479918258101   -3.69070677219262
C         0.90496918800821    3.05675685892563   -2.18208090233866
C         0.23595425082912    2.17653628398313   -3.08003617175544
C         0.28597531288042    3.76207099717220    0.09047147357711
C        -0.03622614071008    3.61854514496922   -1.27218953544691
C        -0.64498176703570    3.31825481191737    2.27692583639731
C        -1.82827889393767    2.59064473744305    2.68312820042300
C        -0.82774527643202    3.76718719863372    0.96950962351793
C        -2.75004672667675    2.60074526216379    1.61554271147423
C        -2.15915590131765    3.36630613971428    0.55219425319560
C        -3.30425715166771    0.27285273788125    2.20459761872066
C        -3.52331521210598    1.44274923365227    1.37551735507791
C        -3.24621664611973   -2.15997975170007    2.12798726565366
C        -3.28345415793049   -3.09784258756342    1.01621743406430
C        -3.83997694802174   -0.95254061019973    1.73794015328700
C        -3.12837464157662   -2.55954070105923   -1.37213939933095
C        -3.78382153796359   -2.43485992185615   -0.10891920610051
C        -4.25161024702146   -1.13857612608872    0.36696381544548
C        -2.03081812038327   -1.25356659537081   -3.16485660349180
C        -1.49374464003397    0.01869836893969   -3.51435044081233
C        -3.10025839219485   -1.40015180003852   -2.25497055432966
C        -1.16806953510126    2.30004130715454   -2.80011004961723
C        -1.33715116828356    3.18967616229750   -1.70630663190364
C        -2.40663494028184    3.01621630887268   -0.78532178812363
C        -2.04827740640465    1.21114017010374   -3.00583261386121
C        -3.92379945863494    1.24621029386433    0.03015983631493
C        -4.21770150651595   -0.06674530195284   -0.47901573505626
C        -3.69343400186208   -0.18981462094053   -1.81245338891270
C        -3.33800900133426    1.97985201767457   -1.03216156742711
C        -3.16726027730661    1.08205847891779   -2.15036513842972
