80
C80 Isomer 25923 Symmetry C1
C         4.85340412981881   -1.24728288805013   -0.07284898215379
C         4.91558452281201   -0.10016627179177   -0.82372559862186
C         4.18636653199788   -0.33985328574248   -2.07029802351775
C         4.15061584846657   -2.26261515145286   -0.86113817553409
C         3.60134166412024   -1.63757206782011   -2.01523767858313
C         3.33424593870582   -2.97895159321383   -0.00098599170972
C         4.30666180472847   -1.24434661538392    1.25255032187909
C         3.53386771810265   -2.44750713648888    1.34284938222580
C         3.83550753003300   -0.04492637026288    1.83726724858967
C         4.48001105888257    1.13125005514308   -0.27078935589408
C         4.03406453828771    1.17846205730451    1.08218864424938
C         3.39886490663662    0.77457652381988   -2.30278156905833
C         3.69051294486870    1.76822256370696   -1.27983895024283
C         2.07529933057494    0.63914007446914   -2.78538144156768
C         2.22754941106265   -1.80162389793072   -2.32167456388982
C         1.48988580440579   -0.67704221277970   -2.84583905386457
C         2.04546184244377   -3.38537626231174   -0.42040407494008
C         1.49276876684609   -2.82856048674817   -1.62369639492834
C         1.15947409039462   -3.78722938787554    0.64294147691817
C         2.50648214273711   -2.52132228012355    2.24648120053709
C         1.35947163706675   -3.31727293420153    1.95809278998267
C         2.68146729107415   -0.11829275860398    2.72886454197744
C         2.09672135329775   -1.36146317769187    2.96986747009703
C         1.82853109422156    1.01990172206734    2.99761321710898
C         3.21019283043384    2.27102167063191    1.38561660007652
C         2.22861271709857    2.24220005754658    2.43996828969220
C         2.77693165195951    2.77104389068696   -0.97427768335062
C         2.73141658448974    3.16293964868039    0.38558728665075
C         1.26575309029890    1.81918240307128   -2.69485323162766
C         1.60332630410269    2.91557879763215   -1.80474633046045
C        -0.06590079882563    1.67013782282381   -3.07369579176384
C         0.06321021702237   -0.79626942368196   -3.00072295336405
C        -0.65214963261693    0.37794915869139   -3.24753487869161
C         0.08162175210239   -2.97164386732709   -1.87023376427877
C        -0.67309026906601   -1.96731704916748   -2.56874251879219
C        -0.15060969724426   -4.10240803850214    0.31306325315157
C        -0.61936067329114   -3.86586231859395   -1.02680074192626
C        -1.24203327854921   -3.90095159507243    1.22664382022466
C         0.25545505554208   -2.75726694423629    2.66839607998251
C         0.68749591344937   -1.52549653503577    3.22911948447700
C        -1.08182892140260   -2.97371040439575    2.29412639045417
C         0.42699454413015    0.85288225355544    3.35518119950225
C        -0.19689189673314   -0.45623374199698    3.35231455983125
C        -0.42785099840167    1.95336184104677    3.21136466274474
C         1.30436213400340    3.30260426970299    2.19794425729957
C         1.58458088909852    3.84774645641703    0.90009293569866
C        -0.00264379656321    3.17516910656562    2.61432738902663
C         0.57028735494352    3.72925271383011   -1.31867083302131
C         0.54982308128124    4.18299194648898    0.05107516131603
C        -1.09144819421590    2.54276661864001   -2.61610362700517
C        -0.79403862183679    3.52837853122169   -1.70017705301419
C        -2.05302667554183    0.49273499488890   -2.97182424451551
C        -2.31395172869450    1.81479714409099   -2.51253618866734
C        -2.10814874917380   -1.88289361838931   -2.41724561762808
C        -2.79681089294824   -0.61411534273129   -2.54748368892370
C        -2.01294828936168   -3.82329701899109   -0.95684041637384
C        -2.40822975003233   -3.86054682779183    0.45313285274387
C        -2.76147093307660   -2.84153395424344   -1.59833197113761
C        -3.40644864442441   -2.92217292164435    0.66443409850279
C        -3.80337948849234   -2.45559419673548   -0.66199809858021
C        -2.05361904027517   -1.93430909866083    2.51068913673225
C        -1.59460153040438   -0.67569977536707    3.04528194040268
C        -3.29702873196824   -1.98857648692858    1.75640700319468
C        -1.81021878353068    1.77024843346519    2.88493329811809
C        -2.41004888759975    0.49317028731756    2.84802904384718
C        -1.07683344562302    3.66251616930947    1.79066001188784
C        -0.81475970400011    4.13125990539064    0.51541128034723
C        -1.66451703155388    3.73076767750322   -0.57523955899394
C        -2.20711612124483    2.81602606847531    1.99603166469426
C        -3.22483543114930    2.06535269555347   -1.46694622128822
C        -2.82354211556207    2.96040309299565   -0.39137266891998
C        -3.14517546647809    2.57392330605698    0.97236423942303
C        -3.94499731782305   -0.30060975456825   -1.77408407890237
C        -4.43415370906167   -1.25508893978968   -0.78757447078018
C        -4.11156664556625    0.99726780103530   -1.20835905197231
C        -4.08004248745894   -0.83247485006491    1.61399066239975
C        -3.61390212036532    0.42398128430456    2.13087063256552
C        -3.96839638869953    1.45634823149799    1.19993881135363
C        -4.77822721413748   -0.55769927080841    0.40038883539751
C        -4.62038191854850    0.82161947756878    0.11893436318133
