74
C74 Isomer 5519 Symmetry C1
C         4.54900927576341   -2.21786221399798    0.21801204705640
C         4.28237656976736   -1.64021417991907    1.50554284225920
C         3.09984335018697   -2.21879870768253    2.04879312564860
C         3.48301332797460   -3.08937648298019   -0.07486075316746
C         2.62022997626999   -3.16973201085864    1.06766511608005
C         2.87030881196599   -2.67224203353663   -1.30313514381534
C         4.49935629459365   -1.14670679721030   -0.73662866901071
C         3.47911846078141   -1.42853968067975   -1.69594322532447
C         4.36457456634691   -0.21934038265523    1.37422053934483
C         4.45585138128472    0.09313185750626   -0.04331063718935
C         3.53097892661244    0.54740979065291    2.16250037532102
C         2.15797448150518   -1.41815933571518    2.74813944664855
C         2.47770847156143   -0.05474056732427    2.91998403707535
C         0.76430855926879   -1.78380251703184    2.74566880406690
C         1.26081596468007   -3.37100093876652    0.88553022799993
C         0.36317930106892   -2.88673536177739    1.91719966586690
C         1.51762518929598   -2.89006324087526   -1.50614301202345
C         0.73576079301761   -3.48890780496687   -0.45380042643288
C         0.84905904162799   -1.99927296413642   -2.43001886568327
C         2.69653653608653   -0.38067349818209   -2.23003487243526
C         1.37375496098830   -0.68690343900112   -2.69169600658617
C         3.75784270855894    1.18763526304353   -0.59275960316163
C         3.02791128668930    0.96495583943785   -1.81992130619760
C         3.06322187672466    1.81403474639794    1.67976564563026
C         3.25283130266060    2.18476881691064    0.33268130628856
C         1.43843427977920    0.91547948905509    3.02820884551002
C         1.82889368293006    2.09961983059511    2.32761360944688
C        -0.24156519777126   -0.83806691626142    3.14897356238689
C         0.09581777216062    0.56223584674468    3.19432435249496
C        -1.62978984655126   -1.20036183770854    3.05947968029805
C        -0.98945953453498   -3.14610912603861    1.73069410171956
C        -1.99725045627940   -2.39172974230684    2.39501352747795
C        -0.66182821271368   -3.63212361690850   -0.64278730427110
C        -1.51390134554254   -3.63159395157769    0.48564349062541
C        -0.49565440146313   -2.23903957445780   -2.66074220574515
C        -1.22916534016427   -3.19900485567268   -1.87835525307408
C        -1.40393298546096   -1.18644137310565   -3.04026618036046
C         0.42214122385816    0.37633972734339   -2.95855240598116
C        -1.01329070872262    0.15360679869030   -2.96493417760198
C         2.14496575254579    1.96829141847396   -2.24255175267234
C         0.86132691622605    1.68098954763448   -2.80290944757944
C         2.36676294303446    3.18040956515864   -0.14227654718418
C         1.99919412395111    3.15740103370628   -1.49417589626410
C         0.86791649688803    2.99270006395412    1.80104582690408
C         1.22582435539720    3.65163620688363    0.61281188781684
C        -0.88912172040269    1.59196035253920    2.92117671682581
C        -0.51844989514059    2.77354583598611    2.14935886726725
C        -2.61056933552168   -0.17544931916425    3.10482692691618
C        -2.22805899276917    1.21509117724458    2.97304870995855
C        -3.83952103009359   -0.35482981209131    2.44012310650080
C        -3.19832112837483   -2.50794006144107    1.61768748539694
C        -2.88315218768984   -3.22584455825833    0.41546965284372
C        -4.09081367792533   -1.44066896911766    1.58208732035850
C        -2.58677229712699   -2.84718656356616   -1.93945239278943
C        -2.68743453094965   -1.57655355032428   -2.63934591283097
C        -3.41197491304647   -2.78099970855831   -0.80574263756830
C        -4.48087623588175   -0.87450330234681    0.29752593393794
C        -3.53860835786923   -0.71268003618739   -1.94593781513845
C        -4.11186889972256   -1.49881257704404   -0.85756896568499
C        -1.94938130889145    1.10487878973813   -2.41571258123962
C        -3.17709531465590    0.64875732541557   -1.80053185133448
C        -0.08093717217352    2.71498291966233   -2.38826316834864
C         0.64253458003329    3.64137490972930   -1.62946023425983
C         0.19809389336820    4.00599803774081   -0.33691810043240
C        -1.42649154197832    2.39879869240601   -2.05908636553447
C        -1.48410331216345    3.32279319789440    1.29114375651132
C        -1.12313831480139    3.76925599191228   -0.02620046729691
C        -1.97922925845362    3.07992204189743   -0.95172616980624
C        -3.21233788330140    1.84976089234094    2.13485646001393
C        -4.14426265525680    0.87489110563686    1.73110081209774
C        -4.37386128225320    0.57542415913480    0.38118998289591
C        -3.70996679363332    1.33460973812333   -0.63641700043399
C        -2.78564461520998    2.74902600125661    1.17762272731588
C        -3.05926675096309    2.50529459858714   -0.20756316834735
