74
C74 Isomer 3221 Symmetry C1
C         5.19750128089601   -0.93447451737282    0.49004006563698
C         5.05127169119724    0.41718648694494    0.04533402173170
C         4.40850630201271    0.41042687752728   -1.20906855081992
C         4.56656095271920   -1.79663851806705   -0.46697534211164
C         4.03982578072678   -0.98551188115512   -1.49202566915384
C         3.60128968090763   -2.60014015566850    0.22253459541317
C         4.43138071378344   -1.02796990107627    1.67411543649773
C         3.52384899674266   -2.10988929215214    1.57506613240004
C         4.44218974424695    1.18460406088452    1.10879794804085
C         3.92129287994465    0.25846899466070    2.08822137329738
C         3.67087571773014    2.26222193094208    0.75190315992094
C         3.54954103687720    1.48018487093650   -1.56864845704437
C         3.31310568253624    2.51416646575594   -0.62071955521939
C         2.46795190830466    1.17934694691159   -2.42181662710152
C         2.77428283471051   -1.28152924774908   -2.09107603524619
C         2.10493439892551   -0.19629306939340   -2.67697079461807
C         2.42180550189714   -3.02271530397077   -0.42296308162486
C         1.96536128194270   -2.38691527374207   -1.63827119603323
C         1.45262225844491   -3.49526026697825    0.46980130671244
C         2.28983820586235   -2.03255377189642    2.24708670959168
C         1.37684432338083   -2.99575436881265    1.80348530280160
C         2.61127895831542    0.38703095387121    2.59926575449420
C         1.77235009150778   -0.79308816929766    2.77486821844680
C         2.54955151711570    2.60535545675890    1.57275232635722
C         1.95915647027414    1.67022133547855    2.44342909687624
C         2.08193867640440    3.23694899909081   -0.61158828839047
C         1.72513355897262    3.44297645948979    0.76132540352298
C         1.27794562143944    1.94494360191477   -2.44434158408333
C         1.03371696689191    2.99630670805843   -1.52923247191729
C         0.71522666895395   -0.24429846162383   -2.93298171270064
C         0.19885027157685    1.09410484856806   -2.84205127843675
C         0.56654712923737   -2.45647760901153   -1.96064947449432
C        -0.07255172396677   -1.35598032953268   -2.63278821083661
C         0.13824997632768   -3.81561325251019    0.03691931447049
C        -0.29901525828297   -3.34802776580632   -1.22333784849838
C         0.01197190822144   -2.95743334481086    2.16777893286064
C        -0.70917775549477   -3.71984354050691    1.18211843671444
C         0.35817315547019   -0.67334989072275    2.97342144938941
C        -0.53736645100770   -1.80155903901313    2.73749283462139
C         0.55659738150214    1.80863333985727    2.73969356420985
C        -0.23458910445558    0.64444277800854    3.06567396088452
C         0.42711263039383    3.65031601349042    1.11513715177489
C        -0.11875262939137    2.94142596254403    2.23279675747437
C        -0.34018824104305    3.28099511178345   -1.17937207247782
C        -0.59604485182746    3.78078108340784    0.11575300836822
C        -1.13407366106487    1.37197771668478   -2.58141854775340
C        -1.42691361288514    2.58371403693261   -1.83497244010810
C        -1.50878261623632   -1.12059749208019   -2.60668107362819
C        -2.04238476611514    0.24013254449964   -2.63189947259769
C        -1.70401133532905   -3.23841280270639   -1.37935305570538
C        -2.31938715076468   -2.14358576925406   -2.12169757358230
C        -2.06133570870507   -3.54188168594953    1.01904044026932
C        -2.55791045170290   -3.53410872723580   -0.30803793904903
C        -1.97225217070419   -1.62847974802519    2.55441894729662
C        -2.73026450709658   -2.50890450251596    1.75497353797417
C        -1.63823696377645    0.76472726969575    3.01888443352806
C        -2.50518936144900   -0.33117469377210    2.71211773625638
C        -1.53674775973872    2.99043139759355    2.07881507252942
C        -1.83854429161977    3.55942300567767    0.78477982511920
C        -2.30047785145201    1.94564844368766    2.54644829639591
C        -2.71677154314095    2.69628962259251   -1.28643510002920
C        -2.93094845822296    3.12107328870842    0.07633348134685
C        -3.35270910016304    0.45618428614276   -2.18521125352635
C        -3.67291707379178    1.68726546809501   -1.54663957231245
C        -3.59800411153783   -1.85928905471814   -1.51895271646861
C        -3.69261161696384   -2.63538274432305   -0.33913044170778
C        -3.80339903737948   -2.00270607035813    0.91185925210898
C        -4.08539586359253   -0.56821856047078   -1.48950089064615
C        -3.64920315187507    0.13952917189703    2.00098615661400
C        -3.51488269864968    1.56568087180243    1.87305106863612
C        -3.87362114206195    2.19938339500332    0.68651817462345
C        -4.40341234259025    1.39644370511839   -0.35774997412301
C        -4.24046352639404   -0.65238851524417    0.97881885406353
C        -4.57009426592136   -0.00954617349328   -0.25029923722588
