68
C68 Isomer 3665 Symmetry C1
C         4.46645070110709   -0.50783897035422    1.13743413220992
C         4.29532377550115    0.84653205195020    1.23190087323320
C         4.36687520950714    1.43531327985878   -0.12027515373342
C         4.62919960978645   -0.80431433930852   -0.29876003296490
C         4.31584721521139    0.37650940078852   -1.05972970413297
C         3.94055682857872   -1.95644337990047   -0.54126395517759
C         3.46809711643673   -1.38099491506734    1.68465969433863
C         3.33942577239911   -2.42146196028307    0.72418836650605
C         2.28209484307327   -0.85863451449428    2.27610651311821
C         3.18151101660028    1.40913704263323    1.90903833933872
C         2.14675571952717    0.58285493810059    2.43189782234184
C         3.48477789486332    2.51019128414968   -0.15625737270290
C         2.85748211630945    2.60150348646043    1.15880347832537
C         2.66394960354659    2.64758880367313   -1.28483284914712
C         3.24361745265130    0.34055772563441   -2.02160768371055
C         2.50347506119170    1.53497820419070   -2.17206964968450
C         2.93995623357780   -2.04726889645388   -1.55427157535286
C         2.51815035957051   -0.90099414917763   -2.27559899845089
C         2.12562580348892   -3.00608533602047    0.43905173568817
C         1.96495544248972   -2.95318616727207   -1.01391907629645
C         1.06906150481179   -1.63700345133150    2.16048038244930
C         0.99745629746873   -2.74633953229004    1.25279344768039
C        -0.17972250474213   -1.06812484578821    2.61226721057415
C         0.82462219380364    1.16687266002353    2.56332076087023
C        -0.34872927304950    0.35105726004015    2.75140451243752
C         1.60786127890619    3.12712104268913    1.26340196295160
C         0.62593634313705    2.48147545204715    2.08864758317393
C         1.39666994042811    3.29738792502021   -1.15503921504452
C         0.92586545086935    3.64648285061004    0.09992683613568
C         1.12943939384769    1.55015578428874   -2.62331711580579
C         0.47352347367070    2.67961100116769   -2.07255940632592
C         1.12848864110148   -0.86351536565078   -2.72237784235822
C         0.40324170536115    0.37644605146091   -2.89713780535802
C         0.71702874870878   -2.97962605680766   -1.53645513741486
C         0.32232110556073   -1.99230825766376   -2.49009321582171
C        -0.27283959223549   -3.17267583012345    0.70590449585937
C        -0.41327268563852   -3.30902293193718   -0.70948065921736
C        -1.33988786603024   -1.85645413227517    2.44750717432257
C        -1.41999388014488   -2.85148865173067    1.40804968719364
C        -2.61893864766351   -1.29249531454635    2.55834192410732
C        -1.67376064562583    0.93314153817815    2.60803513149414
C        -2.81294001483463    0.09453072056358    2.55683294107710
C        -0.64566616511676    2.90396722047287    1.61770042004531
C        -0.46624673957808    3.56441549554526    0.35827919540216
C        -1.81675341286398    2.20050047071368    1.93504623679287
C        -0.91468668827116    2.71762975128197   -1.88713563624399
C        -1.39230565463413    3.31821516747384   -0.66696694366972
C        -1.04251769054474    0.45256648313012   -2.88180200400794
C        -1.69770851400803    1.68146107538411   -2.51293903705100
C        -1.09512039987736   -1.93269638409131   -2.41821748970967
C        -1.55550932097283   -2.81861001009951   -1.35864043723314
C        -1.79990989448595   -0.77108484124114   -2.71829536902994
C        -2.70968556729576   -2.72876188691981    0.76438847863136
C        -3.49096452100207   -1.87549973171512    1.56033056973920
C        -2.76348093840643   -2.58277522502865   -0.65488054628977
C        -3.97383352048817    0.36708971450992    1.71208929454815
C        -4.32690058213261   -0.86901176901566    1.02616730258342
C        -2.93097969684439    2.47404199224941    1.11260592838596
C        -2.69195336823031    3.00003917720350   -0.21064765386293
C        -4.04100732771981    1.56939055212266    1.02916498865378
C        -3.08922598459400    1.67289311024005   -2.20892579305656
C        -3.58791762791581    2.41973343608362   -1.10976562016718
C        -4.50295884730870    1.57675858532299   -0.33332341915683
C        -3.15977316247401   -0.75319449102851   -2.27369647949187
C        -3.64146575761024   -1.62956150722217   -1.19947443821052
C        -4.52307642605499   -0.86088847486216   -0.37149826270258
C        -3.83251696720972    0.45151035012621   -2.20417169951763
C        -4.69639396748841    0.40270023431163   -1.02034014210746
