78
C78 Isomer 19612 Symmetry C1
C         4.42664895507314   -1.79243015999145    0.44957059871631
C         3.68104264522539   -2.84525201643311    0.90463120864719
C         3.05397428707437   -2.45622014062263    2.17668228623315
C         4.37427389273715   -0.75299549618413    1.47007763068364
C         3.36363739857579   -1.10324544428424    2.44637047211762
C         4.28916980842550    0.45649292675093    0.83290400954889
C         4.12953402772249   -1.16883469606954   -0.82486020312567
C         4.24539721014142    0.22367502747270   -0.61011938921456
C         3.09865538781284   -1.64298786006818   -1.64995629154946
C         2.70197110007043   -3.43697101975880    0.07245780292316
C         2.51078845404320   -2.91717586766215   -1.25124931161659
C         1.74003816015585   -2.90771469500412    2.11917389290310
C         1.54893611293880   -3.65183952158389    0.88563818564665
C         0.69456985765339   -2.09639143007154    2.58044087952154
C         2.32007535524674   -0.19813604404631    2.75379154125066
C         1.00761039995687   -0.74301216579040    2.96242000354605
C         3.49764301060174    1.50130625977999    1.39970652432420
C         2.44464272494569    1.19850404968173    2.32900957220431
C         3.40760376448505    2.61260567545196    0.57890763478042
C         3.60631239031122    1.14079486876351   -1.42630259580664
C         3.57811890457789    2.45088333851827   -0.86818762631896
C         2.28398596540220   -0.67511939551764   -2.38800342443561
C         2.57093282350770    0.71571463616260   -2.32653359148465
C         0.99177436252787   -1.05760659151297   -2.90318373668633
C         1.31359845245246   -3.27919723176581   -1.83326336689975
C         0.65656970496015   -2.42756220465241   -2.80373298952047
C         0.28065471341896   -3.83737330573390    0.32968963807128
C         0.28653511576730   -3.95390292630995   -1.08560692162445
C        -0.63472094504976   -2.47460933031589    2.15843518468480
C        -0.88441461763328   -3.32602805954872    1.01174673274422
C        -1.65422003675256   -1.65683822867771    2.61209563693606
C        -0.07274453275962    0.17580399317204    3.15787048076765
C        -1.36646409358918   -0.36812802757913    3.18538902511989
C         1.34403557325693    2.10105260540301    2.39331475202114
C         0.09648613968614    1.59228483464406    2.92427980387978
C         2.44927441226782    3.62757453368457    0.79873565165691
C         1.34943988479103    3.35082483948539    1.63774959117665
C         2.87168953378499    3.43133947653645   -1.50580219997912
C         2.28087814392279    4.28762528825430   -0.47418610089109
C         1.57539409553699    1.69860775217323   -2.73352335538258
C         1.84356662068815    3.06576598579553   -2.45440238368901
C        -0.08360927874849   -0.10615213906130   -3.05036238260531
C         0.20177708272994    1.29159750448679   -2.89756879355624
C        -1.46425729671448   -0.52649229114666   -3.00260183225139
C        -0.67569895545106   -2.82289351305660   -2.86269774815404
C        -0.92010794102202   -3.76148054528503   -1.76577665513060
C        -1.73237371052159   -1.91203783839897   -2.92118828528165
C        -2.12009643278636   -3.17405237093049    0.30322430182480
C        -2.08832219482347   -3.39414029580211   -1.11501323030583
C        -2.72468029495761   -2.42068588529170   -1.99382990064586
C        -2.95269459725455   -1.62456998990135    2.01652355485483
C        -3.16934148542461   -2.31372719160045    0.80394476389218
C        -2.53412774942727    0.42467704844118    3.01928126408989
C        -3.52502964741128   -0.34129524136232    2.30820360869641
C        -1.06964775949172    2.35299251669083    2.75531390531380
C        -2.37524226322746    1.77716540608654    2.77761288492805
C         0.08534837500284    3.94829207607376    1.24271511283095
C        -1.08757783904798    3.42948160263084    1.79737487022357
C         1.04183605142682    4.64811344301503   -0.91536269904653
C         0.77026645201217    3.93864382837938   -2.17939873436432
C        -0.07972128721138    4.50289356317711   -0.06244170442031
C        -0.87609962073395    2.18254677741513   -2.54445010643585
C        -0.54114942511675    3.48342361846275   -2.10985386028572
C        -1.12929841342612    3.99497223743936   -0.88272824051326
C        -2.50646656352948    0.35871919530422   -2.51797810247063
C        -2.17830044009733    1.70129164118386   -2.16289894646721
C        -3.67257303463111   -1.59374163641241   -1.51471363382571
C        -4.05751039921579   -1.66889998315356   -0.11583549888313
C        -3.67006424192075   -0.21015864099660   -1.94167120086792
C        -4.33459507344660    0.29115378552118    1.36443289505312
C        -4.61409889611432   -0.42600035908156    0.17998719057432
C        -4.38379639205015    0.47511354977578   -0.95019000323656
C        -3.14853252974249    2.39174148150669    1.72683845438650
C        -2.30427724676140    3.34401981832954    1.07176042724530
C        -2.25117955662105    3.38979318434386   -0.34386968430769
C        -2.91881430932858    2.38250251992679   -1.12629322362352
C        -4.04783270932004    1.66216149203031    0.99037237199320
C        -3.97300553955655    1.71474739871450   -0.46903639110802
