66
C66 Isomer 3239 Symmetry C1
C         4.60087186303452   -0.05400301687293    0.97903425687946
C         4.55962305804207   -0.44149104464147   -0.35594143614686
C         3.93525388321042   -1.76367711262175   -0.41288776843968
C         3.87326610755303   -1.08353388981756    1.76473111009773
C         3.41936454051217   -2.08681353200770    0.88406045002009
C         2.94845385555072   -0.41647602019760    2.58391125393998
C         4.11811710670191    1.20099150511401    1.34925392380007
C         3.16801328220143    0.99404653745825    2.41859974187319
C         3.52370004527710    2.07446524733630    0.38517265041735
C         3.95240508414491    0.37850539156637   -1.34635721772521
C         3.45551110371785    1.67193967075143   -0.98723600553370
C         3.10071364222384   -1.79761307330428   -1.52040504962668
C         3.13415966826525   -0.49354751913098   -2.15121417811244
C         1.91545684651827   -2.58303083918066   -1.48754445865810
C         2.11409910349562   -2.62504240711716    1.00887417495323
C         1.48858245765275   -3.11960060071173   -0.20097800143528
C         1.62632252251112   -0.89812251641116    2.72346267560504
C         1.26567055339140   -2.12739797830092    2.06313119849270
C         0.59418000758235    0.08495387210543    2.96872091844126
C         2.08747980098203    1.85668984968468    2.22061991192820
C         2.34229876218740    2.60337143201512    1.00882455267516
C         0.77808434904947    1.46536937955474    2.57456139851938
C         1.24755065875710    3.08077025690390    0.29085292416379
C         2.32043426354939    2.12990570322901   -1.70683226102074
C         1.34832296488024    2.96961170228384   -1.12168536006733
C         1.99065980431686   -0.04535752475467   -2.83591913772614
C         1.63379230452305    1.31605494877436   -2.69429992410912
C         0.94140015268356   -2.25747105920131   -2.43813143739051
C         0.92948725709330   -0.95594021052097   -3.05722321408921
C        -0.41276172649213   -2.67527484901019   -2.28867357147754
C         0.18252375102447   -3.59785644014029   -0.11156258520976
C        -0.73693051336978   -3.49660058702879   -1.21261848379378
C        -0.10871505365644   -2.55017215807634    2.10068913868512
C        -0.58529870016658   -3.44361102644590    1.10429753016967
C        -0.71785667479391   -0.37237611928023    3.05404789818216
C        -1.06668592121884   -1.72193491182080    2.72390337491380
C        -1.84056166132547    0.47668086643023    2.84101264816884
C        -0.32244105600033    2.23517399919469    2.05945371415069
C        -0.05779582572098    3.07931303392476    0.91763176234961
C        -1.66963603164687    1.78849355138187    2.33229973371774
C        -1.15114159805419    3.40224540076983    0.07662572433892
C         0.14388336965591    2.83220224902795   -1.89750192296317
C         0.27923722165815    1.71909497474712   -2.79243608843478
C        -1.06116822375523    3.11790265349490   -1.35099036335838
C        -0.42679471842529   -0.53889664774603   -3.12548346627286
C        -1.27881226645434   -1.61135193057226   -2.67439540212392
C        -0.80397635193950    0.80728751727313   -2.93832838822394
C        -2.50671092679697   -1.36113152531514   -2.02538978242342
C        -2.03869968177460   -3.37496763971075   -0.69109290013871
C        -1.95284058841254   -3.44507063152938    0.76038481838651
C        -2.90866336779112   -2.33767649658235   -1.05700161271730
C        -2.45081891124892   -1.71607702022223    2.35171151106233
C        -2.93119414259255   -0.37187236441301    2.44020661214466
C        -2.87497849603533   -2.53606151335840    1.29868886130466
C        -3.56765178283762   -1.92323751972391    0.17021946022539
C        -3.85908767984375    0.09980715305968    1.50119969163052
C        -4.04245793376268   -0.65193772300765    0.26225631034548
C        -2.76215403061958    2.31070081034047    1.57354701793541
C        -2.45921060065486    3.11656200351096    0.44881372761097
C        -3.83044180612199    1.45512143132923    1.17271180244973
C        -2.24293109113238    2.37402863118769   -1.74891296825340
C        -2.10544858205323    1.09849777568302   -2.36460841881007
C        -2.96089093224155    0.01298534572906   -1.89758364345379
C        -3.89032537642917    0.27568389851916   -0.85318565849334
C        -3.17819390222407    2.59050210070920   -0.72116978255943
C        -3.98664323635489    1.56326655568610   -0.28092199079029
