80
C80 Isomer 23823 Symmetry C1
C         5.12326784394266    0.58037725582514    0.37317972024172
C         5.02506252571029   -0.78118967902967    0.37565788978998
C         4.36910193162516   -1.18419752327140    1.64269163249675
C         4.55783671801199    1.07162466928908    1.64169402749186
C         3.89775410277776   -0.00633540741336    2.28646534109102
C         3.90721908043834    2.26415712033227    1.38960980906222
C         4.52473933760316    1.33024919856253   -0.67481002063739
C         4.09030995777596    2.53680759787102   -0.02958063452655
C         3.66891324739080    0.70959101340701   -1.62973971320023
C         4.37252140634254   -1.44555947475576   -0.68443256035492
C         3.61323089427573   -0.72627530805985   -1.65425569044868
C         3.54161863320569   -2.24925089553159    1.36968276352158
C         3.75242171792901   -2.57631201803625   -0.03571832237670
C         2.20966999119738   -2.29312657065406    1.87512182643120
C         2.50697963446951    0.10032997344479    2.59854541688935
C         1.69722245739109   -1.08911866823529    2.48483684185849
C         2.63334529563973    2.51365250294742    1.98861966531948
C         1.88025898632460    1.39940187805991    2.52292277510375
C         1.94633570941872    3.60301994858448    1.42424684569122
C         3.20071258075844    3.33960331723658   -0.67151061764755
C         2.33419506989516    4.10250381445047    0.14730479847986
C         2.51311912578706    1.45361542214892   -2.12321077353092
C         2.43184594509489    2.81494797853090   -1.78516821237539
C         1.28875986571802    0.78692746797531   -2.54132605919271
C         2.45389248641860   -1.38177686495409   -2.23911640701237
C         1.26327719168332   -0.65656826322827   -2.62062395850491
C         2.82898123397574   -3.28229454587865   -0.69906251833272
C         2.31415166258172   -2.76640185141364   -1.95699259378056
C         1.33782181567075   -3.26011254203192    1.27858674597914
C         1.73974351966170   -3.88028395954345    0.04544825734098
C        -0.04964716414076   -3.22288683301872    1.58715997510170
C         0.28454132973800   -0.97968025965881    2.66129758454187
C        -0.51695246589115   -2.14603347693867    2.42595491944101
C         0.44208203952352    1.48948058167674    2.57204389714739
C        -0.33901459502140    0.31730789051913    2.77483305177333
C         0.52183316723920    3.69158042149014    1.50490305325688
C        -0.23646661293190    2.68256700226902    2.09248037312515
C         1.14886622316062    4.34379571227332   -0.60714243385573
C         1.17761274377639    3.49207138871278   -1.75503646119450
C         0.05463161954942    4.26581445502079    0.26192733328674
C         0.04849909298252    1.49697031515929   -2.60079349049043
C        -0.00432049289491    2.86716790839350   -2.16031718191272
C        -1.21704578902463    0.78814911791717   -2.69168433235734
C        -0.01543537783044   -1.33334732432593   -2.70399064141801
C        -1.27512873929400   -0.63525747891699   -2.59040406466819
C         1.09468603727625   -3.41179845710646   -2.12301130895870
C         0.78726164589999   -4.18869812968198   -0.91905824980450
C        -0.07209706378752   -2.72405390397599   -2.47355680264117
C        -0.99219170200575   -3.82864994627625    0.67343151666778
C        -0.57700134859859   -4.07929711034733   -0.65657499189085
C        -1.15306161312569   -3.27865987453750   -1.70017543880951
C        -2.34690383863638   -3.48915086876000    0.76018902756748
C        -1.90380960819793   -2.01636830693626    2.63201372559419
C        -2.80941042173717   -2.82778929999284    1.91511180242882
C        -1.78762114892396    0.43799618740221    2.78639990760357
C        -2.53063793345736   -0.74328372179395    2.85678804492696
C        -1.65802404554023    2.69985382159853    1.80894879218253
C        -2.45514823589994    1.64263973821574    2.32375712795502
C        -1.17903685015998    3.92428385588043   -0.25746013220374
C        -1.21371967817870    3.39096562567905   -1.58902537278606
C        -2.14979347097402    3.48386768703291    0.70531982618291
C        -2.42337075955795    1.47815114088262   -2.53771212792239
C        -2.41936707409419    2.81558582430712   -1.98847545163631
C        -3.63513374311147    0.84653099276888   -2.11403475244283
C        -2.46477490395740   -1.26256380399079   -2.07662680268765
C        -2.34028456737989   -2.57668158670003   -1.49912382264487
C        -3.06749691542388   -2.93309131230902   -0.34514757205233
C        -3.62544922486219   -0.49553914349275   -1.69963968233015
C        -3.96795208123518   -2.05478525669213    1.58543323782497
C        -3.86299403225598   -0.82616128600977    2.28153804935847
C        -4.07142152840237   -2.04315551144924    0.17467156080326
C        -4.40858275615589   -0.86390857322441   -0.52016235131650
C        -3.80826257362602    1.55818840048011    1.87244621492924
C        -4.42735791120662    0.26552443387848    1.68668039538860
C        -4.90562929487120    0.18150491387882    0.31927771026819
C        -3.43512178619049    3.26941355293496    0.18413628214152
C        -3.56867288920629    3.00664400810528   -1.22590635627812
C        -4.39359296634975    1.82550783191000   -1.38632663337030
C        -4.29190040768826    2.38024236387563    0.84794796130803
C        -4.92849025603403    1.50403070724460   -0.15237118999970
