80
C80 Isomer 3227 Symmetry C1
C         5.70561574787407    1.02723782145627    0.26897185995728
C         4.90380243019553    2.18878715428986   -0.05223055149527
C         4.48206214019650    2.06726918437106   -1.37771422151413
C         5.55949998935589    0.07585570166873   -0.81555077993911
C         4.82891650984041    0.70038163139426   -1.82818015636132
C         5.00623760894706   -1.14471639698827   -0.30821591805339
C         5.07854076750447    0.42769985969482    1.37154185388283
C         4.78775087001700   -0.94455527059853    1.10263872867417
C         3.87655700129129    2.34772981336986    0.95281681362658
C         3.97561546969767    1.22423113106322    1.84987633963584
C         2.59931169823237    2.78868256639714    0.59185636217183
C         3.14533151319232    2.30874880392787   -1.73021176035267
C         2.23811258322693    2.85326982870410   -0.79780521041877
C         3.65659764280958    0.13028614617351   -2.39380595483086
C         2.67190529495589    1.16435104953047   -2.46790662157408
C         4.00426055957976   -1.84809957828371   -1.04214854626585
C         3.22287866968256   -1.18287265663933   -2.07726815328607
C         3.36050751272651   -2.83399907485393   -0.29857902932341
C         3.73985896448151   -1.57815981186240    1.78306223218564
C         3.34592387787349   -2.78299163226756    1.14959053986351
C         2.83370689550870    0.61223740104754    2.39254346924816
C         2.72994217047181   -0.82715973443253    2.49699266184337
C         1.53211002676151    2.49943923067377    1.51235204568568
C         1.62581244491665    1.38185615708244    2.38063327249369
C         0.26082104925714    3.05445868247523    1.19516932067561
C         0.86023922835692    2.78735943489455   -1.14664021741314
C        -0.07056265657735    3.27560968960086   -0.18334302792747
C         1.31528718041638    0.87361653656478   -2.56429026766454
C         0.39026994556697    1.87677708845779   -2.12620512996844
C         1.83383333219931   -1.51235122129368   -2.26070001940416
C         0.88583179083849   -0.48317067205440   -2.61920290664693
C         2.12474456071413   -3.41269509852197   -0.73201447692120
C         1.31507476635610   -2.72533919927093   -1.66440769826216
C         2.20750134295953   -3.43714477725860    1.58349714766721
C         1.52452209871273   -3.97706969695547    0.42203379404977
C         1.44296495730272   -1.42650183795803    2.74550478729309
C         1.23805843846566   -2.77892577264459    2.37790762353334
C         0.41024484406710    0.79015038101893    2.85721226733833
C         0.24794244907962   -0.62850975099893    2.92626010729057
C        -0.79942326145497    2.78348079922081    2.06491872242896
C        -0.73844674875238    1.57908392233325    2.83522621377658
C        -2.15700948932710    3.01721006581001    1.71281834884495
C        -1.40920145433026    3.31526801089095   -0.55887391216458
C        -2.47399148805189    3.35806628862854    0.40195070145604
C        -1.00467612057470    1.64997987356947   -2.29380784846330
C        -1.87856765681022    2.55040455600324   -1.66912022019212
C        -0.52919985980006   -0.71965576323952   -2.65912301648095
C        -1.49371395918741    0.35079040406905   -2.66352644520405
C        -0.09904412652120   -2.90841700137820   -1.56997376708665
C        -0.97416333599740   -2.02395335559793   -2.29793538576037
C         0.16594459134914   -3.87827859201178    0.64505117787182
C        -0.05406202862048   -3.19625604505832    1.90791098405153
C        -0.66722932903351   -3.52908151002392   -0.42346379099447
C        -1.07461167020216   -1.16855832713808    2.74419636558313
C        -1.19916206744179   -2.44136377354089    2.09344663304417
C        -2.04877741524154    1.03342128003495    2.92148871222902
C        -2.94992133837539    2.00574115132118    2.37178711289934
C        -2.25464898619079   -0.34472449079640    2.75004062844857
C        -4.14607551710244    1.59566430677527    1.85458766346743
C        -3.64577288513305    2.82054035923525   -0.21078545502957
C        -3.26427548400149    2.25957988233126   -1.47584643635255
C        -4.58331248528685    2.13257437874128    0.57070632239889
C        -2.91771910193786    0.09871686455404   -2.58125741659865
C        -3.84083504882066    1.08269840820392   -2.00203760767379
C        -2.33836376257259   -2.25255166449279   -2.21306975344172
C        -3.31191928637480   -1.25730659656439   -2.53507950405666
C        -2.01698751594152   -3.27826187784004   -0.03664645604463
C        -2.33365711139653   -2.72097314375846    1.23332240106378
C        -2.87354823003707   -3.04340966681392   -1.12014874079502
C        -3.52620292617056   -0.79159608661290    2.19227031416633
C        -4.50311049671308    0.19700450161282    1.91502327276466
C        -3.57102219932613   -2.02520137217956    1.41467356914728
C        -5.35109220263811    1.15888539958032   -0.05780359710806
C        -5.04850156799947    0.65705770854043   -1.35188438805630
C        -5.44723083420661    0.00842109887819    0.85964542739567
C        -4.52592193845488   -1.64677570390607   -1.87850048384867
C        -4.17502257025015   -2.66228345289417   -0.87742463457016
C        -4.57136985406863   -2.19508108583930    0.40609635884438
C        -5.36339265707558   -0.74107358458512   -1.29100653457481
C        -5.50439229698278   -1.14355927703665    0.12711388512100
