72
C72 Isomer 8430 Symmetry C1
C         4.19062640024106   -1.37824063579748    1.27746441800404
C         4.61063586269115   -0.20387642701266    0.71154228065718
C         4.55755409356347   -0.35231033053529   -0.75920140669374
C         3.85502442065501   -2.28967197225219    0.17823287591011
C         3.92228209644749   -1.57999757442329   -1.06232751322035
C         2.71247384572281   -2.96953980550161    0.53326990750527
C         3.10252242990806   -1.38277057908892    2.19532125068032
C         2.29674467996062   -2.50851347046430    1.84726675084246
C         2.45778094089917   -0.18841494799844    2.58015570293901
C         4.01824763492861    1.02696468750603    1.07706204533178
C         2.96469200263888    1.06484736421544    2.03723325531796
C         4.11810725213477    0.86933370163993   -1.27288994953378
C         3.90985642355356    1.78193096328334   -0.15170735632414
C         3.16935358479083    0.84508926445470   -2.30337389984275
C         2.78059666897002   -1.60160098864506   -1.93866691092128
C         2.50583876296610   -0.39586127620783   -2.61347371272127
C         1.72005974765514   -3.27652287003352   -0.45529843285546
C         1.66723123431686   -2.49083927329522   -1.67565015392359
C         0.57539359452354   -3.82245551805655    0.08589460525507
C         0.96518370103859   -2.62928733465783    2.23374898930213
C         0.24713562354290   -3.59434816981803    1.48413155234531
C         1.05684746934776   -0.30656870894611    2.96589195130380
C         0.28209118283728   -1.51300195678710    2.82227487789046
C         0.33227215296760    0.88096185276692    3.09789131652671
C         2.07955732857330    2.20299857391579    1.96811324881505
C         0.83407662535720    2.12750723065641    2.63015103862573
C         2.96921096465425    2.76806240702481   -0.26313919820240
C         2.13289617244335    3.08189704683965    0.85908098892699
C         2.21428712136017    1.89547865075011   -2.41536999257560
C         2.17265356591412    2.90914430271819   -1.45987620683625
C         1.17233527768936   -0.07254402002561   -2.99539435921730
C         0.97785829748571    1.34488408671959   -2.89594059234287
C         0.36881667797540   -2.23705685549837   -2.22726184359786
C         0.10666101241290   -0.95528627200095   -2.84958705516530
C        -0.65209037617951   -3.86303721268906   -0.64974045717979
C        -0.77576285949511   -3.01731292380495   -1.79206631161176
C        -1.13238170897995   -3.63853742721800    1.59112904336459
C        -1.69542527348798   -3.95868873646486    0.29154707007805
C        -1.16674009812475   -1.45931959859642    2.71719450500397
C        -1.85459660633021   -2.54950415700975    2.12972770776097
C        -1.10353282250334    0.92546709921009    3.05019325600472
C        -1.86891464358887   -0.20372124423954    2.72993950285043
C        -0.28206490902611    2.94524929858104    2.27519071505265
C        -1.47245878833205    2.23899761412673    2.64904984708098
C         0.93996900016956    3.66172186098383    0.33739043917730
C         0.92497638701838    3.45452724872042   -1.08470436249524
C        -0.25738568671547    3.69542755347644    1.07358736742711
C        -0.26876952944548    1.89858991473988   -2.60368540409021
C        -0.28383585659160    3.07423306583214   -1.73800384958288
C        -1.21317956558839   -0.37256094177067   -2.91771994909050
C        -1.42504639367647    1.04627520612692   -2.72395842942970
C        -2.07181712930293   -2.55240999934771   -2.06993838793813
C        -2.28656522002107   -1.25597509924221   -2.69282735457135
C        -2.88571467464163   -3.24341914329777    0.14415080688901
C        -3.02258148745830   -2.36012163470852    1.29368813772015
C        -3.15837712726403   -2.75407857240302   -1.13909709633915
C        -3.11210418818272   -0.01351320449445    1.98772051425378
C        -3.63226712273845   -1.10602828181914    1.17262247002995
C        -2.66417485364372    2.43020548843265    1.96016056200963
C        -3.48616131524676    1.29078610717776    1.63711910749807
C        -1.45762166259306    3.79390891650088    0.31954614077444
C        -1.46024672502195    3.40941315931182   -1.08046616068960
C        -2.66075405689209    3.32947478345595    0.86201110025436
C        -2.67350519612360    1.52186070659296   -2.18015963280126
C        -4.06256485523988    1.55862242163168    0.32338965619823
C        -2.67326756118481    2.68839051459826   -1.35909308024158
C        -3.45082177395316    2.72923681179490   -0.18978294407065
C        -3.51757173474322   -0.75710975624151   -2.25505254488174
C        -3.99699247642793   -1.62935034199016   -1.20402895217418
C        -4.25775122008776   -0.82212860845668   -0.08415274590106
C        -3.69080259905887    0.58577393109406   -1.87488957807963
C        -4.30000213946374    0.54226403596146   -0.56355918046544
