70
C70 Isomer 3340 Symmetry C1
C         3.82259623709818   -2.73275136771964    0.72657287836639
C         4.46827392462821   -1.52003690365129    0.44520207742884
C         4.06929294146329   -0.53634051421737    1.42274561629597
C         2.93948954036225   -2.52007223360730    1.83837708664214
C         3.08774210077109   -1.14811350794215    2.26627920779340
C         1.66173757029027   -2.98440566161259    1.48530198446594
C         3.00010378487994   -3.06310841148648   -0.41333560021179
C         1.69886465220760   -3.33548713989018    0.06823469960000
C         4.22505555183861   -1.21349871968944   -0.94440350628892
C         3.17816547218665   -2.09379168557253   -1.43497197148708
C         4.19944122348395    0.09929707721949   -1.28809098537053
C         3.98208780258898    0.82630404471853    1.06812164061366
C         4.37399970788792    1.12672526020443   -0.27759846822773
C         2.96456541728074    1.64132415332204    1.71824011451271
C         1.95972362831805   -0.42778032537096    2.69135090279535
C         1.92630185871001    1.00275441051586    2.50393622419186
C         0.51413845168295   -2.37245121082637    2.02562741142734
C         0.71665250635712   -1.16952355065142    2.78267080707574
C        -0.74040226073695   -2.61418738569091    1.37957128243077
C         0.59869168127736   -2.99746246396935   -0.69990083289221
C        -0.66823678110782   -3.00498667203795    0.00013436071861
C         2.04483485138426   -1.53286681148491   -2.08456709031589
C         0.77177365465164   -2.13837737789944   -1.83842351284932
C         3.22537148960879    0.59614432364463   -2.25572007132079
C         2.03940964572401   -0.15198624491518   -2.51061519200809
C         3.91579972772151    2.30420750621381   -0.88867676709224
C         3.18052163505376    1.97709384812194   -2.12414556274711
C         2.65233578043821    2.88884647731953    1.11024281160786
C         3.16436259528703    3.21701923305709   -0.18243363835931
C         1.32053035093113    3.40004535222834    1.13975135536466
C         0.66803704624898    1.68029397689286    2.72842831064201
C         0.35835518682477    2.89382382831434    2.00936318995114
C        -0.44326101854996   -0.47811980114422    3.09936592897880
C        -0.44769028710413    0.94641725992841    3.17599829990422
C        -1.94734111755637   -1.97913464228947    1.82733524961703
C        -1.75037252063997   -0.94566545888317    2.76588248750682
C        -3.16865676632275   -1.98874397815842    1.03296278815512
C        -1.77962224947344   -2.85773896265339   -0.79274842977670
C        -3.07926204555567   -2.54099184911903   -0.27955976946485
C        -0.39219172154013   -1.52593742040651   -2.36904794450613
C        -1.61161276647049   -2.19018513854800   -2.07642621055161
C         0.80406161793163    0.58307148129998   -2.65022402234051
C        -0.43008420352730   -0.13508482774824   -2.69421638029858
C         1.95729122962316    2.69133415483235   -2.11513475472582
C         2.03815654308251    3.61028419432950   -1.02813609908145
C         0.93944107168751    3.77482639854670   -0.20631894033277
C         0.73762339320063    1.99840798279145   -2.37235527556830
C        -0.34705948841313    3.43817626222155   -0.69534033223981
C        -0.47260665357075    2.53011888620832   -1.80230223974079
C        -0.98211745922052    3.19087350010853    1.66281945882601
C        -1.33046741057808    3.43126746295337    0.29535923013732
C        -1.80709470366724    1.36662610095120    2.98962037403742
C        -2.62932241046158    0.18685175933383    2.81169403485676
C        -2.08137283616998    2.49867071933553    2.23865845120103
C        -4.11709671338143   -0.93384310987706    1.21793835864643
C        -3.76828210654030    0.20533794691205    2.04112970119238
C        -4.83576292785394   -0.40885502357822    0.10385081395340
C        -3.79245401892052   -1.97332250615666   -1.37108035220362
C        -2.81927209674753   -1.61970844203177   -2.40890145909038
C        -4.61971458381652   -0.87644086637117   -1.19248447282292
C        -1.69290393953789    0.56692394861327   -2.62336164848921
C        -1.72463855750939    1.85220871305430   -1.99155792872804
C        -2.89695209598131   -0.20613850262774   -2.63910400925576
C        -4.06174356506779    0.24088740765355   -1.98901066871130
C        -2.62396037880943    2.90972379375271    0.03361631561663
C        -3.16108808720425    2.45998709013912    1.28261681911263
C        -4.08305154753674    1.42082785463496    1.29896884497056
C        -4.64624179207941    1.03490812722198    0.07699535975027
C        -2.87114700652415    2.22069973928802   -1.17776421725342
C        -4.02874575453581    1.38682844194497   -1.16500612403421
