74
C74 Isomer 11975 Symmetry C1
C         4.78535671311058   -0.44296739386418    0.02692366921273
C         4.38920410888029   -1.74392264744775   -0.11684168506974
C         3.77606299509724   -2.16778216636445    1.15146445384181
C         4.42028873211785   -0.01219863719329    1.37597235070669
C         3.61476472469543   -1.02344918885586    1.98103815407274
C         3.93634133997357    1.27442307972470    1.26679433791985
C         4.33775465090891    0.54533518508513   -0.90024942951624
C         4.01583935156291    1.69795294518252   -0.12783929408200
C         3.48904866292398    0.15706874809291   -1.98567875091644
C         3.53502080474677   -2.15760586164665   -1.18327807929810
C         3.01073648370466   -1.21423958885509   -2.10307841924438
C         2.70731531698184   -2.98684618057301    0.85686915738073
C         2.66971064935294   -3.13640474172092   -0.59626407284067
C         1.48931933415983   -2.86502356861677    1.57477828121905
C         2.32439564974679   -0.71230808267958    2.50446608045639
C         1.27667211701127   -1.69547964043782    2.38484909096272
C         2.83331369396795    1.67163152857635    2.06855825242428
C         1.97083147853680    0.68168272080505    2.65970556915824
C         2.33163206112653    2.94130716496024    1.70641152550468
C         3.14647891188734    2.68817730533883   -0.60666099598811
C         2.42331501453038    3.44779115608462    0.33631310338426
C         2.64920740479486    1.16971441214651   -2.48060137381758
C         2.53569583268761    2.45962001088882   -1.85992508803430
C         1.40008166437667    0.88565597614369   -3.11959515017343
C         1.67367933537167   -1.46013560788527   -2.63656147131876
C         0.82632275314969   -0.39216939900127   -3.11558538026680
C         1.48124250978990   -3.42955933677145   -1.18906918179048
C         0.99169442983481   -2.62409775229971   -2.26212607001683
C         0.37931026793413   -3.57309668722637    0.99766600057323
C         0.37887894070134   -3.87267299981150   -0.38609075348151
C        -0.87703114034783   -3.38881857534319    1.59919674032833
C        -0.09246718371188   -1.31656881586287    2.70006482051151
C        -1.10265891947437   -2.24747029408529    2.45494937256894
C         0.59123718441029    1.04581405098920    2.93742415569584
C        -0.47037785085114    0.07156652234165    2.90482906410515
C         1.12762824843932    3.35612669637869    2.24137581089827
C         0.23512476705306    2.40492835790258    2.80421339471209
C         1.17981350813449    4.04713978618817    0.01873861986653
C         0.42454376523108    4.11082590788347    1.23678191631304
C         1.24293369773310    3.00208378189847   -2.13752026669619
C         0.59866519284341    2.05865035495027   -3.00060985108477
C         0.49698088462803    3.74601483547017   -1.19773296351237
C        -0.76455229250425    1.96235592547137   -3.01615055934157
C        -0.62781813729000   -0.50015787684678   -3.09275084233525
C        -1.38594536866366    0.68045730270302   -3.11793906444012
C        -0.44529191889453   -2.73553675692600   -2.22766533732351
C        -0.78781129892192   -3.63758865193253   -1.16645034411549
C        -1.28953256925375   -1.67317092791055   -2.56600676498704
C        -2.05156183422485   -3.61330731999307    0.86687125877845
C        -2.02835351585054   -3.54331048082380   -0.55236998379584
C        -2.47581384529175   -1.84461577412831    2.29047558824268
C        -3.06136766424804   -2.70464814647169    1.33342265525968
C        -1.83951202052187    0.48434239318484    2.70342457336810
C        -2.85021505248344   -0.48796778922813    2.35173951592189
C        -1.06440117510425    2.77003880090523    2.34693082833821
C        -0.91054624076536    3.75916314931592    1.28784186300299
C        -2.10395633859961    1.85780722172905    2.33554841701021
C        -0.95835283178528    3.60569461394339   -1.18113801446748
C        -1.55698727049852    2.81429453203768   -2.17576841611778
C        -1.67422378373090    3.65948233865872    0.08888614933557
C        -2.68519335554360    0.78959269173405   -2.51884675754818
C        -2.80195547824696    2.12965392492977   -1.99434827876188
C        -2.61328197506979   -1.59197363943470   -1.95058164535499
C        -2.97113831045962   -2.55811226036288   -0.99044043678282
C        -3.71391187384673   -2.16318914612979    0.20148684285358
C        -3.30713032155174   -0.31513919475259   -1.91109911977631
C        -3.93146942027822   -0.11794860715561    1.49907671754424
C        -4.22097931649147   -0.89618252258073    0.32628592656878
C        -4.19794738887857   -0.01906777109768   -0.82999599921894
C        -3.16518819964651    2.20188336765534    1.43910137764393
C        -2.89369432728866    3.01185068071620    0.25073646631712
C        -3.54928131766421    2.35553005385002   -0.84827359954362
C        -4.08595957621436    1.23064166228544    1.09069654758654
C        -4.31653406793917    1.28543484616507   -0.34077520852956
