80
C80 Isomer 13851 Symmetry C1
C         4.76496271444115   -2.02304240475976    0.77562194174820
C         4.80389878502073   -0.92210136415653    1.58861050272606
C         5.16360507758511    0.25440158622025    0.78955480700091
C         5.04965595984484   -1.53774563665824   -0.59327790128217
C         5.09198255444198   -0.10725872243285   -0.58635703570535
C         4.16841085967258   -2.17706483733958   -1.42578833558137
C         3.58656603416651   -2.84761143551063    0.74878055880668
C         3.36475664099936   -3.10301054188651   -0.62843825163359
C         2.46752250201184   -2.54672293162821    1.57753090989671
C         3.69473931267408   -0.57277590863110    2.41763528383355
C         2.53973406956637   -1.39081440126484    2.44916717436590
C         4.44536271292424    1.32896069602602    1.30690147930668
C         3.55310451827264    0.84958211644087    2.35591791977783
C         3.94214201552002    2.25712327836759    0.40134465709889
C         4.22523475124683    0.63648304367992   -1.46282225838147
C         3.83283929881215    1.89938637817501   -0.97769705483713
C         3.27363885238811   -1.46331654291930   -2.28841140794548
C         3.25659732261979   -0.05711192962529   -2.32107118632380
C         2.08034296066861   -3.10371567326180   -1.15619213142411
C         2.02600701522516   -2.16755434292300   -2.25150683520963
C         1.15546695834272   -2.91673758494917    1.09366646491032
C         0.98135899073132   -3.18250630873758   -0.29288977261663
C        -0.01391841644752   -2.55899908404684    1.83238212661479
C         1.33122961289361   -0.76802446782561    2.89846895664024
C         0.10902061109723   -1.53154231672185    2.81022871034777
C         2.33432522009905    1.47353140709260    2.59918112608696
C         1.25327759101212    0.64719768770420    3.06645591673720
C         2.80166117035793    3.02942408025726    0.75359400504985
C         2.03387766585892    2.71365786184391    1.89822532239283
C         2.67738950971981    2.58037481620947   -1.48452756937679
C         2.13014761209689    3.40097454735776   -0.45637490791788
C         2.00871035676663    0.57309511617183   -2.72524891296767
C         1.82035553002574    1.96945959742988   -2.42033372147451
C         0.82464236645345   -1.57472670444818   -2.59103614266197
C         0.82515535732153   -0.20013711507452   -2.98489554358225
C        -0.28275502449124   -2.95803530212230   -0.90265085603431
C        -0.37423705574671   -2.20315110397282   -2.09339641435704
C        -1.32166889721959   -2.91409232812919    1.32096293202947
C        -1.42529712730911   -3.15778530909526   -0.07885800903694
C        -2.52315607363551   -2.49785918211886    2.00734341755935
C        -1.07711327589104   -0.94575723961609    3.26853261464284
C        -2.36975291649803   -1.44444640281731    2.93390620591468
C        -0.03527530840374    1.26456944609691    3.22516301295810
C        -1.16016912461565    0.46085386846549    3.43836082087932
C         0.71464242749534    3.18850363189873    1.90757220603893
C        -0.29931508206314    2.52677614149812    2.66317345646692
C         0.78100001124379    3.79668370877723   -0.45443182416359
C         0.09304967158208    3.79984960384319    0.78056456945140
C         0.53753246879009    2.53671314242708   -2.53152875276378
C         0.02211183649388    3.48309438154506   -1.59450847712367
C        -0.47524591049656    0.40143625880883   -3.17381124766178
C        -0.56229971840918    1.78923203735532   -3.04424921021415
C        -1.64342940518459   -1.70313103339557   -2.51271850463674
C        -1.70387015712772   -0.36631326965887   -3.04688384778260
C        -2.66504085075569   -3.07670032891976   -0.74394729001746
C        -2.77956814399952   -2.30414073178157   -1.96305793656113
C        -3.78853063956163   -2.57264261866161    1.35086482724567
C        -3.84697640363610   -2.96679381878553   -0.00980773975180
C        -4.73486366788110   -1.50262886441091    1.47350499761956
C        -3.25491371817745   -0.31826129566601    2.91722062890542
C        -2.48162510477272    0.86424163393023    3.07105096643897
C        -4.36954575137554   -0.30003681955601    2.08723798555747
C        -1.55944680231544    2.80749826057858    2.06402607936817
C        -1.30622113074847    3.52816304879200    0.85497603582089
C        -2.67484876110345    1.96300461895660    2.20684692034058
C        -1.39908987284349    3.32683573021431   -1.51940842594860
C        -1.75309334802784    2.39979638142907   -2.54348153785017
C        -2.09922173974987    3.28546154148964   -0.29119506912964
C        -2.92603957387464    0.31021228792637   -2.85724899752550
C        -2.90920089115190    1.68082561606676   -2.44613380995526
C        -4.05432476784174   -1.63814263309542   -1.91825655575895
C        -4.74426785805873   -2.08135973683484   -0.74971954401448
C        -5.26672598237296   -1.17415846042502    0.15474515805087
C        -4.07364605889784   -0.28528648332511   -2.23151803894012
C        -4.55280825010105    0.80591310566404    1.14880678584254
C        -3.64204447082226    1.87301869174473    1.12210792106408
C        -3.29860018232334    2.47341126687468   -0.15781780826136
C        -3.78037679319814    1.83198332057860   -1.31467545206866
C        -5.10665952080738    0.23116967523227   -0.05221259954546
C        -4.60687514854662    0.66434360401903   -1.27684848751162
