72
C72 Isomer 4575 Symmetry C1
C         2.89445164318342   -3.73979876743938    0.13318257169778
C         3.80968048360954   -2.68705097877976    0.31268986293262
C         3.45996188035541   -1.95557207717240    1.49848714251813
C         1.93149373123027   -3.65213631978467    1.18483942213750
C         2.22754490288277   -2.50697612086864    2.00021639416512
C         0.65570719431410   -3.65545499631029    0.58423132431623
C         2.18348788988433   -3.45848557633974   -1.09807530886452
C         0.79577836543244   -3.49636818856698   -0.84442908937959
C         3.86860293679052   -1.93582812318490   -0.91634845884071
C         2.72361220623489   -2.30317191345631   -1.72917606798090
C         4.21807663164240   -0.62665251017343   -0.81375594138735
C         3.70803600455857   -0.57878821318303    1.57695798259972
C         4.38536898001641    0.00620086353783    0.46951825157559
C         2.77292451812268    0.25572207267053    2.31361041611870
C         1.19355458213396   -1.65267472937266    2.47529525251122
C         1.46378494905565   -0.25741683427913    2.67879815811933
C        -0.40577352096773   -3.01246348086767    1.21935436046889
C        -0.17464309382786   -2.06880742736050    2.25389112336226
C        -1.56651633042054   -2.89749556566788    0.39971347827757
C        -0.08077234081913   -2.61997756116862   -1.51288878205581
C        -1.41526501618077   -2.58940792141317   -0.98001654442649
C         1.87158667765985   -1.28814006972752   -2.24178444422005
C         0.44185030385609   -1.50218111816334   -2.23081645217429
C         3.62737435454437    0.35224895947157   -1.69416352006395
C         2.37861018193130    0.07058492502540   -2.28878304691199
C         4.34405561492108    1.40478247173383    0.23811816378028
C         3.94051362491731    1.62385887067759   -1.14094996706074
C         2.95587521341483    1.63830913121685    2.20752954130768
C         3.84511488419837    2.23413928529937    1.23728193066550
C         1.84431863825584    2.54138627822817    2.37673545495481
C         0.34901072377399    0.65745434103680    2.84389788900173
C         0.53633599691547    2.05326974527135    2.59435199190447
C        -1.26637372206963   -1.21883714395566    2.61290250019028
C        -1.00098179058543    0.16081458399668    2.90423024188912
C        -2.71375621593177   -2.47730873582487    1.07905773652497
C        -2.56359394938013   -1.59447699980701    2.20983068650075
C        -3.84079233361230   -2.13411497314984    0.33955413848417
C        -2.40872321090477   -1.80015861742538   -1.62535512264331
C        -3.70598584171422   -1.76903276970572   -1.02516339144351
C        -0.47520156092252   -0.41645346955839   -2.47216748468025
C        -1.90153494001673   -0.65155604555484   -2.35454629842785
C         1.45604724002358    1.17220659365557   -2.43346073064644
C         0.03723193881265    0.91864268642613   -2.51281759249177
C         3.14945748045554    2.71680787051138   -1.46634933532867
C         1.88967800900925    2.47310465955027   -2.10763577867285
C         3.27929223390547    3.48610508067319    0.85180367029820
C         2.06233966488052    3.69583623675725    1.61518393970628
C         2.97241577468222    3.73728680423493   -0.48113802486538
C         0.95550657597225    3.43897675206949   -1.55407486967873
C         1.02531581412156    4.17098564668508    0.74213596189310
C         1.58955238674970    4.19314080536668   -0.55761940291147
C        -0.54001368580412    2.83471195905243    2.04010197716656
C        -0.28089971065155    3.71891215560519    0.92797572820231
C        -2.07746855546733    1.06032569385637    2.72930535587691
C        -1.82471409832702    2.32769256148473    2.15344644502883
C        -3.67504029130963   -0.67888092891353    2.15226324412978
C        -4.52995541680233   -1.06612574423778    1.06159596665812
C        -3.40566985567579    0.66946193923375    2.32543218711859
C        -4.55805736356809   -0.62693733383612   -1.18352883704453
C        -5.00662103782295   -0.15361061048914    0.14650979046281
C        -2.75978532973287    0.46882602533289   -2.42978522272637
C        -4.07151134319057    0.46100663940976   -1.85750306583368
C        -0.86258532395359    1.99194902977835   -2.19079387752631
C        -0.39903934201151    3.13213110984412   -1.43461178416665
C        -1.09363705820608    3.47535407392898   -0.23641473970548
C        -2.22125800543951    1.75472780758150   -2.15964607981166
C        -2.87256544798056    2.61228597569207    1.20370821989042
C        -3.91547637879526    1.65048714289640    1.38228388471100
C        -4.67632488869339    1.23977115434171    0.27123322833058
C        -4.22250007419471    1.65696415210704   -1.01896480282220
C        -2.43801492767035    3.02412260012809   -0.06938829594177
C        -3.07749822979782    2.42474718136897   -1.18910325474262
