66
C66 Isomer 777 Symmetry C1
C         4.77389532235633    0.45428211037997   -1.38768523465878
C         4.65826137515171   -0.94772650848269   -1.04909194116444
C         4.83820265717807   -1.05123255512955    0.34191179182164
C         4.68432573267664    1.21708371908676   -0.15218478236889
C         4.76321605944010    0.32831245795787    0.90844415191029
C         3.53823914065767    2.09216889871103   -0.21725452919708
C         3.63267111145455    0.79500562653973   -2.12453045247917
C         2.95386934205086    1.89904548334591   -1.51120014497334
C         3.43118224551964   -1.45296198874420   -1.61619042149762
C         2.82364448071309   -0.37362000130596   -2.35631063404095
C         2.54998409716798   -2.27238958594645   -0.85940168615726
C         3.97271801990931   -1.83994790161187    1.09048826864194
C         2.87596061865372   -2.52064408689544    0.51261568358901
C         3.77233896285962    0.33509754170676    1.94336795091415
C         3.42285716040618   -1.01266689224091    2.16942513775531
C         2.64361229262555    2.23326714570539    0.88005836074198
C         2.71587822549068    1.29703154572338    1.97341244081419
C         1.39399520621046    2.86913377665332    0.56917508725020
C         1.58906799751809    2.08091916071191   -1.74338655222817
C         0.92112792388521    2.92249750410096   -0.79077927221690
C         1.44357773956484   -0.23242970108246   -2.49960510750283
C         0.83021917395314    1.07072654137843   -2.42247842053336
C         1.15821964222363   -2.27873242083265   -1.21477288698083
C         0.60507189516353   -1.33658729065091   -2.13601417284224
C         0.22262385722389   -2.84756270835680   -0.27469672861863
C         1.78982280492227   -2.43151673869544    1.47458666748026
C         2.10433569216877   -1.41661175076478    2.43038871627508
C         0.48008317963012   -2.65896883217626    1.12782454077225
C         1.46573735628571    0.90710002661386    2.59320109000246
C         1.10664432333950   -0.48086642223020    2.76475069637147
C         0.39381995348308    2.87071999080284    1.55482430980254
C         0.39532287042720    1.80397561579409    2.49772711729884
C        -0.96879629068619    3.21578408239258    1.29122784232770
C        -0.40884612268834    3.20617343327527   -1.05412129631140
C        -1.34811598808815    3.54277734669726   -0.00541681992604
C        -0.58942123641565    1.20038709619191   -2.48621799555018
C        -1.12347322016890    2.42703238330443   -2.03055559896265
C        -0.81143144107565   -1.21994873792929   -2.32467124091826
C        -1.45948923076274    0.04267805097663   -2.55230620887551
C        -1.08882905696335   -2.97616445814045   -0.64670584237026
C        -1.58533381103209   -2.29383294786068   -1.81210359320045
C        -2.15977337619655   -3.05375012609334    0.32321509748900
C        -0.58017450967490   -2.09755540117264    1.93631554451138
C        -0.25898996585032   -0.91391846728849    2.67261549101536
C        -1.93297420191867   -2.42361935370487    1.58613353659149
C        -0.96592012499237    1.42750041823266    2.72917083332569
C        -1.82741516114698    2.35667542123725    2.06438060228702
C        -1.30640151932017    0.05975729022082    2.85156793208243
C        -3.11759046815817    1.97359868179643    1.61915144990735
C        -2.64007071235472    3.18071673385663   -0.44381725038473
C        -2.49382806067593    2.51561241929398   -1.70524425072694
C        -3.54784608972447    2.41911906774139    0.33353168775156
C        -2.87968517607041    0.17583588264805   -2.27288116140896
C        -3.36760473387546    1.41238638169823   -1.76611952346006
C        -4.18621380618656    1.48124200044654   -0.57025029416323
C        -2.96747752098949   -2.21387902318256   -1.67603176979901
C        -3.35153035962673   -2.80740765744045   -0.40128492389305
C        -3.64070723526532   -0.96942134527854   -1.85388338593776
C        -4.75084886566948    0.31766256235577   -0.06668397412301
C        -4.36120344603234   -1.99720315938412    0.11993032491834
C        -4.60159667478318   -0.87850547824244   -0.82135886460271
C        -2.97837533216967   -1.59053674773524    2.08991449639404
C        -2.63361766037279   -0.29208859433249    2.58172690069712
C        -3.57149287152112    0.68322695964886    2.04622263060028
C        -4.20908488432384   -1.44769379508710    1.38895390751803
C        -4.52436730553046   -0.01854267920765    1.30897667321629
