78
C78 Isomer 8205 Symmetry C1
C         5.22913338516879    0.30612941247994   -0.29968586864855
C         4.82331490533534    1.28418327839279    0.64914845985354
C         4.10624391289756    0.63725853356476    1.71818298531657
C         4.74025966853052   -0.94259564109807    0.11641111737597
C         4.07684246938340   -0.75762392853633    1.39025735839467
C         3.97956172764163   -1.51354780306717   -0.95619846803834
C         4.58133197954616    0.63216880197287   -1.56147663020825
C         3.85855061307022   -0.49999095985779   -1.98790935096958
C         4.17209850036277    2.32082534738715   -0.07984967764850
C         3.90200568373467    1.86762663097366   -1.43867840439652
C         3.17630074499426    2.99683695369942    0.56715732693194
C         2.95572240666154    1.23039112957112    2.28542558734849
C         2.67882529527348    2.54348560878623    1.83317399791747
C         1.83298096118788    0.41033658793391    2.73286270883367
C         2.96689539671862   -1.52965173064518    1.70049617418259
C         1.90230965741050   -1.00270046786711    2.52392394601287
C         2.92637969871267   -2.36560509438898   -0.65842346601328
C         2.62382539183719   -2.56224775065164    0.74198786926171
C         1.86577124272818   -2.52935776504398   -1.61559365119231
C         2.62532270928841   -0.34477115494003   -2.62849409383686
C         1.77503490016960   -1.51141000990599   -2.62763314511268
C         2.61401720948861    2.04853128233726   -2.01139438772881
C         2.04213892602148    0.96448370143736   -2.74777412914119
C         2.06712754068857    3.53508839945133   -0.17084189971838
C         1.70354660458587    3.02011154936470   -1.42495988975398
C         1.38665664156849    3.08621929973173    1.97053494135771
C         1.06014267653264    3.81571793985343    0.78780633827367
C         0.54328847680286    1.00784495403806    2.97348540398760
C         0.37015388891564    2.40550576339949    2.66898916162852
C        -0.64279105262077    0.19562960399884    3.07050609652016
C         0.75689406719821   -1.83179159377199    2.77543873713019
C        -0.51835470056561   -1.23198714769775    3.07498562153055
C         1.56072853909883   -3.36151192639095    1.04260899416851
C         0.76720400292847   -3.13927608784505    2.21983977801622
C         0.72271447282052   -3.31867241514282   -1.28118665483929
C         0.70854794148303   -3.90937565240503    0.00900553171442
C        -0.55717577137050   -3.10662636402563   -1.91433692795930
C         0.58745623293526   -1.39339585382366   -3.32028975756086
C        -0.53845158443515   -2.24694181764952   -3.03028257862698
C         0.68123138184718    1.07535137626254   -3.19860219743491
C         0.10724287204593   -0.09925429827096   -3.72486096826949
C         0.30315115770261    3.08343862036376   -1.79147395099857
C        -0.18888409151292    2.13887188899701   -2.75115255404721
C        -0.25186436005040    4.09827180720704    0.41846807147749
C        -0.62468847232690    3.81622925483924   -0.94862598505001
C        -0.89813409644062    2.97262088287162    2.50209757370879
C        -1.17342453027059    3.94664761255866    1.48894004928102
C        -1.93888002928951    0.77323299079649    2.80733543716818
C        -2.07553659073567    2.16494897743850    2.67425361252482
C        -2.95784291490690   -0.00067828254898    2.13606842339754
C        -1.69892388437114   -1.98699353502888    2.83738054898873
C        -2.80357577137757   -1.36868204454236    2.16983192043386
C        -0.42572596597732   -3.86674625680281    2.00920535528997
C        -0.48838120199958   -4.29056258702073    0.60687919290420
C        -1.64431694809515   -3.30853580952732    2.33225256452601
C        -1.80005961030644   -3.22005171819893   -1.17817803332327
C        -3.20765917543985   -2.19419749547456    1.05953727232109
C        -1.74470279147197   -3.88451853135980    0.07606149552129
C        -2.52048921986139   -3.40234617452598    1.16086470150040
C        -2.83114438004568   -2.20768135872917   -1.34860079293292
C        -3.45429984937280   -1.58837715924416   -0.19756117239769
C        -1.68967551325588   -1.55732889050231   -3.40200680129724
C        -1.29695730307786   -0.23544278287662   -3.85406226284623
C        -2.77746118499568   -1.42460170152725   -2.51812420824260
C        -1.61917408921488    1.93419702082273   -2.85131827003834
C        -2.15308171381960    0.69439820975028   -3.30454191682509
C        -3.14621284947914   -0.04471483775942   -2.51719575115379
C        -2.01531828870010    3.67701010019485   -1.17824238057282
C        -2.48245857202493    2.64890504027486   -2.02739006472966
C        -2.55543976391911    3.85039952664516    1.19912980449772
C        -3.12960076938653    2.71934296453642    1.93323061111758
C        -2.96560625861755    3.77939076954900   -0.10936672006305
C        -3.76301630069638    0.53942511991339    1.05926065532193
C        -3.82756988337449   -0.20652074520965   -0.17934348564111
C        -3.72139028603466    0.54744627867317   -1.40549319162293
C        -3.60779722782891    1.97260109813995   -1.36988810331205
C        -3.90127505304859    1.93946266880601    1.03420146067236
C        -3.90061183299887    2.65174838688991   -0.21218909421740
