80
C80 Isomer 3081 Symmetry C1
C         5.85561812117672    0.86606817688510    0.04400614216221
C         5.48808246320239    0.21411795419249   -1.19068934348951
C         5.25293437286010   -1.13247647109177   -0.91186754852893
C         5.53955965983275   -0.04272068799376    1.12048741348692
C         5.22177033429249   -1.29055268666615    0.55758392225458
C         4.55227322161902    0.55412932856548    1.96821766926247
C         4.97963369443371    1.95764303256772    0.18516780935969
C         4.26756049064264    1.86360053538990    1.42091233021796
C         4.44371157926792    0.98482392483954   -1.85612407270318
C         4.16706112666251    2.09523544394870   -0.99086509063913
C         3.38558775433529    0.34381369787961   -2.53153364391674
C         4.11273182134556   -1.75803147569661   -1.44107457774774
C         3.30370844746262   -1.09371006230787   -2.41452726710065
C         4.02614644930014   -1.96352392122131    0.87868777384687
C         3.44508414016064   -2.42246711150971   -0.35654909875327
C         3.46322576261975   -0.21357483621422    2.45982535190021
C         3.13140222776861   -1.50384502508559    1.89062071756857
C         2.37878586783759    0.56020705958072    2.92273202666948
C         2.99760547656706    2.45428643273322    1.52254699297762
C         2.16978366355747    1.90623949733125    2.51011876946492
C         2.87557539245836    2.63672644592304   -0.91050552390090
C         2.31685973888300    2.99824348219623    0.36641508679231
C         2.15642756053329    1.08778229149694   -2.73564050845252
C         1.99458614637313    2.29150108478655   -1.99057124999742
C         0.94957920711821    0.44087260821215   -3.19730403048603
C         2.05370147380604   -1.67481542107507   -2.61377291602317
C         0.94300752889976   -0.95940326920416   -3.17708335942477
C         2.10208740458504   -2.78247180404605   -0.43784996357739
C         1.51709825371897   -2.63281845252250   -1.71392811301340
C         1.75670165339399   -1.93763821874725    1.84027995589644
C         1.25521785998605   -2.67613491064076    0.71443154926003
C         1.10378044443563   -0.00644716307500    3.15932794263947
C         0.76216964181957   -1.25640710643422    2.63545227296660
C         0.76767482536673    2.18139614491106    2.57063778765343
C         0.12655332722386    1.04912876399332    3.12170976017399
C         0.92581549565675    3.30520776503609    0.45939414579695
C         0.10371020795680    2.93178535084294    1.60137586726744
C         0.72747751053788    2.87251569832880   -1.94216337256636
C         0.23582413132612    3.46215044060304   -0.74907189722160
C        -0.35940356504537    1.07369120152483   -3.16590397572204
C        -0.39297148765120    2.37338193629544   -2.65812399374940
C        -1.60412232794515    0.33164323526400   -3.11676353612550
C        -0.24703059275813   -1.65116423083787   -2.84529303415058
C         0.11180976139943   -2.62586479138430   -1.85891658240310
C        -1.51297069608840   -1.06245681262815   -2.84227723129266
C        -0.15086803660912   -2.85761439916697    0.53469661206246
C        -0.72951155530467   -2.88710305194591   -0.77931715485742
C        -0.63566486577466   -1.55023280837449    2.54276827117600
C        -1.05190005845107   -2.53386883800720    1.59752771129065
C        -1.22012118678577    0.81082596569759    2.94959359395456
C        -1.61104477899731   -0.57099271934127    2.94874482436469
C        -1.33102027746562    2.79355880881754    1.52395520209283
C        -2.02190548658173    1.80616376323288    2.28892467472553
C        -1.18868211697478    3.48073258289070   -0.81269006659451
C        -1.57395739305899    2.88924827459137   -2.04166923251293
C        -1.99061602026931    3.28232729290542    0.32979134564517
C        -2.85576790671113    0.98388488744298   -2.81715009779360
C        -2.83121939840016    2.30299705827443   -2.22944706425726
C        -3.97694564740963    0.16845473121545   -2.52138736097373
C        -2.53408368701468   -1.76740783850022   -2.10855100288754
C        -2.13316201627063   -2.64788255273280   -1.02097216849492
C        -3.79989549495154   -1.19874018947808   -2.09287479211789
C        -2.42668892093183   -2.72846236983101    1.37584162673612
C        -2.99550429825857   -2.83634986805645    0.04884014455467
C        -2.97034738067070   -0.82290787306424    2.75658135600936
C        -3.36513728279182   -2.01953341338370    2.14334642472927
C        -3.41869813470255    1.48983509992010    2.04155024685082
C        -3.91109407252407    0.21621400688998    2.37158849869088
C        -3.32492953232581    2.97852210720648    0.07891197088293
C        -3.78701904408218    2.66182914080346   -1.24468739180833
C        -4.11154597682114    2.20455567474959    1.01379801035261
C        -5.06523904879811    0.68232852453614   -1.76307217085482
C        -4.96199499571927    1.89242810737739   -1.09729388581716
C        -5.19089283477351    1.64115184579101    0.32375341746401
C        -4.74789622747928   -1.49131289601170   -1.03248009002377
C        -4.31988495843098   -2.25919380171516    0.06338842877174
C        -4.55626368118435   -1.75792973350856    1.36196397933641
C        -4.95430622053551   -0.41649149066501    1.57849758247819
C        -5.50033852945510   -0.33122323895021   -0.79250426351695
C        -5.54327850441978    0.27052213544460    0.50050146370976
