72
C72 Isomer 8103 Symmetry C1
C        -4.17863528784052   -2.09367248713472   -0.64105512950022
C        -4.19458655076208   -2.06539256211227    0.73795133466540
C        -4.67299403313810   -0.75001551794876    1.16400250639400
C        -4.52332877657971   -0.75016790105719   -1.11903480518776
C        -4.88155583138554    0.05964400066252   -0.00186008058505
C        -3.49891324279499   -0.36582189797045   -1.98745298211408
C        -3.01884025056694   -2.54475119907712   -1.31544414939401
C        -2.63257558650066   -1.50479961481894   -2.21871973098537
C        -2.00773798201989   -3.21761638112693   -0.58977365848598
C        -3.00930861407171   -2.39227950129553    1.47312027014032
C        -1.94039810455580   -3.04719805533255    0.84502632351839
C        -3.81518725383030   -0.32086280189299    2.18660428072445
C        -2.75495285784330   -1.30368577855503    2.36981161997070
C        -3.48716528922641    1.03840136738413    2.26667806348941
C        -4.40988082769166    1.37673368835145    0.00382101065917
C        -3.93950587660711    1.89717594065801    1.24447484337264
C        -2.90642328454160    0.93325128332801   -1.93457861409689
C        -3.47217021679844    1.82751878800887   -1.00719843439567
C        -1.52131660667306    1.09846539436244   -2.36211902623588
C        -1.30109745886097   -1.33332757501794   -2.60988780905946
C        -0.71816689641226   -0.02092413610085   -2.74293985703581
C        -0.79016360212988   -3.30434183653287   -1.27588743854539
C        -0.44580105812326   -2.41187291246929   -2.31567499801329
C         0.40947924573085   -3.69577007417408   -0.60653506508122
C        -0.64213470998377   -2.91673185758765    1.45546373267525
C         0.48281231731232   -3.53012937858631    0.79139047526613
C        -1.44279260744883   -0.92587717756887    2.67528137858618
C        -0.38882489927899   -1.84908263401975    2.35736795504732
C        -2.13925676662971    1.42520160794994    2.62960134981993
C        -1.12578362819756    0.48667048563269    2.83711003064179
C        -2.88202885737294    2.84141574527061    0.98476040747001
C        -2.59915238831619    2.80936164095704   -0.38513948322160
C        -1.81811536155527    2.61502002907875    1.89489244097236
C        -0.83919126986268    2.30426373082904   -1.97990157673800
C        -1.29237253770781    3.03711378184660   -0.82370597443209
C         0.50923988906264    2.43118205272705   -2.31831303979484
C         0.73758248097423    0.05825270724061   -2.79196075479062
C         1.31183777179756    1.31743021334157   -2.70385497855361
C         0.98740980606097   -2.30515691674329   -2.33896898497573
C         1.50147006878349   -3.27789908943687   -1.42364922413571
C         1.61750418851375   -1.07849261802881   -2.52014439293666
C         2.75480769453654   -3.10599467980777   -0.87221169937261
C         1.76674760536725   -3.34952416018882    1.33952978644304
C         2.90139918257149   -3.37409429911301    0.50842743313027
C         0.97052410165051   -1.46158797696880    2.68270460767246
C         2.00348731080019   -2.33867277610767    2.35266969223649
C         0.24069326288721    0.93502760339954    2.73421098031096
C         1.28556318690863   -0.05378079662237    2.90436223345440
C        -0.51784296682310    2.91600987932139    1.51338878902471
C        -0.31591629470054    3.40005889262291    0.17462972145070
C         0.54816552106948    2.19684883164569    2.15913257434786
C         1.34938567511404    3.29369934753513   -1.56563630864835
C         1.00694288781404    3.57775256307424   -0.24258879733530
C         2.66795626155362    1.52699528495955   -2.20648947115714
C         2.69178236728567    2.76928539148237   -1.56920998560821
C         2.96192435212083   -0.89744957336669   -1.95677636782969
C         3.52955242972588   -1.93641796365541   -1.20133351485966
C         3.47002386834637    0.44937881405912   -1.73394453622039
C         3.89141464956248   -2.45856910769007    1.02812812247453
C         3.36296351152198   -1.87591718450664    2.20378077143499
C         4.35659467234995   -1.64646667236989   -0.03724620256225
C         2.60991764022047    0.37254818837415    2.82496799576022
C         3.66961424473537   -0.54152600816882    2.46801554451262
C         1.90288947704242    2.52117219984130    1.78730912709119
C         2.13926893255217    3.25819026693878    0.60791036862122
C         3.22754603614887    2.88919607725162   -0.25568807767765
C         2.92954534337695    1.66575006501048    2.24577420633978
C         4.34282404181791    0.72701387747515   -0.65853379818129
C         4.71608650074655   -0.33493803188561    0.25255530789970
C         4.53183989447312    0.13373179113447    1.57711791493988
C         4.14163111102723    1.92254026127056    0.14152301131392
C         4.10769024526857    1.51450734201490    1.49496273587508
