78
C78 Isomer 2054 Symmetry C1
C         5.61664784222890   -0.72479416237690   -1.48290107471160
C         5.40456856153180    0.71276388589338   -1.56293527905869
C         5.63275709473922    1.22444699601053   -0.27315222364119
C         5.61953042333446   -1.08469633289714   -0.07653001425045
C         5.65279948666737    0.07295705526265    0.68180243395084
C         4.55413545800492   -2.02314653422439    0.17991939380758
C         4.49187553901482   -1.34118291506950   -2.02937028162103
C         3.92800657299678   -2.27119262050660   -1.08308927893964
C         4.12477204789353    0.94890895510580   -2.18070429696799
C         3.57521819262116   -0.34391420568618   -2.52408737967304
C         3.22314544642956    1.91966345758226   -1.66389567961811
C         4.75785039229607    2.16361902927182    0.24484990400195
C         3.60710279157750    2.59466873850917   -0.46477030648796
C         4.67746893175647    0.32897606776463    1.70899415713966
C         4.29359770919516    1.67866137114236    1.54858664191038
C         3.71852235480115   -1.87263437185074    1.32401478801551
C         3.66662749576447   -0.62539847510354    2.06568428079444
C         2.52499730169087   -2.59925250232060    1.24741223013142
C         2.57555824240505   -2.60612947263236   -1.19101423384060
C         2.01717753972755   -3.08491436987879    0.00678309870680
C         2.19666810311177   -0.60170985903481   -2.54028408334407
C         1.68618312654790   -1.86556458744975   -2.06558628582674
C         1.81171551950322    1.72991593025106   -1.90751463964533
C         1.30273408771229    0.51730073658660   -2.46643040462064
C         0.85725350376229    2.45357323209656   -1.13197966166510
C         2.58118408881014    2.77141349069792    0.52844800577505
C         2.97457248388567    2.08248070421942    1.73537024219294
C         1.25381799822790    2.81826247742258    0.19617825761257
C         2.37236592759577   -0.15524095778433    2.52556642109328
C         2.03779443866417    1.22662402456035    2.35284026861686
C         1.38551385875151   -2.31040849433353    2.06021710545909
C         1.22719524714856   -1.04774185880647    2.63620780642845
C         0.62252884128153   -3.26073600251442    0.12529860325956
C         0.24886925375992   -2.92187907296410    1.45906480909150
C         0.28979396314658   -2.04464017922117   -1.94123655874710
C        -0.23767364490971   -2.90239732276909   -0.91723561211741
C        -0.10070518165796    0.27866938410996   -2.52720969745816
C        -0.62394757118238   -1.03866035713783   -2.41700153613462
C        -0.52203807693887    2.35400644429067   -1.39473980821284
C        -1.01267118643675    1.34535653859191   -2.26140059463211
C        -1.43534072427524    2.91610672665265   -0.43350598077404
C         0.30750065326830    2.56578655003854    1.24875615795940
C         0.67259557059870    1.64278218310109    2.26152202605039
C        -1.04127426668583    2.83984440238657    0.94741547813312
C        -0.13449345202286   -0.58717378983119    2.84961454393869
C        -0.37170397574987    0.82370742453910    2.79155673966917
C        -1.04981907943325   -2.55261928847312    1.74978784847984
C        -1.27903188755730   -1.41668033093433    2.59000453302782
C        -1.62007030713448   -2.89920994907789   -0.60990615551526
C        -2.01794943323378   -2.91482475536363    0.75787336932236
C        -2.03984653455652   -1.25459626108502   -2.35479434124887
C        -2.53017316475727   -2.36567253840153   -1.58582401104786
C        -2.41328282445694    1.16126441630238   -2.44573228623410
C        -2.94138557882210   -0.16439875534913   -2.64868663681961
C        -2.78361264734310    2.89260653469106   -0.74316549674463
C        -3.25480329688826    2.16273502799795   -1.88475841248760
C        -3.80861122325194    2.78837394747083    0.28749079786851
C        -2.00844377236840    2.42734568400836    1.87367450748521
C        -1.67901716780651    1.31326777243898    2.70246011964639
C        -3.39487613761644    2.36317195461696    1.55162157205160
C        -2.63598797625582   -0.90109374071163    2.61930407603925
C        -2.83864760680773    0.48620756191564    2.74188019365060
C        -3.94294976775085    1.15839536700282    2.10165122167979
C        -3.35879477886858   -2.65274586742155    1.06882138770878
C        -3.69526131622055   -1.60069071520348    1.99871758363537
C        -3.90575980055115   -2.46428495748161   -1.28841532346585
C        -4.31546347359877   -2.69431869287441    0.06285809048174
C        -4.34932890458055   -0.37254928285412   -2.47930351259126
C        -4.81419846679791   -1.53327231590000   -1.83821404110008
C        -4.63359538831375    1.91037956189302   -1.67221397185726
C        -4.95172914885858    2.20361557020716   -0.27227528850306
C        -5.19455591465031    0.70056043746104   -2.00483759328713
C        -5.00792568335228    0.46010388774891    1.46856579781292
C        -4.89696251925904   -0.96788955554465    1.51640646795716
C        -5.36008298681637   -1.74463167896714    0.40639096248831
C        -5.77258652560280   -1.13239225711830   -0.78015373017637
C        -5.59126427306394    1.06459475046679    0.28854271478005
C        -5.95278042401827    0.24016110684547   -0.83829892478696
