74
C74 Isomer 5489 Symmetry C1
C        -4.75836184414364    1.55145913259515    0.61565260198561
C        -4.64367146763589    1.19486078306692   -0.78943546722359
C        -3.60575992924663    1.96357704524315   -1.34553618245322
C        -3.78540547036919    2.54448760647570    0.92372833327452
C        -3.13907127049455    2.85947112674828   -0.28941010173088
C        -2.93843468052511    2.04122965206286    1.98538409385071
C        -4.44944020744994    0.39943890265549    1.35392549915580
C        -3.33097578653281    0.69025605885660    2.22588231218177
C        -4.57404054438109   -0.22910549386375   -0.86654190038394
C        -4.40967966499211   -0.74325968184517    0.48235209584232
C        -3.76531277797507   -0.77472696871434   -1.84206126100840
C        -2.62943534592041    1.38277668997199   -2.21742285150030
C        -2.83332218923821    0.04182526859933   -2.57201380697714
C        -1.27674884615777    1.88502998810426   -2.26042533520096
C        -1.81650894115373    3.27861597190335   -0.27023772110556
C        -0.99046844229966    3.02416749186130   -1.42561402510068
C        -1.59381045814627    2.39257535348065    2.02124289046171
C        -1.16357999157157    3.32767631615685    1.01360956359293
C        -0.61141431873176    1.46865071632013    2.53917593520046
C        -2.36647749624580   -0.28068935830685    2.46718928933556
C        -1.00193469058347    0.12299191253928    2.75416251427460
C        -3.51464287663115   -1.76936998430660    0.76127511273832
C        -2.63703543000318   -1.59979765239076    1.91401114554038
C        -3.14526619181316   -2.04339870233384   -1.61385502640091
C        -3.01939472580201   -2.59502494140234   -0.32957053642944
C        -1.72710775010926   -0.78207542804255   -2.94674061731053
C        -2.02811855515328   -2.11112696067350   -2.50615367685093
C        -0.17246239401919    1.07554432835075   -2.69620186258762
C        -0.40307573478559   -0.31945451615147   -2.99356232827379
C         1.19871749148201    1.51235783618416   -2.49878501177760
C         0.31479618234268    3.49254556167229   -1.36587108740087
C         1.41264302080772    2.79338947008718   -1.97279088436284
C         0.16329322280130    3.70739333557979    1.04050594261140
C         0.79076666008818    4.07434206797283   -0.15980092863570
C         0.80030198114528    1.80186809672088    2.44787319610511
C         1.14427080875388    3.03256793469291    1.87053352529052
C         1.81501723205516    0.75724580084549    2.52501167406180
C         0.01446859213412   -0.89960618585413    2.87971864188832
C         1.41057733343168   -0.62541798463482    2.67735435987657
C        -1.68766124416925   -2.55852381084575    2.13800097506351
C        -0.43202732923026   -2.23275721650171    2.77888855398181
C        -1.96724895643439   -3.55317190316334   -0.09924831033064
C        -1.46632137829705   -3.66570985531725    1.22662714398279
C        -1.02366939023891   -3.00916451464450   -2.29035476314075
C        -1.04860746959497   -3.86253428689295   -1.13435662517623
C         0.66368514680897   -1.29839165728259   -2.87967702624757
C         0.31865291309183   -2.64253547911779   -2.60935915401775
C         2.29646009821455    0.54560494326820   -2.42813451116557
C         2.00229640356116   -0.87109918308412   -2.56186899474878
C         3.49438166870820    0.92031929553835   -1.79210533864807
C         2.59897904986479    3.11929805063365   -1.20755263016668
C         2.19563030819782    3.80920146171348   -0.04200307641602
C         2.42693383274268    3.24173910121418    1.24528664567126
C         3.61516888535219    2.17939602489669   -1.09053665768554
C         3.10603117297508    1.03382227515365    2.05166941498813
C         3.40475156220965    2.26607950695111    1.36006112944616
C         4.15391881969748    1.93398783627988    0.19671075823822
C         4.21680875027185   -0.04427281989486   -0.99278297308457
C         3.87721010718560   -0.01298393079381    1.41214823257564
C         4.48733702419267    0.53901191915357    0.27007305333995
C         2.28636270285675   -1.67814928370067    2.22048782660080
C         3.42912663885002   -1.34677750449108    1.40555866101482
C         0.45948892921315   -3.25623673735258    2.43804375323450
C        -0.17497397077273   -4.13558792033158    1.46724013339975
C         1.77100597296603   -2.98644328147258    2.04953582272983
C         0.31251606097218   -4.22632145940959   -0.87653869536064
C         1.14037568285477   -3.50954691757218   -1.82048488193160
C         0.76427048400035   -4.37597790760899    0.43738243243155
C         2.01542911362662   -3.76474929112742    0.84407712290203
C         2.85843317835407   -1.80912380344530   -1.94702383230784
C         3.84329708441258   -1.36445306131282   -1.00572437484141
C         3.65227393270976   -2.08616670414001    0.21714074670282
C         2.39240821545575   -3.07343014060687   -1.46567951555904
C         2.85038149646048   -3.22564233491986   -0.10505916002838
