72
C72 Isomer 1490 Symmetry C1
C         5.62690583246353   -0.35206585950208    1.06145596930187
C         5.62196655266846   -0.02857971934489   -0.36451903191218
C         5.41317780390642    1.35685649077728   -0.44962466107915
C         5.05405346364053    0.77147638134494    1.76886010116318
C         4.99295311619815    1.84967520319277    0.90002749988725
C         3.84371295514286    0.33296637191137    2.43996555122757
C         4.77002675203580   -1.43324985775185    1.25865523739029
C         3.74200184038356   -1.07448664731022    2.21864220032075
C         4.70727420846448   -0.91426048993981   -1.02506921604373
C         4.29483209697411   -1.87563638961586   -0.02113584020227
C         3.68638606273304   -0.43425762039334   -1.90892937639358
C         4.48517310335332    1.83874584947879   -1.35916842838001
C         3.64609757660904    0.97290364612457   -2.12193380226870
C         3.77602672136820    2.57325074934377    0.74986079643571
C         3.59614855734786    2.75430803408614   -0.64732701814808
C         2.64921531410324    1.08347711317997    2.38132951661748
C         2.61044575592448    2.25894796021189    1.53420191766367
C         1.41597986324126    0.37954273408834    2.63914136040575
C         2.52167304967414   -1.73119241028882    2.16787062308937
C         1.34583787408110   -1.03869031906243    2.61460005194633
C         3.08439424453291   -2.53787904980494   -0.09165549504262
C         2.36086525397879   -2.74558014792501    1.14837828589825
C         2.44179276278495   -1.17638513825501   -2.04077920715103
C         2.29750082948368   -2.39377132468605   -1.29487145446121
C         1.21308490607199   -0.54896171170945   -2.45912740391485
C         2.34904587891443    1.58931887875631   -2.17750692796718
C         2.33210446176170    2.66716965241628   -1.21908130936105
C         1.17959403446618    0.88133979314942   -2.40356984757304
C         1.33959808823335    2.61267952484780    0.99750927920329
C         1.19886036327381    2.82356203630389   -0.40900419626330
C         0.17861207052104    1.09205692297281    2.51907820556674
C         0.14140493618453    2.22510167410090    1.68261351383047
C        -1.06380017585783    0.44493177442536    2.83769988178422
C         0.06527940598656   -1.69926111067375    2.52224727769212
C        -1.16248189760077   -0.97588816214120    2.72570852719872
C         1.13394397785154   -3.37000225668254    1.07773617317711
C         0.00278429015075   -2.93058870869584    1.86401922483892
C         1.07782399551817   -3.07513555614342   -1.32968902396256
C         0.64006479729957   -3.78208184814977   -0.18449305432029
C        -0.06826351681376   -1.22035961852383   -2.42118825010166
C        -0.09504927561782   -2.54017645788457   -1.96608760511134
C        -1.33625671975693   -0.50868239058431   -2.45291602357313
C        -0.05332144777047    1.54322362032289   -2.06731728081971
C        -0.03528904190265    2.51424617480168   -1.03500359476728
C        -1.29189899340800    0.92114238633608   -2.36022573931248
C        -1.11807111441238    2.67219195730226    1.14043406717479
C        -1.21403072424871    2.81032902214325   -0.28901506996997
C        -2.23411177376972    1.22916994948924    2.72824139108454
C        -2.28676572343769    2.35831810982900    1.82363381179929
C        -3.49436890096874    0.62553505014282    2.71051636050575
C        -2.41847014599593   -1.53937407666709    2.30469787724432
C        -3.58865828297555   -0.75147781474883    2.38792414350998
C        -1.19049142198322   -3.26183511321642    1.13172270119950
C        -0.79109370005473   -3.72866345764705   -0.13963698644951
C        -1.25835580003065   -3.03080008124696   -1.27261116109761
C        -2.37715666911108   -2.53445282734739    1.25807576752172
C        -2.55841223911129   -1.14464337068840   -2.03911926626877
C        -2.45084087216872   -2.31007693758805   -1.19273829370594
C        -3.15872304094999   -2.32448078752488    0.06648596518296
C        -3.74839854111724   -0.37578191466703   -1.89870633048590
C        -2.45332909878587    1.65444393448212   -2.01035760559311
C        -2.43257338475927    2.61092846841907   -0.91867477153621
C        -3.70159996747605    1.04329275306019   -1.99812329605077
C        -3.59957801527514    2.39461743343908    1.20662090523696
C        -4.38998738344256    1.38967083404547    1.83929130616956
C        -3.67557200082868    2.52113671288910   -0.19653781888955
C        -4.51846393157565    1.63296962110304   -0.93499053623449
C        -4.61070337111220   -0.86618762636365    1.40232812494029
C        -4.31512163019624   -1.51664272309946    0.17948655684989
C        -4.70231010690110   -0.67461085025458   -0.89313300125209
C        -5.13674640938876    0.46992831047096    1.09705377345449
C        -5.19534747852214    0.58774524713998   -0.30924602084874
