76
C76 Isomer 7169 Symmetry C1
C        -3.92343449277271   -3.04463439375217   -0.19811671555453
C        -3.80490902931199   -2.67351557686288    1.19607354592214
C        -2.53456232272356   -3.08873420955767    1.65566008090192
C        -2.71937735471229   -3.66305407337161   -0.61261894738048
C        -1.88763543306080   -3.75983986924061    0.54011282148417
C        -2.21316319262639   -2.92536742985183   -1.74623828607990
C        -4.09484603852686   -1.84975378853227   -0.93634696196049
C        -3.05396259279288   -1.76997255048046   -1.92247334967050
C        -4.18822090277902   -1.30397559941930    1.30588413253369
C        -4.32591490935460   -0.75821567024871   -0.02922059679460
C        -3.50777105035832   -0.54047714258744    2.23133000094728
C        -1.73377010059623   -2.25614746075122    2.48669838819448
C        -2.35062873350970   -1.05682498973382    2.89328653136812
C        -0.27622288321464   -2.31027722608946    2.42083827397405
C        -0.51201433914123   -3.68131396257652    0.39368230734335
C         0.33513413058425   -3.15894343134944    1.44103209309213
C        -0.84801284440314   -2.81088495215477   -1.91768665478956
C        -0.04032981267744   -3.52447981083412   -0.95787351379068
C        -0.26643124952301   -1.62142706511475   -2.49919025842479
C        -2.47801531303622   -0.54153517258300   -2.22382511880205
C        -1.08697334615503   -0.47092037826221   -2.63080099721681
C        -3.81293489162532    0.49958300911620   -0.34463859015613
C        -3.07778106683147    0.61622846278834   -1.58961252997919
C        -3.27981800804244    0.85676151987625    1.98619484827726
C        -3.43334736569948    1.42097586746052    0.71832164264831
C        -1.55032330166832    0.06358257291636    3.26225865572082
C        -2.16642796413250    1.25718818963479    2.79009483537720
C         0.52512282690351   -1.25570930466708    2.96673731994789
C        -0.15693611870470   -0.05058882705597    3.40103891260699
C         1.94866204331219   -1.20464424430964    2.72414795790919
C         1.74893231540544   -3.15059623855768    1.23081269277531
C         2.60084475745503   -2.25170688950215    1.97298123394621
C         1.30592664984176   -3.48762198036389   -1.13902493384095
C         2.20556385106262   -3.61995162202901   -0.04002080031072
C         1.15562496344558   -1.47894439569459   -2.54029696081459
C         1.90558953724575   -2.61670124965470   -2.13082332565682
C         1.80755880533307   -0.20149005239102   -2.48284666202532
C        -0.43950617703375    0.79370508006641   -2.76818707081384
C         0.97803492516484    0.96213579733808   -2.57377472905541
C        -2.50526956687307    1.82770051418891   -1.86561807765104
C        -1.27932510959448    1.93054651345294   -2.62890460571719
C        -2.73536781245137    2.65739798017267    0.42551197953241
C        -2.56042888182440    2.94349923208285   -0.94829571838513
C        -1.44379947505381    2.42579770844448    2.51868681130091
C        -1.79743926679658    3.23118663569571    1.37051972856775
C         0.49666952966221    1.19149000980017    3.41807803508257
C        -0.12497262123552    2.40347595568520    3.01271511257594
C         2.61185242927867    0.07606680803345    2.84304917962481
C         1.88147255949815    1.25034694032519    3.08599662011619
C         3.81662491890180    0.31423006640881    2.13081787379990
C         3.94079618218073   -2.03952159251321    1.49370832650909
C         4.50686912031102   -0.75031395885661    1.56768763063662
C         3.46681096446570   -3.24672314840514   -0.55754587377227
C         3.24996136946898   -2.52253794848228   -1.83103490402276
C         4.34959291710425   -2.53261710781596    0.20011901896196
C         3.16572600992028   -0.08023574219779   -1.98694985664536
C         4.93529029926390   -0.33004143833921    0.22602072911069
C         3.91991695279267   -1.27693563290821   -1.75995586344791
C         4.79533322622633   -1.39005266000873   -0.62793533087735
C         3.87371714611154    1.42452773785609    1.20587871485581
C         3.47063617046535    1.07856343091386   -1.17604559440470
C         4.32696684823643    0.92030337579786   -0.05412813952447
C         1.48276933922006    2.22417275309255   -2.08746637511365
C         2.57120306811495    2.19768707783370   -1.14687808057139
C        -0.74849641843981    3.19133753155451   -2.40614715121278
C        -1.57821678418059    3.85146028829859   -1.39048203324663
C         0.61696361256936    3.34858753952116   -2.06077930559200
C        -0.79656640615614    4.12444397554312    0.89147925444259
C        -0.72673286059524    4.45178605667068   -0.48633879592762
C         0.64621368446454    4.24494175809567   -0.95658068658775
C         0.89565717047009    3.19646081287973    2.39154853253753
C         2.12562282758006    2.47400636968353    2.40844385747352
C         2.96379835335723    2.46500008555507    1.26748191506266
C         2.48541946276054    3.01836721540231    0.03188217035543
C         0.57473718405265    3.99740334561554    1.32609246600330
C         1.43626988598349    3.96128056930583    0.14579916429716
