72
C72 Isomer 676 Symmetry C1
C         5.33586594759205    0.40675598425160    0.24531608684639
C         5.14535154552583   -0.96663603744691    0.26273166376693
C         4.30168102875148   -1.31333146437442    1.40924503382147
C         4.59989526695824    0.96782710787752    1.35040099209445
C         3.89825329654760   -0.10635115068879    2.05820729940425
C         3.79167323931170    1.97471559464933    0.82880035710026
C         4.75750090276938    0.92591394748058   -0.99719236763163
C         3.89881473027128    1.97435103589513   -0.63895653227818
C         4.46679050482581   -1.37056981426359   -0.94507872876799
C         4.17186606684214   -0.16020979222955   -1.71485031490200
C         3.30590307424614   -2.16444528596871    0.91340102499224
C         3.39290697530160   -2.17744847381290   -0.55219748074364
C         2.03393994917602   -2.14691813899317    1.48302667069853
C         2.55127159444509    0.05576140611037    2.45223044370843
C         1.68407329165588   -1.08508168366122    2.37221731935574
C         2.54201092305593    2.27388249848574    1.42850213205294
C         1.88943386253105    1.35457986294712    2.31826085160866
C         1.73292998692545    3.11480256376853    0.66164822353116
C         2.74501764869159    2.23148383733214   -1.40798830335544
C         1.80506264293869    3.07331239706788   -0.78674451108122
C         2.89893407830557   -0.02427575977258   -2.31261807759022
C         2.22608749271854    1.25492496905595   -2.31658389209374
C         2.20007593287895   -2.20881531754578   -1.30868602533995
C         2.04790304633682   -1.19854453462622   -2.32047539118925
C         0.99608963467200   -2.80030935955266    0.72715088928493
C         1.04104039056576   -2.78668434490375   -0.71203434199597
C        -0.22824361474636   -2.89335776958035    1.35236846696031
C         0.31258472969800   -0.95102457489995    2.75373649074863
C        -0.53640199163104   -2.03139415954437    2.46278518209361
C         0.49268745994893    1.50231609201945    2.56143635325313
C        -0.27293680950493    0.34364294799211    2.97151632303743
C         0.40536341309130    3.37958214329672    1.03118555532635
C        -0.24942016244181    2.62033998595687    2.01533251923911
C         0.51640750731492    3.28554813125021   -1.29353680726543
C        -0.28542122693350    3.72899105704181   -0.18739909617256
C         0.83451597915400    1.37022664539850   -2.71655423661664
C        -0.04592515329743    2.42598077220958   -2.27272464242842
C         0.77923180947923   -1.07196198549223   -2.85774228698497
C         0.18919316488608    0.20975053668086   -3.15357258614661
C        -0.20783064635035   -2.80138310080134   -1.41523598222421
C        -0.27034910814085   -1.97368459435978   -2.55231419981030
C        -1.44243850922869   -3.20110565652968    0.65967975803860
C        -1.45223594119412   -3.12795151890692   -0.75199932089688
C        -1.94876292611912   -1.92783808320582    2.52285425253204
C        -2.52495312416847   -2.72080695481628    1.45986805855503
C        -1.67200581212506    0.42882016134064    3.04509076349895
C        -2.51766807076078   -0.71245348550598    2.86478171061339
C        -1.70129416167589    2.65214825692992    1.99342724201536
C        -2.40598525050065    1.58434051407004    2.58136647621103
C        -1.62957462777347    3.68528960218165   -0.25706454226010
C        -2.37517920159081    3.33038162861067    0.93115348562911
C        -1.48605409580665    2.29449744106400   -2.31636266580294
C        -2.25757255251753    3.09996082666702   -1.42431843688774
C        -1.22450485171990    0.06061321083590   -3.18183447454916
C        -1.49857116684732   -1.32906803653287   -2.93164437680885
C        -2.11360173362842    1.06833543402514   -2.75297842089749
C        -2.68284691050172   -2.72198348099190   -1.34196765603566
C        -2.68807042193586   -1.73396758071824   -2.40108064421491
C        -3.71561330268113   -2.31345010336760    0.86754295207757
C        -3.79909287759764   -2.42488563012834   -0.54264688555435
C        -3.74783800648577   -0.28665247929872    2.24170675680986
C        -3.68438298746354    1.14638862440812    2.11111720795754
C        -4.34202405426784   -1.06557050391712    1.26127400418732
C        -3.61126587066163    2.87724725152826    0.45965514520053
C        -3.52494796505986    2.70628594564960   -0.99497804051298
C        -4.26759731455893    1.75743367463812    0.99034793920812
C        -3.42273358128626    0.64391133723556   -2.26252554127928
C        -3.70697633810286   -0.74513191931930   -2.14222123053510
C        -4.45597796719284   -1.23943372470218   -1.05388255397080
C        -4.81981292792277   -0.42451294794127    0.04264937824339
C        -4.10997237059035    1.47431998984601   -1.33323070669970
C        -4.71527348240090    0.94557603260182   -0.12279370817850
