80
C80 Isomer 17985 Symmetry C1
C         5.21761675849586    0.38374239659489   -0.32787244150835
C         5.13684109652931   -0.25239421999267    0.89743966564715
C         4.64011964737151   -1.60092537043453    0.65928407598291
C         4.74477966273445   -0.55067965065933   -1.35147804692499
C         4.35038284267548   -1.76089635752097   -0.73682750001506
C         3.83910427290203    0.12745321154480   -2.16904335402921
C         4.57403099921185    1.63696479712034   -0.55347761818434
C         3.76099692753167    1.51138983685089   -1.73675155109725
C         4.02410300015044    2.30218988179363    0.53439931514802
C         4.36649227324020    0.31754847689145    1.96160454235717
C         3.91156171069255    1.62024961689203    1.81135451079591
C         3.64622753807075   -1.84761104574203    1.60477103424558
C         3.42712590536711   -0.67259144731703    2.41925829954662
C         2.58693052034222   -2.71027566241027    1.29249353775847
C         3.15017649724579   -2.40313427190768   -1.11317319422950
C         2.48149175411853   -3.13917910081975   -0.07211188297205
C         2.68774181164166   -0.55903601430119   -2.65347381087777
C         2.33885180974986   -1.86061415769061   -2.17161370256924
C         1.65153342040156    0.28207373376994   -3.09023443712616
C         2.56763504334350    2.23528382218697   -1.88673880947081
C         1.59770401490340    1.64765580596979   -2.72966346764679
C         2.83791969826191    3.09370032072089    0.35328843364359
C         2.08276409031543    3.10588962645030   -0.83832102495350
C         2.65243795100528    1.97156692875481    2.38915924864076
C         2.15241208156718    3.06044205433395    1.60551132486977
C         2.12088083932821   -0.36137371403404    2.84096826001640
C         1.73861091151603    1.02618955179233    2.90539014881213
C         1.41357602593605   -2.62515825330082    2.12068189116283
C         1.09490312779833   -1.37694547111995    2.77674168456880
C         0.38392556777049   -3.51831004748382    1.79377527537601
C         1.30920218027347   -3.80361557518464   -0.44069400719615
C         0.42011307086608   -4.20835074267413    0.55157260444198
C         0.96345588363215   -2.31657501613962   -2.33753552143740
C         0.53919182746554   -3.40994834236976   -1.59703172522377
C         0.30661222234132   -0.18419122892471   -3.25159649892775
C        -0.08521067863396   -1.46013839110623   -2.85962244250573
C         0.21905352587861    2.04149185335046   -2.69442872715569
C        -0.55720554877604    0.93344864804252   -3.12629067326518
C         0.66517017647122    3.43643732165885   -0.77285787129472
C        -0.29015949690939    2.92857575449924   -1.74483637998623
C         0.83464005026255    3.38243801847585    1.66678156537788
C         0.12965954287713    3.74254457398758    0.48166702803851
C         0.33502678642757    1.36953467833650    2.98403425761032
C        -0.05066311742476    2.64101557676261    2.51050633199594
C        -0.28256110920165   -1.02468508963392    2.98640352836838
C        -0.68292854639006    0.35964240316657    3.08057584316848
C        -0.97475525066359   -3.21062669841236    2.06352948164672
C        -1.30656917195525   -1.99731444745719    2.68358007953907
C        -0.91226913136915   -4.21530328102256    0.00011918594152
C        -0.85532858537875   -3.63680523645871   -1.29788514669409
C        -1.77899768300980   -3.69306234973242    0.96096195673613
C        -1.48541413713035   -1.65077011717154   -2.54577014350998
C        -1.86927509347934   -2.75819849410147   -1.70849914124234
C        -1.90765662398909    0.79373346268666   -2.83567628794440
C        -2.39114215549126   -0.55249935009434   -2.68404684194841
C        -1.71619676175965    2.87050069955581   -1.50205526013863
C        -2.54359512356870    1.92439080200583   -2.20605868854730
C        -1.25382648732270    3.55916247120579    0.77325553953780
C        -1.35711110449711    2.90035898737014    2.03753811802286
C        -2.19830104921212    3.31129085824269   -0.22143093151160
C        -2.07169332019705    0.73685375672054    2.88811664718995
C        -2.41493487225491    2.03075899666026    2.33566105349819
C        -2.64823357639510   -1.59805048556213    2.50895624590042
C        -3.05081972734422   -0.25812251468273    2.69843968376574
C        -2.93610302090924   -3.01706279202661    0.53761387368765
C        -3.04459509173698   -2.65545771747850   -0.86103099264591
C        -3.50024628753495   -2.16841130473799    1.50104964264694
C        -3.70652073660271   -0.68747239627621   -2.16574740055782
C        -4.00317812869296   -1.70104397757316   -1.17971700037468
C        -3.89528070370869    1.73909579391846   -1.81231525927402
C        -4.48389132509358    0.44548703474457   -1.91230526793208
C        -3.45771231573921    2.88061631222599    0.27473880726539
C        -3.57195159676456    2.22596794935730    1.56130204994636
C        -4.37831418017946    2.31028705864631   -0.60414903346260
C        -4.28275340273836   -0.04226587740911    1.96243701582711
C        -4.50292869297026   -1.21614879002394    1.15763869344042
C        -4.86520501128986   -1.10385216764486   -0.18939149649656
C        -5.23309651871911    0.18309066656497   -0.68194866004824
C        -4.57483218258668    1.20908233481715    1.44041993419926
C        -5.13854551909369    1.30195109396385    0.12368182456118
