70
C70 Isomer 5513 Symmetry C1
C         4.68603292457323    0.19762126627007   -0.52109930859954
C         4.57377851406117   -1.14597158576274   -0.24109927139542
C         4.15919127180020   -1.28543838287050    1.16249461071973
C         4.28801273080719    0.92341590021552    0.69116169520871
C         3.85356724313356    0.00319623757817    1.68552891739995
C         3.47464985525194    1.98176075887304    0.32054369691399
C         3.97510951737836    0.78171976877065   -1.61279607609811
C         3.33735487810490    1.97112531282988   -1.12354356438780
C         3.21930081514575   -0.03982042508185   -2.44353465088965
C         3.74490236255722   -1.99957064525569   -1.03079406642798
C         3.11468644240422   -1.44800926837607   -2.15255711616745
C         3.23563174101907   -2.33104402655015    1.21712605583594
C         2.95809325766011   -2.80620354365034   -0.13410478727737
C         2.18100188268949   -2.19972924910090    2.12312687677164
C         2.60661150937233    0.23634422924256    2.36426337732012
C         1.88024122233353   -0.91583375681046    2.70635536558181
C         2.37169805626980    2.36911095426459    1.15389925767832
C         1.84805639220917    1.44804015284534    2.14754295491530
C         1.54042687889832    3.29851817490907    0.55622550276948
C         2.16824965449096    2.47439179960626   -1.70278573103299
C         1.49027744145710    3.40460432014742   -0.88484670098322
C         1.92363885866225    0.40400259464090   -2.90481052037891
C         1.37809261751032    1.66091353101808   -2.60325842586041
C         1.78134456238267   -1.85529694780075   -2.46473975192993
C         1.07191583382372   -0.72575262286378   -2.99803369429964
C         1.67205476947626   -3.24066520494819   -0.46263931443360
C         1.08558505383100   -2.81151354023298   -1.71658510663860
C         0.97525423503373   -2.88168276805349    1.88507958057672
C         0.74898577706575   -3.50097998951563    0.62771456659281
C         0.47397427149659   -0.87620205298102    2.89327360151813
C        -0.08586215307327   -2.13129130196098    2.49396641665146
C         0.43955275254065    1.50578069327365    2.44462281496793
C        -0.27998356939497    0.29416803318188    2.79523993072366
C         0.22344563415415    3.55778650231805    1.06380057520525
C        -0.34613125422642    2.63856330757378    1.99048976467104
C         0.19629690418698    3.78684243841331   -1.22385921468390
C        -0.53951620899927    4.06377162255168   -0.00723226942341
C        -0.06489012334576    1.80725862008745   -2.64781903913485
C        -0.62111642469642    2.96652612858652   -2.03946793500359
C        -0.32605897262653   -0.63226628991355   -2.95026126272873
C        -0.92476006820675    0.66961133280022   -2.81214831021036
C        -0.32874010296860   -2.91131000798749   -1.95429820598959
C        -1.02877165718143   -1.85068356035413   -2.64557375921803
C        -0.57302724699958   -3.76412479709705    0.31996676149326
C        -1.05670582245326   -3.70151051685976   -1.03258114807349
C        -1.41932783488136   -2.27821368647425    2.12669067450326
C        -1.66345049710292   -3.33537794213741    1.18385364141832
C        -1.70810878952603    0.12801147060088    2.60160900177322
C        -2.30167211010751   -1.14451838458684    2.21404668504636
C        -1.75076522469923    2.53834943035001    1.97139092466196
C        -2.42735446029230    1.30756463205586    2.33473095689241
C        -1.87091095136347    3.68209812006284   -0.19630152162570
C        -1.94252917472060    2.97821485524731   -1.46988104278033
C        -2.52417723498535    3.14544694635597    0.91352638880317
C        -2.31489737196562    0.74941536970423   -2.40396845845081
C        -2.80708373434707    1.89207045358712   -1.64712227680696
C        -2.42941723682539   -1.73622458270648   -2.50647747037304
C        -3.03432296117173   -0.44792882265855   -2.31451883869719
C        -2.46187896773123   -3.60496617411736   -0.95208141979959
C        -2.83314615585271   -3.35348469043435    0.44302798603672
C        -3.14405905733106   -2.68023664359200   -1.71959053275301
C        -3.51773020514291   -1.18259994353522    1.42585055968149
C        -4.07840749795789   -0.61181629944404   -1.30856536206605
C        -3.73596653554195   -2.25350644904521    0.49511546063732
C        -4.05567075623261   -1.94644953713226   -0.85282983706509
C        -3.63370012097929    1.24036910296641    1.61870438917020
C        -3.61435001639394    2.30063937572918    0.63840137049757
C        -3.78335212124005    1.69121983497370   -0.61689878195407
C        -4.08834611015811    0.04897670272837    1.02741702970673
C        -4.29782713105914    0.36677366553149   -0.36808261870555
