68
C68 Isomer 4461 Symmetry C1
C         4.60659995394368   -0.17861200008227   -0.05581954153122
C         4.21029994400613   -1.35317839422536   -0.66262771437357
C         3.61643030294503   -2.17340996848833    0.37892771510281
C         4.06174178165423   -0.16572151271934    1.33055123089302
C         3.34493471781939   -1.35962673645270    1.53519110944227
C         3.44118069298447    1.07785149634904    1.54409293622008
C         4.26029103474086    1.02759095215866   -0.66106910597500
C         3.70950281154572    1.87894174333666    0.38453469254985
C         3.36542010212738    1.08161583307526   -1.76566351685386
C         3.29190259544395   -1.33723231621374   -1.77497349452587
C         2.78132780122917   -0.10851430107362   -2.30414597000992
C         2.56978861128388   -2.86985609267188   -0.18432259189281
C         2.37794399766928   -2.39502831074178   -1.55173083224076
C         1.45763375481387   -3.19400710091091    0.60992856640069
C         2.03305119549020   -1.33630509145188    2.10559643981311
C         1.12996143727913   -2.41005325026016    1.77310537621253
C         2.16303895844073    1.15689927061805    2.15887551486751
C         1.47944195539536   -0.06931139959211    2.51569182809641
C         1.39690337022253    2.34787923858856    1.85816493966171
C         2.72209478315352    2.67711178988814   -0.17571729644053
C         2.52499343904803    2.23046290491707   -1.53343356187256
C         1.63199238310536    3.08058323352631    0.62600743412395
C         1.27977054839638    2.36308211938279   -2.12613467730746
C         1.40774938271537   -0.05882038864340   -2.78141493887550
C         0.75279354715173    1.23240653666830   -2.87090536883409
C         1.09257686832941   -2.40528963756841   -2.10538806858457
C         0.57385079260914   -1.23713817871859   -2.76559658340194
C         0.43698736054300   -3.78790411197567   -0.15827228367348
C         0.20095785610671   -3.33140853232337   -1.53329386926689
C        -0.76409755809779   -4.07828761607952    0.44017940572453
C        -0.25146490687353   -2.37854805489754    2.18214476712198
C        -1.13730836797625   -3.35374327223070    1.62541059482454
C         0.08302599991145   -0.01331009703031    2.86069174670154
C        -0.80670344662496   -1.14410606192568    2.68475763095458
C         0.12097836735726    2.43815906063453    2.39374435283149
C        -0.49082790174114    1.27627066206810    2.99142914619922
C        -0.92265672703447    3.23772300872586    1.77986101238593
C         0.54790460111834    3.59724302863978   -0.09204200765888
C         0.38621563317187    3.26638078615964   -1.48183954907415
C        -0.75113533476969    3.71837521529149    0.48158526890308
C        -1.00222894307349    3.24745248612902   -1.74721883679596
C        -1.74306917915271    3.48297777117559   -0.52514108671826
C        -0.59907158286212    1.28439330651726   -3.19217365708890
C        -1.46925030809764    2.34742676934806   -2.69954616920324
C        -0.85930419969910   -1.16923383557611   -2.92993668621278
C        -1.38910791722906    0.08955041787167   -3.27526483087404
C        -1.19236549191733   -3.27689751956544   -1.73062462325419
C        -1.79579328605300   -3.90215176606721   -0.57944850419306
C        -1.77874166923612   -2.13272250786767   -2.32969212434335
C        -2.50530784536375   -3.04551664955288    1.43333098839753
C        -2.87509671570149   -3.33460673397456    0.03719084410043
C        -2.21990956095540   -0.88980501313116    2.49752993297265
C        -2.99957560300320   -1.78477026170680    1.72256310831730
C        -1.88079463816323    1.46555939214284    2.89844326577632
C        -2.15503289644891    2.64182530976920    2.09469695360217
C        -2.71268979162528    0.43451002912348    2.47588090285885
C        -2.92533489969893    2.74203594855506   -0.23947100318553
C        -3.10217086525633    2.29805582328807    1.11149944902091
C        -3.53527513579155    0.95265623850014    1.39975279049974
C        -2.75224942159618    1.81168334049414   -2.51532930148061
C        -2.71491901751833    0.42983863698139   -2.93167531080634
C        -3.41936656115296    1.88620224531988   -1.26889700543383
C        -3.04197243787904   -1.67429604891305   -1.77328840649823
C        -3.49564737446795   -2.18786116471715   -0.51860851958360
C        -3.74563807667010   -1.29481864593955    0.56546766864438
C        -3.93234018890643    0.08907445845844    0.36349085975064
C        -3.43557644265051   -0.33854502434126   -2.01064732157594
C        -3.89226228846458    0.55681854392765   -0.97396411333083
