76
C76 Isomer 17041 Symmetry C1
C         3.90220721150710   -1.38911579485296    1.56911974690983
C         3.99336284731170    0.04911232994805    1.56757938109531
C         4.55705570815698    0.41231764271700    0.32703478892392
C         4.25468358234277   -1.86332557384949    0.23946865851854
C         4.58876760246245   -0.76982183125246   -0.53051181347053
C         3.25699830667732   -2.75993953053991   -0.22038628516770
C         2.73594969255695   -2.05383337316323    1.93606003864055
C         2.41698612626760   -3.02558661660522    0.91112478717638
C         1.69052751546693   -1.37547908004239    2.61598777826811
C         2.92775031887612    0.80209083566440    2.11752836559445
C         1.91073404296077    0.04422162543798    2.82991583432950
C         2.57611081282029    2.06459744729836    1.51774243323675
C         4.00175023756986    1.45915238845536   -0.40879781102269
C         3.14099392749910    2.38186918754993    0.23969639515679
C         3.87228466085010   -0.46146655141707   -1.72681310194607
C         3.66143088376128    0.95281805275422   -1.71794171989528
C         2.65188936064626   -2.55311150239337   -1.48990139437653
C         2.86539687639155   -1.31452300112832   -2.22357260365450
C         1.42085788990321   -3.21159215638028   -1.63583567751605
C         1.12013757814823   -3.49607816711216    0.77544027568431
C         0.74695748381461   -3.82737809220307   -0.54827004768516
C         0.37216518208281   -1.92439624903496    2.58519533759576
C         0.10424383722261   -3.06237172788776    1.71816749044331
C        -0.73653893505530   -1.12509986608950    3.04078425703429
C         0.84546709695800    0.76352680954960    3.32510577488013
C        -0.42786980330446    0.15040193788042    3.55371467588839
C         1.33870974423036    2.72594349599752    1.89313826989518
C         0.63542006542833    2.14588629680264    2.95900315290395
C         0.59065501688672    3.58173682631642    0.99905557571222
C         2.42203750042979    3.19685946484522   -0.64381443580836
C         1.20837846497249    3.88374332688953   -0.23696916674811
C         2.64398198710705    1.54426383833809   -2.46354077687721
C         2.29021167081330    2.84411720154866   -2.01306700645635
C         1.76721221558061   -0.72097777286244   -2.97388459236545
C         1.67797918408705    0.70312877677140   -3.13681985956575
C         0.43110574059929   -2.78123683706253   -2.57063187978990
C         0.57847246275922   -1.52271465754955   -3.19883886674834
C        -0.62611087603461   -3.95855323644331   -0.90490062807399
C        -0.83809827860026   -3.29712038415963   -2.16393199164839
C        -1.21421073686909   -3.36381436327348    1.40521940387627
C        -1.57721885184276   -3.88959293251381    0.09464985435638
C        -2.08341018589015   -1.32831621583191    2.56331106259898
C        -2.30451739382128   -2.51712328352225    1.83672971738446
C        -2.97865294860806   -0.21585769824890    2.30715023468116
C        -1.39241741016971    1.17230365074132    3.50965325841077
C        -0.73169731163924    2.40674612975525    3.11973703782578
C        -2.58717866582069    1.05085974557007    2.80291524543889
C        -0.86313644006135    3.64757101301401    1.03735585886033
C        -1.50257438617820    3.05505921403342    2.14848198852034
C        -2.72301067601694    2.27274759439656    2.02437674620901
C        -1.62565565431646    3.69468922843059   -0.20343023628962
C         0.45735591665246    4.14439449434315   -1.38191049018152
C         1.08278932059248    3.43810548876137   -2.46670516073648
C        -0.93830972872473    3.87836372261105   -1.42000002450268
C         0.40467368396738    1.31730042446316   -3.47771865610281
C         0.12066320604683    2.67193860398988   -3.10860744434292
C        -1.17730854344145    3.04848173137691   -2.55476743887668
C        -0.63634454481584   -0.90035684387455   -3.54633798298522
C        -0.72213345689981    0.51447652077368   -3.64725791444926
C        -2.04052901663163   -2.58244931965054   -2.40210145735601
C        -1.90766343956697   -1.38774428515461   -3.12912311294929
C        -2.85236093350963   -3.36961825478676   -0.24062435857458
C        -3.31782556383487   -2.57859183488285    0.87136285529581
C        -3.07284611473976   -2.64291929132967   -1.41607251470875
C        -3.81064045460497   -0.21793956132047    1.12151159358023
C        -3.93293186701289   -1.40942871830927    0.37609766564337
C        -3.81825242075502   -1.44481471931624   -1.05215955361552
C        -3.34676167600489    2.20617352017017    0.81568607506275
C        -2.81673656937611    2.93151577558504   -0.30915454291515
C        -3.92739460003564    0.97305856017231    0.36378063911980
C        -2.24952756329876    2.14884224036407   -2.57007622471687
C        -2.04666716666130    0.91202052996385   -3.23600130295106
C        -2.75164993739696   -0.24889755664680   -2.87479515749040
C        -3.66167475476877   -0.25070166114188   -1.77130888803809
C        -3.12843936717630    2.17002284107607   -1.46169078022497
C        -3.81205868892306    0.96143002747683   -1.04960935392779
