78
C78 Isomer 2108 Symmetry C1
C         5.77033639153864    0.64544842116973    0.90894744417920
C         5.61481216103244   -0.79345136042637    0.91374123207328
C         5.59397251606076   -1.19302055705248   -0.43211232810103
C         5.49273250781905    1.12403904793549   -0.44143520981742
C         5.43065052471667    0.02764217684629   -1.28332332736238
C         4.36439969134432    2.01787424616993   -0.39456154602415
C         4.78556991365621    1.18557403415907    1.73254816726585
C         4.01994090823072    2.16057128799745    0.99386778804720
C         4.47711287580159   -1.11840372754408    1.74785161990772
C         4.02608206289285    0.11429177293085    2.33772106826857
C         3.46701740702706   -2.02877581845592    1.32049511303658
C         4.64156268597338   -2.10746292716899   -0.85128739142115
C         3.61985238714923   -2.59530467065817    0.01949615043558
C         4.30014311440503   -0.17121215488629   -2.13682975118199
C         3.96059069669425   -1.54720073253793   -2.01068967880030
C         3.28940960130146    1.90304834597816   -1.30621164884134
C         3.22569416043734    0.76794380598036   -2.19768814948982
C         2.06143856831230    2.54906394296678   -0.93523504443816
C         2.73201174087908    2.44701742862772    1.39966715955430
C         1.82291145332448    2.94665052703108    0.40777275114577
C         2.69904596292093    0.34213196251552    2.69215611957586
C         2.16193143738021    1.67147422105048    2.47724694282114
C         2.11824387848095   -1.86628125790350    1.83308156932787
C         1.76172068434472   -0.74721309632489    2.64910771900906
C         1.01977449298398   -2.48640207008943    1.16154305863497
C         2.43586075866419   -2.71811136346643   -0.78416822531372
C         2.63452057226174   -1.97480398498959   -2.00251329677262
C         1.17435177822019   -2.76469485508153   -0.23383798847080
C         1.90508209799198    0.28167380156664   -2.54086245017983
C         1.61092436619221   -1.11027576871793   -2.43165712386559
C         0.91750081739578    2.38488320417062   -1.78668151236664
C         0.78072054629527    1.15492777177702   -2.51048584961831
C        -0.24738940968235    3.08569523645783   -1.46850636509986
C         0.50615052633771    3.30916381683869    0.83128656323375
C        -0.47185233669861    3.55656980086205   -0.13416019688552
C         0.83207763011791    1.88312934162848    2.77491179994963
C         0.02562458729292    2.84943003102479    2.07614206151531
C         0.38579257601349   -0.49366274620529    2.96095889573818
C        -0.02883120719769    0.83250597348829    3.18259243469617
C        -0.31356890760859   -2.36481722004398    1.62377483983525
C        -0.65137767795342   -1.39928161701806    2.59726803265459
C        -1.36817875120940   -2.88422505439657    0.78797281198272
C         0.06713102233581   -2.46191284798818   -1.10501295555095
C         0.27875999184484   -1.53641395192709   -2.15447646518637
C        -1.23161473286535   -2.72089281873424   -0.62751976797537
C        -0.54490624884139    0.65424715286708   -2.77943202322656
C        -0.81527144870815   -0.73056763921897   -2.56894434082015
C        -1.50487839051946    2.76351352134373   -2.03898754204986
C        -1.66688676230429    1.54948159072929   -2.73726952466908
C        -1.86808831244495    3.46162470382587    0.14138407564880
C        -2.51366548468729    3.17373266761390   -1.09962679956701
C        -1.34103808155767    2.52098058688571    2.26089513357979
C        -1.37794162586799    1.25827832605886    2.94598779530514
C        -2.33886221039334    2.82989322225031    1.31421546889151
C        -2.04219806754673   -1.02767348737955    2.76354057434906
C        -2.42407691575412    0.36631795137999    2.78485437171866
C        -2.65016853091150   -2.90729724106143    1.32374501509568
C        -2.99778425871854   -1.94775163708706    2.34754350248804
C        -3.76941199005070   -2.99629366854342    0.45081724671135
C        -2.35710260693587   -2.32455460478733   -1.41976230034478
C        -2.14508055813555   -1.23551715120258   -2.35322918665063
C        -3.64530626258788   -2.56630313681350   -0.89148215156021
C        -2.97988318363997    1.01452262725476   -2.78540048416703
C        -3.22469781360110   -0.38952539832684   -2.64384625873106
C        -3.76681361560493    2.59914488787976   -1.10128268871983
C        -4.05242652647478    1.67792445965672   -2.13145300499011
C        -3.55192547878595    2.02380895151589    1.28110780715441
C        -3.63840033020744    0.82659741504883    2.11373902152931
C        -4.35044267184338    2.08559978674072    0.12808536671385
C        -4.34353735583398   -1.51826721997477    2.10126856039594
C        -4.87528312859421   -2.28524052395829    1.04911084909700
C        -4.62740779132927   -0.12456703649879    1.84654813957402
C        -4.74918356886176   -1.64348078810751   -1.15539069371095
C        -4.52294514493495   -0.57342604474524   -2.01205748206637
C        -4.98370221762316    0.70707491809205   -1.62561233646540
C        -5.21545082867954    0.98934075426376   -0.24657104518813
C        -5.43219894350885   -1.40028381457092    0.07555013314651
C        -5.41167571696763   -0.07526372868739    0.62505973140284
