80
C80 Isomer 9598 Symmetry C1
C         4.84826074197445   -1.07073093812791   -0.94090377976051
C         4.30024595463813   -2.26015855226196   -0.44700185407381
C         3.19588432141370   -2.65181664589440   -1.28881109722687
C         4.02151258478809   -0.61367494474711   -2.02146248115313
C         2.98883141416525   -1.58338112828409   -2.24229071173766
C         3.64569670145491    0.71475979830196   -1.76718860211452
C         4.78085657593581   -0.06744012827181    0.10809492227798
C         4.16978081537630    1.06651959253080   -0.44374316124191
C         4.03815904559999   -2.04876393770832    0.95707122298668
C         4.21127726995315   -0.64035210795976    1.27775080058561
C         2.96725572138407   -2.69676166418271    1.49377028647585
C         2.09473883791223   -3.31115248142249   -0.73193374754697
C         2.11425085681184   -3.53001793699504    0.67700692094164
C         0.80492424997784   -3.16358417121481   -1.36099925076819
C         1.69162963091395   -1.16583976784325   -2.55709658065798
C         0.61792912865569   -2.09295163405577   -2.28635495920857
C         2.36744846306817    1.17911340290076   -2.13940914149831
C         1.39473222373054    0.25126351212012   -2.65203554545607
C         1.95558057398694    2.41954408992432   -1.57009913964074
C         3.38171820858383    1.86764037462285    0.37019187357622
C         2.58408961835855    2.82798698268935   -0.34673258042476
C         3.20569834844666    0.05803320476115    2.00576666593050
C         2.93837010650622    1.40707831930754    1.64089405831514
C         2.12319104202646   -2.05531312105846    2.46821127593391
C         2.12223178818065   -0.66684042930397    2.64831228092830
C         0.90779488882261   -3.68158159877102    1.37843877350792
C         0.91380871005760   -2.79061915548169    2.50062157934613
C        -0.33965131573206   -3.74085927125599   -0.71291989914406
C        -0.29680721049219   -3.99816600644794    0.70989664797705
C        -1.59784895482465   -3.50218558137864   -1.26891128114959
C        -0.69341204108009   -1.69701359888772   -2.67108824008280
C        -1.76004666951195   -2.53148852771005   -2.29821120478114
C         0.05191533501146    0.69481641171563   -2.79748601506239
C        -0.96768823089462   -0.31444147751769   -3.01166756670837
C         0.65572627820899    2.93134068509732   -1.86151040103437
C        -0.31292620701951    2.04270937949323   -2.45148495178739
C         0.21963206951970    4.08226372614172   -1.16597553745848
C         2.02442648376794    3.80543034518858    0.44983327168629
C         0.99209140884033    4.61060541546878   -0.08525857113311
C         1.83083234722445    2.10925618346477    2.24306878904620
C         1.65371314273478    3.43626899844705    1.81962458286126
C         0.85198670662879   -0.03228210739741    2.96629693463661
C         0.73003803227586    1.38286270329463    2.81960901366783
C        -0.27505576408652   -2.23575105969401    2.96969180090295
C        -0.34360769960842   -0.81366978735994    3.16102053743377
C        -1.45234520983165   -3.87208300109384    1.48123687097635
C        -1.42554001647928   -3.00404956285306    2.64290904942522
C        -2.82002992465760   -3.54185434483800   -0.50408855513691
C        -2.75132630568648   -3.73263408110251    0.86799617584019
C        -3.11105628831476   -2.06271241347465   -2.24614283793437
C        -3.73457389606385   -2.57261743417145   -1.05516531916671
C        -2.29848130437281    0.08689459299784   -3.09019312225292
C        -3.38559936843715   -0.79168178223353   -2.71078091445872
C        -1.69723634199599    2.35706973433361   -2.26358207464227
C        -2.65654875977113    1.41728461955116   -2.67755494798182
C        -1.16727398405640    4.19986485305115   -0.77267937254628
C        -2.09954580497021    3.27256045569774   -1.22460304331040
C         0.10808319185534    4.95924028358419    0.97954665469404
C         0.44346038136153    4.11203518655654    2.09216827570761
C        -1.21976651587014    4.66202548403889    0.57855700220567
C        -0.58010215228747    1.99204193562098    2.78746630612776
C        -0.70421447946163    3.34286110044760    2.42954323848467
C        -1.75900989043754    3.73669526757523    1.52275659243123
C        -1.64537006105141   -0.19651826447728    3.03981523333979
C        -1.75866192062286    1.17433628998717    2.66363561565305
C        -2.67846902148053   -2.41774189604654    2.76334487166744
C        -3.53956940787853   -2.89031520111880    1.70125326851640
C        -2.79101589100397   -1.01169755784499    2.85384031283063
C        -4.46102102523110   -1.68573111454435   -0.21321916544535
C        -4.24462124524902   -1.79958297855381    1.19145329346869
C        -3.83721676567412   -0.63208484342922    1.96034309861911
C        -4.34191892124581   -0.02165372765278   -2.00507993057398
C        -3.89924304866214    1.35456766564219   -2.02408747363387
C        -4.70499542406488   -0.37041076522831   -0.69391922446668
C        -3.10333941056461    2.82780196865373   -0.27826007451405
C        -2.72559760261883    2.81841879770613    1.11114452212015
C        -2.86488520740908    1.60726972479319    1.85937742515259
C        -3.84785530659435    0.65043222390363    1.40324816123507
C        -4.00875551750332    1.86401668486942   -0.71449631128193
C        -4.44757308735413    0.79629673541616    0.13462046068446
