78
C78 Isomer 20688 Symmetry C1
C        -4.32397056346596    2.17723852459648   -1.05996191405568
C        -4.56429030943228    0.98059763490247   -1.68756375823399
C        -3.62174133617112    0.86568222830727   -2.80407510952296
C        -3.25087363415610    2.85476079631635   -1.78877645160742
C        -2.74117781627437    1.98552150650924   -2.79743770835973
C        -2.38110032607055    3.36733633774225   -0.84562383390773
C        -4.03425844039083    2.22691912287500    0.34294222516961
C        -2.88467258070872    3.05701830254937    0.48649389312976
C        -4.20333691570221    1.06336156613836    1.14147371237345
C        -4.56989706736765   -0.24062167993819   -0.94978576385890
C        -4.52703351291042   -0.20407564692640    0.48111842625281
C        -3.09633327577279   -0.41338977054693   -2.74499351571551
C        -3.75344057816997   -1.15437846954034   -1.67291914029454
C        -1.73920788817910   -0.64384873142573   -3.03595315203421
C        -1.34722974432350    1.79173354813050   -2.92524176885889
C        -0.86296831898521    0.47200765545771   -3.23362277460421
C        -0.99440366378713    3.38362904444843   -1.09009841298359
C        -0.45256041095274    2.64584716094047   -2.18691765494718
C        -0.17517484837458    3.66807188208511    0.05154263619030
C        -1.97120311964079    2.88315458980080    1.53339912955056
C        -0.59769047386806    3.27166951023033    1.36626126901917
C        -3.38726090739077    1.00962674585274    2.29737657410717
C        -2.29713472711837    1.90444721863870    2.48740261496561
C        -3.02348716224649   -0.23205348701629    2.92220671428370
C        -4.11545881519071   -1.40249027711591    1.08179109662538
C        -3.46937679756648   -1.42405973774192    2.37716517808343
C        -3.11912206095408   -2.23621276959155   -1.04779524104145
C        -3.51798701507049   -2.46067078240437    0.29967061204187
C        -1.21583188529933   -1.91089303536220   -2.58824171999689
C        -1.82127059454269   -2.65568333172809   -1.50270530616117
C         0.09583710599064   -2.16379155525970   -2.90829827851183
C         0.55664173896665    0.23908640496451   -3.29386004100136
C         0.94158138898231   -1.10976981317913   -3.42686164172706
C         0.97413900513180    2.39244944773903   -2.22278709890752
C         1.52111392549415    1.18884390776874   -2.81372639466444
C         1.18293394200862    3.78637854416974   -0.21982704280393
C         1.77542542390762    3.13986231093667   -1.36563163738810
C         2.10031719736028    3.70159830401605    0.83422978790223
C         0.38921494049586    2.74841667259568    2.26472324489822
C         1.74112160287139    3.02690438810996    2.01086368752076
C        -1.24571806037770    1.20387931376047    3.16533251155916
C        -1.67614483914268   -0.13153464362459    3.40358026062793
C         0.09435204857324    1.54128011189162    3.01137758468594
C        -0.73733601925063   -1.17753068352652    3.27761881329131
C        -2.58242477646877   -2.52735859238840    2.42067096583102
C        -2.65077946386042   -3.18693619563841    1.12803596817173
C        -1.23919643433967   -2.41161896028995    2.77775134118937
C        -0.93312908393451   -3.33254044153590   -0.60977168061284
C        -1.35909561315526   -3.52562185988887    0.72468544484505
C        -0.46460562224222   -3.14930353244382    1.79156250031622
C         0.92498921375070   -3.03461029101292   -2.11773789583152
C         0.49125226226521   -3.36624444374032   -0.81619152179329
C         2.26351390091189   -1.47967466321776   -3.17706926387485
C         2.25361622422509   -2.68206185825618   -2.35951897010411
C         2.86320125938424    0.77220982633941   -2.46564373891404
C         3.20665124929559   -0.58983040057088   -2.65637913600918
C         3.10534279751848    2.71483573719688   -0.98574974434981
C         3.32763729731781    3.13124707383869    0.33677178838485
C         3.63598284393862    1.48774012048937   -1.46132006091220
C         2.79962562189227    2.08635752001487    2.31924695048880
C         3.82155505749846    2.23784153391071    1.31157080329326
C         1.08695125722874    0.49828746351384    3.11618270660004
C         0.64289999203366   -0.85946140756366    3.08068130838899
C         2.46294273507923    0.80850590254315    2.80590611226445
C         0.85840965779288   -2.86046969835557    1.56086922297009
C         1.42213228317909   -3.19080044685141    0.26205306714361
C         1.47456995895227   -1.84661306396012    2.40963996062632
C         3.19548579898593   -2.53686959564028   -1.33603219026366
C         3.94529921806270   -1.33122496996787   -1.64760029114273
C         2.77972364252263   -2.81281768496317    0.00153807334762
C         4.49262540341213    0.79087989726910   -0.57228490721231
C         4.52451322168708    1.13161345111855    0.83390474496084
C         4.57891431953203   -0.65359015760498   -0.64133000140896
C         3.34060708769524   -0.25734973320103    2.46685088957867
C         2.79523786861180   -1.55816358341371    2.16861786872588
C         3.48411321454403   -2.10692325756189    1.01488746870669
C         4.41312893236156   -0.06103500025068    1.58205203339586
C         4.48032406339346   -1.18571705446301    0.67728557211004
