80
C80 Isomer 31811 Symmetry C1
C         4.16400575710441   -1.52460505676103    1.49974835523670
C         3.04125202550346   -2.20666641479133    1.99137690062658
C         2.32186518628138   -1.27823786336747    2.84003409485680
C         4.09734150717872   -0.14903637378366    1.95389512860803
C         2.94952490097462    0.00191818350282    2.75860082671899
C         4.36618575895582    0.71764974107925    0.89058766814255
C         4.49822764117198   -1.51395648978584    0.13019313534993
C         4.65992736297497   -0.12305089870214   -0.26468546461822
C         3.81221260663664   -2.40201869530931   -0.69779203581295
C         2.31805226940602   -3.10495884766801    1.16570300768327
C         2.78018279595246   -3.24041825335385   -0.16207021934932
C         0.93157545446141   -3.35948646555859    1.48026132660634
C         0.96009743756421   -1.38951827328644    3.03675341188635
C         0.32854502412845   -2.60025190579840    2.54348328523584
C         0.20732963931096   -0.18162671800086    3.30051269059342
C         2.19975098482190    1.18532139940875    2.71210666252846
C         0.81142685694138    1.09595612013764    3.10279218624184
C         3.65236962874059    1.93137167354259    0.79971417947389
C         2.68744861788966    2.22745535650647    1.83907881951994
C         3.40899874408800    2.44743298747012   -0.53430592733052
C         4.19106986383685    0.28359112384466   -1.49147911512606
C         3.55507226642222    1.56461733784240   -1.62661138135322
C         3.35878889859522   -1.95674294685613   -1.98819186717734
C         3.51745927332832   -0.64062477580287   -2.36972203837076
C         1.81147744024835   -3.46235822648859   -1.19981601793383
C         2.12111762205197   -2.60264797811661   -2.29201169823707
C         0.08244521827126   -3.94677737258877    0.47295065674527
C         0.50322997653767   -3.85362123341614   -0.90616048745308
C        -1.30808869483440   -4.00826625017017    0.70465680758586
C        -1.05413419390611   -2.69357710535615    2.73587272222681
C        -1.82567300408850   -3.50550720296951    1.90037903356150
C        -1.23463826497937   -0.29824608109589    3.31726642694806
C        -1.84691960914355   -1.53365192439768    3.08183913267696
C        -2.04461643607540    0.82537867759735    3.05388795916027
C        -0.03295636253024    2.24580846611878    2.85717661612796
C        -1.43371556239008    2.10221532388409    2.80904562673383
C         1.83084018325001    3.32744875054522    1.63097971597072
C         0.47508774899257    3.34350364415340    2.14654399277247
C         2.44225112470595    3.44892525391904   -0.71877096861650
C         1.84758692350266    4.04237228055927    0.42990588348720
C         1.42138041390374    3.35959894050868   -1.70964967348141
C         2.51143641149718    1.43461826438192   -2.58134010490596
C         2.43523937387878    0.06753431652595   -2.99396700691172
C         1.35741287068939    2.24564238809422   -2.56076053512029
C         1.08973569207555   -1.93861386514734   -2.99557889437664
C         1.20048019642669   -0.52117601157488   -3.27781448053979
C        -0.45647909125183   -3.51799401170237   -1.89059018576745
C        -0.17747095641224   -2.51486504285426   -2.84432132374129
C        -2.29475021285572   -3.67899073913957   -0.31663610642274
C        -1.85361000321231   -3.40350752415361   -1.57566668726355
C        -3.07874222969084   -2.81713011181984    1.63661276770633
C        -3.09171782217319   -1.61567816320331    2.37239295634291
C        -3.33933606832615   -2.84657139799049    0.26956414158139
C        -3.25785115188816    0.74306125814755    2.33141709580607
C        -3.71623211136093   -0.48548357829052    1.80178738835394
C        -2.24544575726844    2.81421998168886    1.89809688306992
C        -3.37965905340669    1.97479962065032    1.60478799938267
C        -0.34373575809130    4.03543225061409    1.20384168773534
C         0.49868152797887    4.41336960673458    0.11912011245306
C         0.20992906025179    3.93479312797252   -1.16082581230832
C        -1.66446950966591    3.65401764694974    0.92276172697038
C        -1.06344219220375    3.41736761605186   -1.48613904873901
C        -2.08296878408424    3.49078514158692   -0.45739512019531
C         0.08572534011470    1.69234886153211   -2.93998002499915
C         0.01387336387767    0.31618058770977   -3.31593259181160
C        -1.11097194283407    2.40096423337654   -2.50997435205607
C        -1.36832669989858   -1.73855986256713   -3.06266953857569
C        -2.41891803324689   -2.29910521332801   -2.30554505585728
C        -1.26847281358929   -0.34998166109438   -3.31713387538424
C        -3.86360616350644   -1.69216474612050   -0.38692639081406
C        -4.18763520220842   -0.54576056479211    0.43501721896746
C        -3.45288369544060   -1.49937255125659   -1.75995240675645
C        -3.92397526406614    1.97470464727473    0.35599556892136
C        -3.27849399706639    2.77649782326347   -0.67475223257941
C        -4.36587821243731    0.70810029407367   -0.22336127575086
C        -2.34585576424298    1.76600473094080   -2.70345670320286
C        -2.43270500936066    0.37288686316541   -3.04913630706331
C        -3.53127689796167   -0.21351363703416   -2.33115627786740
C        -3.43222372727526    2.06055421693318   -1.86269011114629
C        -4.13976473755043    0.81787329720576   -1.59277245557961
