74
C74 Isomer 2800 Symmetry C1
C        -5.12296205571446   -0.93995471256075    1.15996540751237
C        -4.71903946419110   -1.94009923909941    0.19627161800395
C        -4.80005404151715   -1.35228144091815   -1.06132334795615
C        -5.20420505062259    0.34518326538416    0.48228723999983
C        -5.12244403872022    0.09182950677655   -0.88669678575238
C        -4.23851682730831    1.23876202987740    1.04908906803602
C        -4.08244835938207   -0.84287592009243    2.09232891274164
C        -3.60906835867047    0.50425269589624    2.13821402234799
C        -3.44033495538809   -2.48045990583669    0.58012092847757
C        -3.09004632078089   -1.84683093603586    1.82589613214044
C        -2.40980692236756   -2.67367677362876   -0.36852470805330
C        -3.74996029115812   -1.46189119452843   -1.99853943313333
C        -2.55992266482965   -2.18868912644377   -1.72530787833520
C        -4.25644930272460    0.82609929931627   -1.70778640200804
C        -3.62218929993444   -0.14528600695191   -2.57527519035376
C        -3.41501321576370    2.05458220884749    0.23545503040589
C        -3.44575746246833    1.88801445616306   -1.19798274100391
C        -2.22287634703983    2.60364495955061    0.84778235747532
C        -2.29603921283412    0.75343819306210    2.49348937594493
C        -1.77357740173559    2.02552094029123    2.07611404818019
C        -1.76272289724029   -1.59684547246701    2.15898882574561
C        -1.36731449385171   -0.33334907542388    2.70382557949722
C        -1.07783400927687   -2.78990590338215    0.13689561819505
C        -0.76361622640956   -2.33285685835532    1.44713833384521
C         0.01310957337344   -2.93363085690103   -0.79665624431597
C        -1.36627958924169   -1.86432526456283   -2.48501189819487
C        -0.06401418200493   -2.30891049373614   -2.08725195661229
C        -2.48619097949654    0.18816645638806   -3.23072864294424
C        -1.40863374578470   -0.75343675534816   -3.34579702826635
C        -2.29203302380740    2.28554291817385   -1.96652557998124
C        -1.93334919852550    1.50005214586002   -3.08526090182193
C        -1.26962222850773    3.33365647274428    0.05453669132156
C        -1.25901147898843    3.10883160460442   -1.37398206836735
C        -0.06188603705063    3.75313248999498    0.67144875789487
C        -0.50436501050382    2.32345161183039    2.57577629577540
C         0.24509103176244    3.32926589853307    1.97597330478468
C         0.02270856462130   -0.05893358462543    2.87249070598998
C         0.40995183474339    1.27734825250111    2.99534818977632
C         0.59034912312727   -2.19512764618996    1.86067439940587
C         1.04350050649916   -1.03279848050553    2.55588970097787
C         1.25437977029598   -3.22616148508516   -0.26783814619428
C         1.51414065318730   -2.96791297920042    1.12876322914786
C         2.47904811288804   -3.03226505617089   -0.99243076246582
C         1.14681915158749   -1.74092380192348   -2.61900912185958
C         2.44410579195710   -2.14003228785496   -2.10299229110250
C        -0.23593897277457   -0.01440431841092   -3.63055044952136
C        -0.58742551187181    1.38248374584627   -3.52220291438162
C         1.04010036724612   -0.48039633475308   -3.30957538483168
C        -0.02000169160426    3.20755326432342   -2.03864497778895
C         0.33983203293455    2.28839236932275   -3.07186082713846
C         1.20969757993094    3.77774139819068   -0.02435939631533
C         1.21516163749755    3.48441114614362   -1.35525315192194
C         1.64629083782451    2.95351913961150    2.05132845549624
C         1.73740529651156    1.68265182511991    2.65865205697272
C         2.24885391206956    3.20289418957279    0.82151840031180
C         2.42224084999376   -0.63246855856496    2.42008612596396
C         2.72733855541961    0.77080397980125    2.24190400383749
C         2.87672629638472   -2.77185700752532    1.28431655589189
C         3.51508838857903   -2.95915841423927   -0.01746783454106
C         3.34954113349792   -1.56623209322588    1.87565174456603
C         4.52132048525206   -2.01008472695720   -0.10975242394682
C         4.43195182071813   -1.12093705171278    1.07886007075039
C         3.54816919821913   -1.24073267951393   -2.22199743993578
C         4.57947255131248   -1.20399272617530   -1.24779053383878
C         2.07090902221003    0.51986671400476   -3.13195430462019
C         1.69992012756313    1.88047819944510   -2.92727185297796
C         2.27625317755600    2.66544494162859   -1.89251085432108
C         3.27846559117547    0.13725571714795   -2.56757701728406
C         3.24055225178412    2.31026898791865    0.34344931549819
C         3.62350495276462    1.20443001964710    1.19190802207776
C         4.48156332494678    0.21070566664744    0.62972761928342
C         4.69624896680109    0.17172659490493   -0.78184675569022
C         3.30940967017176    2.14868271846380   -1.09132345597886
C         3.94272872768420    0.99263914537134   -1.61930544051692
