54
C54 Isomer 564 Symmetry C1
C         3.75724701202404    0.42074960729737    0.14096290009623
C         3.53191123565781   -0.54151274088881    1.11018044137919
C         2.82086483449020    0.07008274967951    2.22210372102760
C         3.17206117438534    1.67067192291303    0.60874890387596
C         2.57973532106882    1.43254173422512    1.89481899695530
C         2.38885326935373    2.18029457790577   -0.42742149171224
C         3.32876116657303    0.18934383069860   -1.20207334615009
C         2.49358968249564    1.29002488826490   -1.58386909490200
C         2.95352180130601   -1.12002515027654   -1.55682624608657
C         2.89050966087075   -1.78643395762660    0.80091218878712
C         2.69665377853319   -2.12350495865291   -0.52530457265304
C         1.76296200801096   -0.78256692861893    2.57978705573559
C         1.81970945048868   -1.97534730126361    1.75832748032417
C         0.49997872930915   -0.21753981628706    2.95182656928187
C         1.31259706582042    1.96794903693750    2.15067615336545
C         0.30063896537802    1.17669102863897    2.76500560648677
C         1.16701743375478    2.87139714974769   -0.13903541103035
C         0.67684216707428    2.83669568459844    1.18611031756035
C         0.20381132305629    2.93022517231706   -1.19290463129661
C         1.37267781950955    1.10443826493885   -2.43328378644498
C         0.25852426753473    1.95477999403958   -2.28129508045959
C         1.93738325342884   -1.27025836654047   -2.52034159447349
C         1.08875577844511   -0.20996772679538   -2.91622312934598
C         1.48977225539181   -2.84958873901859   -0.88360311824791
C         1.11283689017067   -2.39695149617588   -2.16505042208006
C         0.65328807162144   -2.69115370331112    1.43677417316617
C         0.47969998394523   -3.17154499355796    0.06242071568686
C        -0.61279757696658   -1.06181912945628    2.82646296386106
C        -0.50347768392016   -2.33655473110111    2.19965792937260
C        -1.94556431768047   -0.52299872953349    2.56308951825446
C        -0.98720632317996    1.69743131094929    2.34965078070087
C        -0.73920260222224    2.78461205214305    1.44422803343522
C        -2.11434072696753    0.85780504058629    2.21493483936575
C        -1.13256995400744    3.18922673016429   -0.91117138604741
C        -1.65101400739628    3.05859900439130    0.42370686009018
C        -1.06664532684301    1.50871667960669   -2.54802513194883
C        -1.93605981050561    2.35267610965910   -1.79419515782852
C        -0.26701712298274   -0.70657600604069   -2.96161307609403
C        -0.22178365283936   -2.08069027036121   -2.50054504165592
C        -1.37434330641017    0.11348821660208   -2.67835248864548
C        -0.84757243108241   -3.24371183060201   -0.46175814165141
C        -1.21148340373309   -2.58315850908033   -1.68638047220732
C        -1.80496996934799   -2.64078602154162    1.70620742847670
C        -2.69928904924050   -1.51895772313395    1.94769820259417
C        -1.96179143395058   -3.05269146459577    0.39841243525983
C        -2.50516535708356   -0.44685385441382   -1.92779563206565
C        -2.42599471361795   -1.80352815031938   -1.48308447292770
C        -3.40139449319390   -1.24605245248689    0.71537655371189
C        -2.95692700345787   -2.19526703029203   -0.24891080197367
C        -3.04000394252554    1.15211823111312    1.15643872574694
C        -2.82753036712660    2.26268961104320    0.33883668565676
C        -2.95566255915099    1.80789282938121   -1.04913331193961
C        -3.53161791371593    0.06302165677116    0.30092805202490
C        -3.24577935055004    0.41387866735929   -1.06808719241150
