78
C78 Isomer 15590 Symmetry C1
C         4.54835820845841   -1.85046952350689    0.06637430059179
C         4.63851205951598   -1.07678963840152    1.21350135593825
C         4.94689249438774    0.28790053838197    0.83549342089424
C         4.65305479333809   -0.94080919823691   -1.06442262779640
C         4.80485333221823    0.38974409351763   -0.58223620667863
C         3.62004741320271   -1.25144736839104   -1.94612285502529
C         3.43038423185905   -2.69481912492885   -0.13547483582120
C         2.93967859865929   -2.44178581064334   -1.45013793771047
C         2.46641003030493   -2.87543814907539    0.88074734437963
C         3.55163577178160   -1.05796742546610    2.13666366271907
C         2.50359583585703   -1.98730070708566    2.01533258817322
C         4.18676198093575    1.11930548106698    1.68152182831399
C         3.26215937889745    0.30835344376822    2.45965417539742
C         3.75993918785739    2.32485241941725    1.17862379334667
C         4.03108660691131    1.45087038841342   -1.14908046868798
C         3.80369206535314    2.53925624193499   -0.26166770141739
C         2.86231035940450   -0.20997959110959   -2.55374562932973
C         3.01999796355571    1.16536902067824   -2.15079930892288
C         1.63289625813094   -0.62890217032445   -3.07841844533533
C         1.61697878547582   -2.74485757499387   -1.80995074379842
C         1.06993286025869   -1.91689095905605   -2.79842283804270
C         1.20917385086099   -3.44568477827811    0.48060841075798
C         0.73912061717011   -3.41122830303693   -0.87480211779776
C         0.26103038550815   -3.53443985124609    1.51265823748417
C         1.26576613538188   -1.60559030359593    2.64824020446431
C         0.24245282753092   -2.53414999201463    2.55699527108078
C         1.95539247058348    0.76356840925294    2.74700269504128
C         0.92888903742303   -0.23512203311583    2.94438052681263
C         2.54753106616838    2.89963146543950    1.68211974379619
C         1.60089858295390    2.11822507422155    2.40656206298380
C         2.79301343753010    3.45646324763822   -0.54816084009400
C         2.09102437804056    3.77366273956280    0.67898335423458
C         1.86851092492870    2.04370323374081   -2.31238337771161
C         1.81479887802360    3.21537518543726   -1.53175442772736
C         0.54840861106531    0.26050632015951   -3.28573817080656
C         0.58937013962944    1.57536667920859   -2.81268288982524
C        -0.34224136192669   -1.84192919411777   -2.96862120613240
C        -0.66084490137259   -0.50586270810394   -3.32079423889182
C        -0.67606225348040   -3.45994714772609   -1.15246618762895
C        -1.21775135096564   -2.64436486348384   -2.22045860289770
C        -1.06468629086417   -3.84557911832405    1.21640262519429
C        -1.56352544570149   -3.76841877107828   -0.09013131735694
C        -1.11545874896815   -2.18172294097087    2.81859022815407
C        -1.93348157649312   -3.07119205800284    2.09073512554880
C        -0.44315552136973    0.15044925552139    3.02915871140384
C        -1.50242134135428   -0.83811579048123    2.95850139334553
C         0.21502459712028    2.45980969423849    2.29279334506882
C        -0.77475126020576    1.52822886344473    2.76855358991951
C         0.73372069770146    3.91235591369176    0.39998680147122
C         0.54983107177912    3.65797695994049   -0.99770915814510
C        -0.21221753078588    3.41535662742632    1.31520014630741
C        -0.68590058799217    2.16672497223733   -2.44626978414148
C        -0.68318759903270    3.19080500327327   -1.45303889244176
C        -1.90349854965436    0.06407768227595   -3.04695095010269
C        -1.92753228653932    1.45556730610550   -2.65336911555202
C        -2.54241141702331   -2.14420084407377   -2.14418373282790
C        -2.88625347616968   -0.84530470594500   -2.59305522537889
C        -2.87935576206632   -3.15534757901895    0.02523765463915
C        -3.04591061993432   -2.64381127270938    1.37534841110575
C        -3.37541867321417   -2.40659575517017   -1.00024697411616
C        -2.83901493146083   -0.50917028691578    2.52457175738273
C        -3.59064337766700   -1.36212532103764    1.63574619131846
C        -2.11715635657839    1.86936588667589    2.58978625499988
C        -3.16824595797516    0.86778810830722    2.52552710480229
C        -1.55706426933618    3.46437149295224    0.84491988937534
C        -1.80369668429148    3.41827239512430   -0.57452318004902
C        -2.51440422842031    2.94106700624394    1.72852865901759
C        -3.08965186463643    1.92190473402149   -2.01831159222407
C        -3.05016173418745    2.94659606495307   -1.02066034642402
C        -3.99782888504663   -0.36652193806874   -1.81178930348327
C        -4.21585655613168   -1.26618477926863   -0.73162977969527
C        -4.40970165925771   -0.77542951945762    0.58890883432161
C        -4.16549496995683    1.00099295490688   -1.64526640314026
C        -4.23304158881554    1.35901734326668    1.77548997277591
C        -3.82757619850435    2.66285192972218    1.26933375434452
C        -4.09374194443666    2.69165051971797   -0.08559592845945
C        -4.77388543850549    0.58931641973934    0.69546194561845
C        -4.74690272544082    1.43579598083550   -0.44517203090707
