76
C76 Isomer 8432 Symmetry C1
C         5.26390853546951    0.72727342278972    0.55345978516738
C         4.62804859516784    1.07438976711939    1.72530127986850
C         4.05693841061467   -0.13483487306357    2.33358084829995
C         5.14261411782637   -0.73524993946971    0.41953140832014
C         4.29561200276522   -1.23485118793790    1.48805147189188
C         4.82979619935172   -1.00125948278502   -0.89087825266683
C         4.85942700436159    1.32723984980171   -0.69766189383259
C         4.62925432332577    0.25962107196596   -1.61456639527086
C         3.90325147473564    2.33705054978656   -0.67097540554480
C         3.63232818683880    2.09632224615607    1.77574805136847
C         3.36286343334394    2.79521516424118    0.59326138589961
C         2.76728760612789    0.17673243072102    2.77842638823378
C         2.51922638577800    1.57832189451228    2.52861651508436
C         1.71654455829961   -0.75931064607352    2.66072786671859
C         3.22874891200673   -2.11793014919880    1.21210506096466
C         1.99330103247541   -1.97330528604677    1.96014168352961
C         3.76749332670594   -1.88647983659919   -1.21009509172112
C         3.10790206683681   -2.58009768780981   -0.15731358960040
C         3.43264558094489    0.12285935752414   -2.32448315950317
C         2.96540612171877   -1.24079855847837   -2.19356081077218
C         2.78829121890648    2.29263166800041   -1.59431062328643
C         2.44175547444109    1.14758422637760   -2.34962319689289
C         2.02442167373885    3.22127085347792    0.37822360760176
C         1.71849117063666    3.01402963710686   -1.00689622864771
C         1.21021399706916    2.00430887355740    2.32478496439956
C         0.99412385495489    2.98050459897546    1.30060971362691
C         0.35997837997541   -0.26764275556658    2.79488545431265
C         0.10986127960836    1.12813462109735    2.65726318932582
C        -0.73046968027782   -1.19054286153536    2.71237954868175
C         0.85765925502537   -2.77777332228894    1.62059223034242
C        -0.44187129955971   -2.49858037361748    2.18466845338565
C         1.89698655256556   -3.13389459896448   -0.54252669717351
C         0.90624545033076   -3.48986238379656    0.41177996118102
C         1.61496124372013   -1.56510490168598   -2.39191007805279
C         1.20785070175908   -2.74489750490091   -1.73908883749348
C         1.04432314253686    0.81532312791609   -2.58624905703877
C         0.61282631530263   -0.57171962602471   -2.67609628758094
C         0.41235770256263    2.85928291992565   -1.42709494150098
C         0.04901264287124    1.78247662406377   -2.30395129196874
C        -0.32708395506368    3.23543044286161    0.86640260017217
C        -0.56954387883778    3.37048255583625   -0.52489719167366
C        -1.22384968561650    1.62132521391285    2.47492781945446
C        -1.41566151894929    2.83495133970572    1.70980922219700
C        -2.07952956562087   -0.68566015097235    2.76500915984228
C        -2.32705650517393    0.73070750333288    2.66974166192482
C        -3.14483354998119   -1.56201913172878    2.40635507190049
C        -1.52635223467574   -3.25234507176682    1.67948981432507
C        -2.83953653469487   -2.81099307043407    1.86259819778264
C        -0.29136437654562   -3.73096213805046   -0.32746130829253
C        -0.15394402774386   -3.07600030966434   -1.60919848137743
C        -1.47916752344416   -3.74690704907120    0.31992154508986
C        -0.77038115277567   -0.92532970407832   -2.56919207586060
C        -1.17122815623473   -2.23149727609916   -2.07076980640420
C        -1.35192933321400    1.48111027759369   -2.45547046164787
C        -1.77298295874428    0.11269602994984   -2.60023274316472
C        -1.88238782384219    3.38557260817459   -0.99390467711337
C        -2.28847450280126    2.43490105826584   -2.01681760657120
C        -2.70074998684638    3.21014371543790    1.27936016599903
C        -2.91735884033182    3.58899852519819   -0.08935271290808
C        -3.62798797592903    1.17457981442832    2.26338760451907
C        -3.80855072167335    2.41232206548456    1.65007892851733
C        -4.31088826066476   -1.07803974177929    1.68370598350301
C        -4.56306905966856    0.25413764545038    1.63067266203532
C        -3.58470219968511   -2.96257868252265    0.60928546689466
C        -2.65958640052234   -3.30939929519804   -0.38505151635869
C        -2.49951125477272   -2.46689824160249   -1.53296923975969
C        -4.46491152074425   -1.88231803097345    0.48053579985527
C        -3.11442859832550   -0.20227438979911   -2.29872089341433
C        -3.46894288234289   -1.46785721530445   -1.70523702221505
C        -4.50866882632139   -1.22049646955515   -0.75203316371219
C        -3.65200729387349    2.11111743795697   -1.74237336044738
C        -4.07390398775030    2.87134705197970   -0.59225503387651
C        -4.67360966977614    2.23023380497555    0.47670514195236
C        -5.05013231497236    0.86420963205347    0.40233868049748
C        -4.05261660898257    0.78029839914891   -1.84051516145117
C        -4.85068326372015    0.17557391757998   -0.79773009986991
