78
C78 Isomer 19136 Symmetry C1
C         4.78052094427379    0.68018316387359    0.68589064188247
C         4.69979371225605   -0.56943931028332    1.23440502931556
C         3.91787207426874   -0.47223455372297    2.47090588617928
C         4.12907317993908    1.60742275113413    1.61571493172283
C         3.44783326285382    0.86027872136459    2.62712460155054
C         3.40167438134048    2.49368003737400    0.85592285562978
C         4.27720421921390    0.93791796596035   -0.63763960711888
C         3.52465215154337    2.12733378045942   -0.55685490130005
C         3.84387838829080   -0.11927770294242   -1.47932776039666
C         4.20834624168394   -1.65421223532927    0.45134773442492
C         3.95250156460755   -1.46837437671279   -0.93774954851870
C         3.01462817774995   -1.52027495354837    2.43253974140187
C         3.25853105702975   -2.34207921303835    1.25797432715098
C         1.69457248224789   -1.33807528098311    2.89406328514452
C         2.07094699772057    1.10695861134256    2.90812652075887
C         1.21754948744628   -0.01777056344573    3.18434387544096
C         2.18332600010717    3.00404266884396    1.36197992065324
C         1.45981154384939    2.30075017004991    2.38292999766213
C         1.49914117102481    3.76211468935252    0.39579777275723
C         2.46442594283891    2.40936916259449   -1.44053781162514
C         1.58477986911552    3.41473433105756   -1.02049730046946
C         2.78974250193931    0.18696241764627   -2.43497840367143
C         2.02933431077387    1.41859425627958   -2.38202945919436
C         2.18663837512760   -0.91140937415935   -3.08993450707760
C         3.13203403770963   -2.47651488931643   -1.48650691383365
C         2.46404768571405   -2.23115137995515   -2.69779295425635
C         2.21347111845579   -3.09806366055028    0.69631176167231
C         2.26363514828768   -3.29810358894063   -0.68566839213456
C         0.78462417847029   -2.39152894206059    2.55703403852806
C         0.95506118998521   -3.20042375964289    1.38340340227726
C        -0.49075224666461   -2.24555028776718    3.10127134354961
C        -0.21215369664812    0.18924628106495    3.30140774042876
C        -0.99862174683859   -0.94916880196883    3.46765970651045
C         0.01683120510639    2.48260457562730    2.45219382452512
C        -0.85110003120675    1.41938459623313    2.89182310784769
C         0.21256392713840    4.17949221826477    0.66775025874052
C        -0.54952239952585    3.51205700401306    1.67181770284637
C         0.28721798343855    3.54007035374373   -1.56589695557692
C        -0.53340050652570    4.15983519228610   -0.56072969575406
C         0.66008130644128    1.49612439726995   -2.85090346935376
C        -0.23812063292847    2.52907096275405   -2.39823857334118
C         0.80952511451925   -0.86740556556046   -3.50691052762616
C         0.06512528919697    0.30409545760030   -3.39987371193513
C         1.21644531508891   -2.95871505795561   -2.69294810330821
C         1.04317072320613   -3.53452746073256   -1.42941781405062
C         0.20697492576607   -2.13811734465148   -3.21400857602848
C        -0.21218940616779   -3.58807386606545    0.64287657680528
C        -0.22323789594984   -3.54407439050918   -0.79821752850283
C        -1.55299523477552   -2.99058130196451    2.58439123952013
C        -1.46896917354962   -3.49757981649154    1.27069436351293
C        -2.41331320423109   -0.94687348604415    3.20768167307087
C        -2.76253741963182   -2.23131530190694    2.72680702106894
C        -2.25658358555175    1.41050764862440    2.54660578129921
C        -3.04508487766579    0.20540317561562    2.69729957701417
C        -1.85976559122434    3.36220403551449    1.13248498193060
C        -1.80186307245648    3.69357617335523   -0.28326326087705
C        -2.72928974086642    2.38477294465571    1.59222646660164
C        -1.68916327896430    2.31610101111420   -2.33007283892929
C        -2.47389313443464    2.90093766742572   -1.24990724367822
C        -1.33315668520673    0.11796673291003   -3.34717109565062
C        -2.20740460170823    1.14395608497636   -2.88059747703780
C        -1.10226928698659   -2.24009240539422   -2.68993894467392
C        -1.36137027477824   -2.99210386494436   -1.49109520115147
C        -1.90707054193176   -1.12899810130970   -2.99095425910259
C        -2.65747236457878   -3.10698367129297    0.56783721331069
C        -3.48803518774894   -2.38055418669597    1.52714165269824
C        -2.59672845238972   -2.72158629853850   -0.77618596950193
C        -4.14136776473182   -0.05000873610005    1.81754314373449
C        -4.25359452220605   -1.31421559244612    1.12813166966779
C        -3.79215267659978    2.07950061690932    0.68213890803434
C        -3.61760354057499    2.27456170355118   -0.75817077642679
C        -4.53032069659214    0.92368429978376    0.87107829574575
C        -3.40355167746500    0.50945139177773   -2.39365889193870
C        -3.15826072096460   -0.89822640891566   -2.33108959973718
C        -3.53164014340264   -1.69749592321701   -1.23648418597819
C        -4.40720815933796   -1.06593822637451   -0.29175216784742
C        -4.15713601809962    1.11653941642342   -1.40253662975415
C        -4.73968699465607    0.28363321265117   -0.42113751525693
