78
C78 Isomer 7144 Symmetry C1
C         4.33318680165171   -2.45247080573233   -1.12199382493025
C         4.67430097659620   -1.97569440463891    0.14557535502905
C         3.68406153017169   -2.42295960629433    1.10786719247995
C         3.11255171239384   -3.17857743910508   -1.00922902193277
C         2.71892955758192   -3.19205213675459    0.37667880036668
C         2.19290629901811   -2.59798126997014   -1.90473577817026
C         4.07788297876706   -1.28248758792885   -1.96230631833711
C         2.76939770994882   -1.39608668747948   -2.47949448713968
C         4.94622923238945   -0.56069996090292    0.02288050266385
C         4.45436400802849   -0.10838701310713   -1.28505929443979
C         4.73181471842580    0.20243552028077    1.12332823979222
C         3.27117239899628   -1.56041496176873    2.14036651345450
C         4.02610499985465   -0.34898642300457    2.27844994322660
C         1.88241878737101   -1.55068222734122    2.55019540491500
C         1.36504444958468   -3.13069389208989    0.71128277001968
C         0.96606278792614   -2.43773023690696    1.90112409677092
C         0.82512986993056   -2.63930779779477   -1.61649126737412
C         0.39161409388253   -3.13132168491191   -0.35540798820326
C        -0.01888816517832   -1.72883317682808   -2.32041025499020
C         1.96058062568317   -0.26027123718936   -2.63150161667146
C         0.54043075104760   -0.50026170317900   -2.77873639210125
C         3.65684554552332    1.05909780263686   -1.38341274400100
C         2.44852676000470    1.01134165251847   -2.18029324198316
C         4.32488233440367    1.58826430918795    0.95595383117489
C         3.75284942831214    2.00788445667111   -0.28496621529035
C         3.45498281134700    0.74382060202981    2.91102061995132
C         3.73239254653432    1.96741419585850    2.16322830216515
C         1.31295720351150   -0.36944353089636    3.15112134636342
C         2.10132115772934    0.78179083967752    3.30601258374646
C        -0.09931378428136   -0.15245487815612    3.17162789044685
C        -0.42757858791763   -2.36767301692450    2.19033606833323
C        -0.92386804775709   -1.29697505998161    2.98359891806565
C        -0.98584590430110   -3.11543671561364   -0.05117863328076
C        -1.36884966861718   -3.04081731420048    1.33024403101938
C        -1.42180207273962   -1.90447786108640   -2.14032437944149
C        -1.91450287442228   -2.73437075018557   -1.07241256447521
C        -2.26088628057531   -0.92308280894843   -2.68265257624729
C        -0.33074678386680    0.60581468731482   -2.97360544416664
C        -1.71608946470030    0.34191826278127   -3.03723872490536
C         1.48918398535714    2.08454160677286   -2.10609614477242
C         0.13695780183814    1.92149936210540   -2.60978810006637
C         2.76948244096703    3.00164525469693   -0.19283907376621
C         1.73287212674643    3.10648837861189   -1.17672727016499
C         2.58333474055243    2.77351028163944    2.22698739058408
C         1.55934573646319    2.07145947430167    2.96820534631093
C         2.19640983895122    3.41307846074698    1.06036590815611
C        -0.67112545928511    1.14277150406702    2.98583914497692
C         0.20077975011171    2.23499277302459    2.67706386687925
C        -2.07909784153161    1.28319608322947    2.69321294957980
C        -2.31193768677640   -1.11506067957511    3.12743617682820
C        -2.90538157189528    0.19409326630257    2.96810401698013
C        -2.73899134264378   -2.97308825969891    1.63379181589722
C        -3.19463651120123   -2.07907275279607    2.64433218657825
C        -3.28860668824746   -2.64387324055350   -0.72733185456864
C        -3.69663421941059   -2.90350350955912    0.58341126845683
C        -3.60449390212507   -0.73432443280145   -2.20214978966095
C        -4.13361807505145   -1.58658366309850   -1.26220461450243
C        -2.70445702731647    1.33063849286341   -2.70826779285114
C        -3.85307056825239    0.68143827305743   -2.13535464420824
C        -0.85576385045892    2.84244134458406   -2.22193297113878
C        -2.25405872886208    2.53400510350765   -2.21074940187241
C         0.62948942240985    3.76511041584270   -0.55398278073240
C         0.81826093344341    3.72308983939242    0.86466198159582
C        -0.20589908044367    3.19889673720197    1.67330307414734
C        -0.62683562193757    3.65734462864210   -1.06849348787138
C        -2.53157005402534    2.28373478760881    1.74935630320810
C        -2.81764371000726    3.01040143680931   -0.97002087381008
C        -1.54789454517566    3.14974709178287    1.14581233735789
C        -1.75102780341739    3.54901707073683   -0.18928497286201
C        -4.46338795938235    1.19799057468851   -0.99660025868624
C        -3.73215967253101    2.02621893263243    1.05300167458455
C        -3.83465151343600    2.32164208962712   -0.34987794706717
C        -4.18940829594198    0.00791726413727    2.33958700266968
C        -4.39593772764807   -1.39558697542729    2.17744198883517
C        -4.72311547358468   -1.91802024666953    0.93682303766256
C        -4.94463046690073   -1.06568801719363   -0.18195066051752
C        -4.53694625211792    0.86003778787521    1.29679775580168
C        -4.96670556949178    0.31970332084851    0.02467577012550
