78
C78 Isomer 20232 Symmetry C1
C        -4.75700742341877    1.14782734248417   -0.17419559145887
C        -4.28017035292698    2.03700674941398   -1.10447876083484
C        -3.56670273559839    3.09901506685440   -0.39788475087564
C        -4.27288572534134    1.58666666460353    1.15398754377514
C        -3.46888450728784    2.72733461902291    0.98779853807396
C        -3.79566405469492    0.47405593648943    1.83274215059814
C        -4.54547415305688   -0.25016897100451   -0.29316591735969
C        -4.23139271901408   -0.66789599845202    1.04859085997489
C        -3.80368785281377   -0.79853240945412   -1.36987616516982
C        -3.45337966988445    1.55724451428191   -2.16874487149023
C        -3.26084326225375    0.15361828747490   -2.32226584477549
C        -2.41898320584645    3.36837038595063   -1.12718471977817
C        -2.34511275861382    2.45939242477979   -2.25372839281216
C        -1.24284347771207    3.76081770047902   -0.46430815283810
C        -2.20809538499714    2.76218898580533    1.61028161144343
C        -1.24152155449406    3.59730977017382    0.95680463096009
C        -2.49672428232691    0.44974099846652    2.44048298845654
C        -1.71311187917737    1.62737276759951    2.36851587071793
C        -1.84621271278478   -0.83012788289004    2.64921721716065
C        -3.63762028356694   -1.85432516786420    1.25706118867063
C        -2.59032517370898   -1.96855082029950    2.25461625933432
C        -3.12874697985211   -2.07307463217137   -1.14973493597690
C        -3.29981128240800   -2.67789206257395    0.11897186151875
C        -1.92256715188798   -2.43936857880536   -1.86946101674148
C        -2.05155070027599   -0.19984712399792   -2.94363372604533
C        -1.42560355178857   -1.48115014952243   -2.77209207713047
C        -1.07990186815123    2.05849265598539   -2.70662949905250
C        -1.02407364995162    0.74369273819045   -3.19481087483838
C         0.00486996382243    3.66862034238656   -1.18401008123473
C         0.13458243197181    2.68548406985346   -2.23392933380631
C         1.14826715588998    4.06639377659333   -0.48081175837450
C        -0.01928177146983    3.70762589568227    1.61793591355990
C         1.06865179955772    4.23010122184522    0.93407951879658
C        -0.29296224598856    1.51442336391237    2.66780782081044
C         0.46307243471398    2.66744602025156    2.50186576828280
C        -0.40415425533970   -0.95288634911634    2.74990620396986
C         0.40251649830403    0.23664020655396    2.76526980411758
C         0.24609608796805   -2.21086824659070    2.48131926717808
C        -1.93474999536923   -3.15787142808513    1.94038436681165
C        -2.35877538866835   -3.59476545404557    0.60137444544603
C        -0.56140101951118   -3.30476852190526    2.05939633660946
C        -0.94392852730825   -3.38218088478692   -1.36803960767589
C        -1.22833881547686   -3.98210104447591   -0.10707830465465
C        -0.17996411140691   -4.07564456574469    0.89181265027796
C         0.44895658498662   -3.30348476428035   -1.75635310226008
C        -0.04621973233402   -1.33658223650247   -3.04476649427507
C         0.21899070991849    0.05373195206642   -3.25228716363680
C         0.93546433673417   -2.21066095275708   -2.55837849034707
C         1.39408070427553    2.03645842028890   -2.43475870199483
C         1.42116971938924    0.66078565063623   -2.91324004528936
C         2.44179974168250    3.54629884369889   -0.78712524622616
C         2.56580536715612    2.53564596253952   -1.75867551767549
C         2.26740561300602    3.67943162955186    1.51324277862899
C         1.89082533322163    2.63490061476419    2.39524578537381
C         3.17439613052159    3.43973866681655    0.47269434570069
C         1.82852659492521    0.16981131353949    2.56775597570382
C         2.58556942017219    1.39757696202014    2.38903796934673
C         1.64377472139853   -2.26223564125272    2.13533522539308
C         2.45400331261687   -1.08365084633394    2.18135011041383
C         1.10290751237507   -4.06981089153029    0.50905768721816
C         1.41650981546454   -3.90136014331279   -0.89656212255257
C         2.07454782436011   -3.35054990855309    1.30820907262332
C         2.73737781409410   -3.48223351782629   -0.92108269649278
C         3.17362712515354   -3.21315915215855    0.46759981672460
C         2.27503853623617   -1.67674770606267   -2.48305723594538
C         2.52136624530895   -0.24733243785265   -2.64873610989721
C         3.19817026408503   -2.41040543134625   -1.69950082627266
C         3.70619324346225    1.68013434062648   -1.64699725688952
C         3.68647053774597    0.31768269333944   -2.11672112142875
C         4.06573231809782    2.40464001401121    0.67032316286761
C         3.80098306046010    1.39797897392032    1.66408132384280
C         4.52262570696148    1.73465126623806   -0.49471904240122
C         3.70812217545966   -1.06631712552966    1.45384468650096
C         3.97824384290423   -2.08621995992953    0.48989284685940
C         4.18905551358721   -1.72627053980694   -0.90514644847775
C         4.51994965062608   -0.44286842201495   -1.21383101595546
C         4.33002496462362    0.16373492876582    1.15423069925037
C         4.87890340346944    0.40182523087820   -0.12812128205062
