80
C80 Isomer 10722 Symmetry C1
C         5.11935040714435   -1.04215548446385    1.24693361961520
C         4.27795666147351   -2.16155879600656    1.19215470065438
C         3.92684349967501   -2.45980097593548   -0.16845671391887
C         5.14436628580809   -0.49940333830422   -0.08297097472293
C         4.41190243667481   -1.36417631152431   -0.96989020576791
C         4.71430381083071    0.83216826594517   -0.01872286140104
C         4.45777713007787   -0.08371277487633    2.09857040770897
C         4.28107847640869    1.08758728615638    1.37010929038129
C         3.18955715131859   -1.99699436134952    2.11209746887726
C         3.25515435776053   -0.67760889587471    2.65346190390306
C         1.95594356598734   -2.60900035381076    1.85582005028902
C         2.70326128791267   -3.08763649543812   -0.42899689293996
C         1.74355916966274   -3.33012465722710    0.63780810776525
C         2.16705210393068   -2.83497691442950   -1.70535320844621
C         3.57773430695336   -0.81386887478381   -1.97601584542534
C         2.54248367506884   -1.66511465969559   -2.41994538690987
C         3.98268240500916    1.41504779192987   -1.07549391980692
C         3.36247407970031    0.60287246003173   -2.09538517634270
C         3.38239538871014    2.64081777266619   -0.71649542948966
C         3.16429340112391    1.92333608635762    1.63505717025452
C         2.94109566267923    2.89003843854432    0.66175327897462
C         2.07412359744970    0.07633562981460    2.84334149285642
C         2.05100299091489    1.45306792403933    2.43638878864692
C         0.84319991061668   -2.03770705930716    2.55490377701508
C         0.84078853405469   -0.66368427506078    2.96123083227950
C        -0.37445001793942   -2.67710989005289    2.36636491971098
C         0.41480334326418   -3.73707127026553    0.30786945330140
C        -0.57255311209033   -3.59348388162297    1.29642075131313
C         0.80522811581692   -3.13686144011903   -2.01000054625596
C        -0.05060114135402   -3.72258864174937   -1.06500051523690
C         1.36726916466707   -1.17752905107617   -3.06521146187815
C         0.33210334946376   -2.15436389667777   -2.91060825354146
C         2.14457914038586    1.08380382537298   -2.72667690296337
C         1.08145384132884    0.18605584440530   -3.13607909617063
C         2.44428407896006    3.21319177374729   -1.55201697918992
C         1.74871975324044    2.41312687359304   -2.50100960329071
C         1.71176105083164    3.59049942691194    0.61006148960459
C         1.46036326536527    3.91154684947378   -0.74754562978902
C         0.79420958506468    2.11859883678781    2.34462256517642
C         0.63478770341048    3.22875134248699    1.44486392861728
C        -0.40038201988606    0.02428660944695    3.08014170461510
C        -0.39070897011862    1.44583622320372    2.84270729173766
C        -1.60948976537127   -2.05939771893995    2.70054672251970
C        -1.65759412753960   -0.69733349678981    3.02245911634643
C        -1.98420620298696   -3.59994579594812    1.01363053195180
C        -2.63494010327546   -2.71536468306821    1.94340728185676
C        -1.42767449564001   -3.59903533518107   -1.34023030086950
C        -2.42387218402736   -3.64581394884161   -0.29475394057386
C        -1.02078377933396   -1.82195817807610   -2.99821290680498
C        -1.90518604492177   -2.70347672094691   -2.33461782784628
C        -0.32292695067224    0.57118321382670   -3.15126995695213
C        -1.35414532773623   -0.43066018701136   -3.16550399570925
C         0.36353880476834    2.76789561000329   -2.40122785832220
C         0.20491264672762    3.68635842401129   -1.30285403623239
C        -0.67976973691808    1.88487015780566   -2.70448722324961
C        -0.67377666865634    3.55982675059889    0.95008386983927
C        -0.92446089049130    3.65268644258992   -0.46279813326499
C        -1.61983801570466    2.08994413240166    2.68682376437939
C        -1.74938509185477    3.17102936855968    1.75493891139542
C        -2.91800698891320   -0.02468460515624    2.78698401155211
C        -2.88443648758232    1.38475778093065    2.71400917079444
C        -3.77069975261782   -2.01966414973630    1.58132657380157
C        -3.95057348864890   -0.67873790095060    2.06009412929756
C        -3.56041584482010   -2.86389885757400   -0.69680544484503
C        -3.22491402831411   -2.27543954581173   -1.96067063190535
C        -4.27238505361671   -2.11521181704744    0.23698448878187
C        -2.66995641666696   -0.05204109507003   -2.82928574719864
C        -3.61762880720909   -0.98431605367804   -2.25499809987449
C        -1.97815764225640    2.19716557315157   -2.15047787693664
C        -2.11571155865629    3.10725025153243   -1.03676060220971
C        -2.98513480833314    1.24015243675868   -2.33502357844361
C        -3.03884695504581    3.11336891408701    1.20453682716514
C        -3.78139767070776    2.06887442912669    1.87588709629295
C        -3.23527577726224    2.97956068469535   -0.18208453867250
C        -4.71502637093136    0.01815071557193    1.06140818089327
C        -4.78553026617376   -0.82128438162015   -0.11147686505126
C        -4.47295071642016   -0.27069409556653   -1.35325131706634
C        -4.12373944348977    1.12341920682992   -1.45466949471664
C        -4.57313983226707    1.39270324131855    0.92389849258136
C        -4.24272158379027    1.96132427195083   -0.37236618251418
