80
C80 Isomer 16017 Symmetry C1
C         5.40956034086126    0.35330903577846   -1.46067124787013
C         5.10262318719214   -1.00583832252458   -1.38639224060464
C         5.03762306325927   -1.36671690573276    0.03407755441083
C         5.40551373905681    0.90803721091153   -0.08649968964282
C         5.18829908920557   -0.16904372712881    0.80420041201122
C         4.55806078928700    2.04235704249044   -0.06619467431634
C         4.61890330764319    1.17044870811129   -2.26319869998176
C         4.18798309234651    2.29118996866237   -1.42403117603997
C         3.47080738679370    0.66493550068235   -2.92501838160177
C         3.95052891843387   -1.52402385509606   -2.02679006224481
C         3.08184191684200   -0.69700838892840   -2.80147436435382
C         3.94788215433164   -2.21041307638657    0.23227612325074
C         3.33152669009629   -2.40240259526017   -1.06996358059749
C         3.11137671055690   -2.09087828450225    1.39005726763231
C         4.30129974203945    0.02702890926081    1.86851021444843
C         3.38452367590748   -1.01437983209205    2.24503681109920
C         3.56723937953848    2.22128114751776    0.96434896967504
C         3.59341691227641    1.26249593500158    2.00054604285336
C         2.28106712060346    2.81562137772229    0.64425109220096
C         2.87180757509452    2.57825692803168   -1.73159507456333
C         2.43116593084232    1.64432183249929   -2.74716441142383
C         1.95347889981292    2.97252622233231   -0.72801818300148
C         1.09555720736671    1.34491982179124   -2.87350500981290
C         1.67065072394823   -1.01845394902672   -2.84897059639986
C         0.67346994577694   -0.01498192171052   -3.10132445294196
C         2.01169247092159   -2.74833689373086   -1.15847704581992
C         1.18887476168234   -2.19615442604446   -2.21227853288779
C         1.77280915993561   -2.62773845146233    1.33208265014134
C         1.36158068052550   -3.16097695350654    0.06748168873835
C         0.74255657801922   -2.21308873583286    2.23390740028424
C         2.27465762372079   -0.40743939518009    2.91402526138469
C         2.39584757421230    0.99175576874206    2.74162210873279
C         1.01754996376109   -1.03210604783569    3.00001989863166
C         1.15888615359889    2.73764135509880    1.56488751586571
C         1.25429946384716    1.80160906325960    2.64798573408309
C        -0.13572933706720    3.18431855848486    1.17553782104253
C         0.59971695755030    3.02576575812502   -1.15495255142235
C         0.17422897539636    2.27451240384011   -2.28112357305206
C        -0.37331620342669    3.46418919127331   -0.21407003413691
C        -1.20096762276419    2.09294548829320   -2.55912782303695
C        -0.71596177498467   -0.30402679504328   -3.09635218192959
C        -1.65810400314021    0.80591131402810   -3.05840287925431
C        -0.18867921478284   -2.53081126588023   -2.25536243659104
C        -1.16784364150569   -1.63687048123468   -2.80714360937731
C         0.08356682539561   -3.63021258797838   -0.06768475720551
C        -0.62352018761967   -3.51832857834315   -1.32539590248824
C        -0.63871274346768   -2.59012150958060    2.02635748737761
C        -0.87093183582393   -3.52314179977784    0.99770202851219
C        -1.75738175865974   -1.73554370422193    2.38468688833357
C        -0.05502150663995   -0.18784506088356    3.30801278973164
C         0.07771299520839    1.22249942843894    3.16007432662794
C        -1.41482802301759   -0.52983883868567    3.03290414059594
C        -1.31157094008831    2.80629095934387    1.94376021925224
C        -1.19375555571852    1.74600521876354    2.84426873055038
C        -2.14565714601581    0.66185789153670    2.84032518992794
C        -2.61766710559089    2.97247983642187    1.41545863200568
C        -1.66874820328686    3.61671595990410   -0.71038971983550
C        -2.08534980728806    2.97012775443549   -1.91685287940785
C        -2.78542705382623    3.58385322472918    0.17285664776305
C        -3.49250053897991    2.65024406834122   -1.79911622476804
C        -3.92126843228031    3.01097032245073   -0.50071923158821
C        -3.02254719876553    0.54268513298210   -2.99182297098470
C        -3.94927495793017    1.46299792309112   -2.36197730522643
C        -2.57029804976476   -1.87222826510429   -2.56454283718779
C        -3.48028328127275   -0.80124818651914   -2.71896569677277
C        -1.97319445677316   -3.66590124469581   -1.03195599719646
C        -2.14003402692819   -3.64636478545524    0.42059901045076
C        -2.95890314844336   -2.85986873197498   -1.61336663893681
C        -3.02354065038104   -1.75477225893257    1.68479479227507
C        -3.19521124560870   -2.77847490688305    0.71882053049604
C        -3.86398956972046   -2.50571655855375   -0.53740656616056
C        -3.34262893331139    0.70625187806213    2.09989864093066
C        -3.65567695745118    1.95556110590312    1.53700078248334
C        -4.48408537233611    2.03473293195643    0.36631295529364
C        -3.82421124191246   -0.54043202506226    1.52251860144319
C        -4.86044123309981    0.68603521692311   -1.60293490402927
C        -4.61365725629098   -0.69549120440290   -1.88560202672902
C        -4.64761882954233   -1.39553196392899   -0.64795642514120
C        -4.97481385276183    0.85192595568485   -0.18979401382884
C        -4.70683478461908   -0.42686083578293    0.43137964985493
