80
C80 Isomer 13581 Symmetry C1
C        -5.28753803039595   -0.84532653531221   -0.85615358102239
C        -5.23317346971311    0.52498924665110   -0.85016916138204
C        -5.12759426347365    1.00276456736832    0.53437868225896
C        -5.22756373401801   -1.25693339045316    0.56053572000578
C        -4.91910870512247   -0.11122424495151    1.38092075399348
C        -4.42265294772876   -2.35518410742765    0.62760928031260
C        -4.32882196926103   -1.62207139773337   -1.60626309417616
C        -3.95344872927155   -2.67991441264406   -0.73328550199721
C        -3.32035918234337   -0.98815148166841   -2.37399797751251
C        -4.27253260755006    1.21895460574762   -1.63682913962692
C        -3.38945048881860    0.46252087462194   -2.46685473832482
C        -4.25106847372116    2.09478471342874    0.51274997827864
C        -3.75929836650731    2.29410378159687   -0.84147543538260
C        -3.33521383800723    2.20775717865240    1.54774293200671
C        -3.77247981224032   -0.14097189959590    2.24923653601380
C        -3.10394770812986    1.09030227059855    2.41995046548335
C        -3.30071618167092   -2.42183755904766    1.50978720735311
C        -2.91669554729632   -1.31996539715968    2.31703992847246
C        -2.64823824504624   -3.10878890354863   -0.63878681294321
C        -2.29357239668596   -3.09728325891096    0.77600860809222
C        -2.00175673088182   -1.61251079174849   -2.45551190153195
C        -1.67275181046589   -2.68938193910569   -1.58308251746899
C        -0.86617865898017   -0.90512201440338   -2.98531842935551
C        -2.22624218920587    1.14450657900201   -2.82404204517194
C        -1.03295906410212    0.46703731035176   -3.24708801964090
C        -2.47983541192798    2.83043704673457   -1.06086128877686
C        -1.82704635877859    2.36486132167818   -2.21807571616706
C        -2.08851434099696    2.87266084154860    1.32690992421008
C        -1.62844189256502    3.21990703705604    0.04073624061962
C        -1.73893657044848    1.16427524816702    2.84218307814286
C        -1.17290727128259    2.35047991467433    2.27643623770113
C        -1.51151168688165   -1.21843388755110    2.65689908911576
C        -0.91591939185015    0.04594813623641    3.00648018792359
C        -0.97597469914712   -3.03966760737649    1.13416412455201
C        -0.57811811140208   -2.19911409171287    2.21705500887510
C        -0.32006832297325   -3.01078305443827   -1.26656416093619
C        -0.03858970014562   -3.39647890437517    0.09831536892684
C         0.48750822787159   -1.37546557469289   -2.85857739860209
C         0.76416991872598   -2.52609434748629   -2.03843956598504
C         1.57858639099755   -0.48376966514505   -3.13867805118869
C         0.04508286581568    1.36387712205400   -3.12368735786581
C        -0.41965253319663    2.49886239747013   -2.37594552914789
C         1.36953817817543    0.94055044940336   -3.08605716275873
C        -0.21096733095500    3.35941090309661   -0.13330943601830
C         0.40441730668671    3.07158324455937   -1.41036853676300
C         0.18715341452498    2.54248919349323    2.16340094885865
C         0.63836198803707    3.26276370524615    1.00601192131522
C         0.51964517887308    0.25237942099544    3.04461324483184
C         1.03480131684602    1.57241103406032    2.81093623422581
C         0.82884142727510   -2.08438970024774    2.47136006602194
C         1.42005739282490   -0.85270038343851    2.91771921389015
C         1.24226894719656   -3.57039927579706    0.52842071268754
C         1.65272869249930   -3.02026759179940    1.81283116952498
C         2.11910999000139   -2.86105227012526   -1.64414510186890
C         2.34214339746032   -3.49312866797929   -0.38342249084424
C         2.89920452188357   -0.92261631524556   -2.90653575006873
C         3.19286148295416   -2.11238848053547   -2.14571057991997
C         3.90774302394088    0.01493171375341   -2.65483655700789
C         2.31655255440196    1.83988690249784   -2.48355508281883
C         1.82726684927869    2.83817918774670   -1.55508640761292
C         3.62401978975392    1.35053172064408   -2.30973997328755
C         2.02980745458563    3.33673892215293    0.80857483106418
C         2.64669825774000    3.19427197275142   -0.47933740510485
C         2.41067921396173    1.75997179528079    2.65102937811360
C         2.88674960046368    2.78442045540846    1.77446667377624
C         2.84441079320497   -0.63624286666182    2.70634426762825
C         3.31855222150532    0.67977766182750    2.56814607435214
C         3.03476871859708   -2.83037952045192    1.71243878159027
C         3.48303151341056   -3.20254092350771    0.38282505541319
C         3.64536657366723   -1.62253723875569    2.07099204998228
C         4.39030315505573   -1.85613892259894   -1.37000309270714
C         4.81056865147745   -0.54280421605393   -1.66075133523745
C         4.44913841977160   -2.27131671870813   -0.02953391400945
C         4.60415038200494   -1.29148299594093    1.02268246572370
C         4.42191092745958    1.65946053367276   -1.14766979112903
C         3.94670447578946    2.58842584967691   -0.25742091041348
C         4.08280104829800    2.32541317186442    1.14461240333763
C         4.35854872412709    1.02753339979812    1.60759369983942
C         5.02541019122415    0.42042693287832   -0.66458605287708
C         4.89618359481982    0.05127218988948    0.72161846013920
