76
C76 Isomer 3185 Symmetry C1
C         5.49033244709965    0.43809176308560    0.24924592859307
C         5.20201277005657   -0.61624626492653   -0.70406862540507
C         4.81650534908090   -1.74612607390737    0.02656855480944
C         5.00924262691917    0.01306124181524    1.53285287832720
C         4.67519427331511   -1.34228670893050    1.44364998850933
C         3.98798412888123    0.93400214899976    1.98962442514079
C         4.71542893809226    1.55589895076709   -0.12096592219472
C         3.90421744474293    1.96606461256178    0.99982509699637
C         4.27166095309793   -0.10753491882788   -1.67001244899536
C         4.03300204727410    1.28600072655148   -1.34424857821095
C         3.16496705930048   -0.86356657228367   -2.10315898622286
C         3.66330640965245   -2.46148019261023   -0.32792653439651
C         2.88667017934791   -2.13035904669146   -1.46625890524975
C         3.42736761147678   -1.79916188552134    1.89675564532003
C         2.90842742605605   -2.67537653083470    0.88038729830569
C         2.77966746422777    0.47883336164309    2.55672072864677
C         2.49483650742224   -0.93945004072520    2.56992681775160
C         1.66206803177683    1.38171902275819    2.56687095512457
C         2.72004717452427    2.64070789487193    0.76325926191330
C         1.68354943283919    2.54596189256581    1.75159053978821
C         2.81083877113084    1.91744250699560   -1.60333458985922
C         2.31683769469155    2.83898069197577   -0.60817584111915
C         2.05667455871487   -0.13267166648397   -2.68476204208834
C         1.86393556311487    1.27663655418804   -2.46794734765286
C         0.93389008574406   -0.88116024932621   -3.04143691501603
C         1.56569852913454   -2.69340984788625   -1.52109732321792
C         0.70256282508553   -2.19263782635936   -2.49763422539870
C         1.58192328238170   -3.04221889852213    0.86529005194335
C         0.93194396034828   -3.30848184094054   -0.38399698197021
C         1.15794714798590   -1.39687547861334    2.67910395081226
C         0.80090933101167   -2.61021339890388    1.99269031253084
C         0.38568024408325    0.90105380999694    3.04258437588073
C         0.09149055251172   -0.50861456440392    3.06924752789965
C        -0.68952085771489    1.78629521372866    3.05742206760814
C         0.49370393620264    3.31885278257797    1.54249789408279
C        -0.62014054240264    3.05578098760025    2.36495869328694
C         1.07728036758263    3.40379874070515   -0.82572246803626
C         0.23481380451305    3.84246608902880    0.25562612723379
C         0.56482909230629    1.86473650746834   -2.65943612456215
C         0.25996168233071    3.03207471646527   -1.92776544709473
C        -0.33255777678884   -0.30230661667862   -3.30749126313601
C        -0.55353629752874    1.07364272723785   -3.12021116493968
C        -0.69500298523970   -2.43165290114182   -2.47709865262558
C        -1.33696898396776   -1.27578268905838   -3.01523112274997
C        -0.46001642380642   -3.63386538398141   -0.38103137384554
C        -1.30830561504194   -3.23421343737365   -1.48971891492291
C        -0.49562369378259   -3.05869533859909    2.01324382714047
C        -1.06773729032350   -3.75796200866914    0.90033860609477
C        -1.27006179140978   -0.94942701544526    3.04007552518175
C        -1.52751796756186   -2.29898658575134    2.67661961664399
C        -2.04469676202963    1.32767762222651    2.99406543463036
C        -2.36445830353987   -0.02875908588091    2.85117838874855
C        -1.91471655580545    3.38142718165634    1.93119922083681
C        -2.79906205004937    2.30460120093290    2.31341850536160
C        -1.09371896988784    3.95807752147325   -0.25194224081196
C        -1.08137884901218    3.41362467012358   -1.59235888387616
C        -2.18479435536784    3.72042937773311    0.58523357605624
C        -1.87836625907047    1.46273030529101   -2.79159339014446
C        -2.13599567553821    2.63633371757978   -2.02127992338403
C        -2.61956905012940   -0.88896334745033   -2.57408077015408
C        -2.87820548852503    0.49877810914475   -2.45545463200939
C        -2.69277333537269   -2.99086401124433   -1.27130533294876
C        -3.29612732473180   -1.76627143038420   -1.71257307107638
C        -2.47033077469443   -3.63398790525049    1.06078659725566
C        -2.75381478457883   -2.69607633895880    2.16337853207637
C        -3.26596040733912   -3.27413520429419   -0.00237606403046
C        -3.49829803945830   -0.36293681516545    2.00681941645650
C        -4.10508512915486   -1.22125363284390   -0.63565395785067
C        -3.69939992415895   -1.73228757978996    1.71585804672673
C        -4.09418358564872   -2.13427956137490    0.41197117997381
C        -3.61391853487613    1.95596428155052    1.22595441243786
C        -3.26916675220089    2.85920752760093    0.14352532629890
C        -3.24610436111112    2.35459428833250   -1.13671328034473
C        -3.68365853183239    1.01629538501600   -1.39004682339227
C        -3.95407814343211    0.59849092618957    1.01936369305863
C        -4.13255753094361    0.17124383759531   -0.35261885655002
