70
C70 Isomer 6220 Symmetry C1
C         4.12675900794592   -1.19517694544288   -1.42291623526751
C         3.81498752212446   -0.11701144632130   -2.22408047023256
C         4.10755392767188    1.09923799244857   -1.46735916572648
C         4.57251890854949   -0.68680289590377   -0.13537792132805
C         4.46192198906634    0.74734864334556   -0.13599758009727
C         3.94213536968333   -1.46427466763709    0.84056450875370
C         3.16309559250778   -2.22066608930458   -1.21294741209990
C         3.12567796791395   -2.49056296816933    0.19343696235428
C         1.95985468969287   -2.20797780702113   -1.96826746008753
C         2.52446769561017    0.01977803052146   -2.81275972768040
C         1.58060028567895   -1.02678339559795   -2.73767397355698
C         3.08012907800268    2.01395562548509   -1.73780536775229
C         2.10080021947464    1.37378257458176   -2.60853354090089
C         2.62432514111836    2.81043511891438   -0.69350246446973
C         3.81555733130483    1.40279635176622    0.95705995776946
C         2.98213843380880    2.51327034342821    0.65488832078105
C         3.42282212196281   -0.83259406636661    1.97182865938197
C         3.37976969655688    0.59106484777445    2.05128120616810
C         2.26428514758166   -1.37294774725065    2.63221796045829
C         1.97475855017732   -2.99467054213611    0.81210309397993
C         1.55886520247517   -2.47539389723006    2.11064364328365
C         0.93512675333860   -2.97931534494039   -1.40641543440256
C         0.96238598508414   -3.43644198109529   -0.07067132673892
C        -0.43609046047188   -2.80273208434495   -1.79927594218989
C         0.19526929513729   -0.67925807165012   -2.88838459727258
C        -0.80022456272124   -1.69504725603932   -2.59112864290286
C         0.75164509670807    1.70633222920639   -2.55541746885830
C        -0.22250194906868    0.68983513943250   -2.87899563251354
C         1.26974689246941    3.27260510198600   -0.72161358278475
C         0.36847465508275    2.81121029501571   -1.69276312287071
C         1.84107341699811    2.86717198814366    1.46363975360600
C         0.83463310884485    3.43643429838047    0.63138320444158
C         2.22703975289473    0.92657413818736    2.83248887363869
C         1.57728951522814   -0.28512931002344    3.24046189106857
C         1.45438459354908    2.08320043320387    2.57987234281834
C         0.18695865214718   -0.33535510322321    3.48801199132844
C         0.19193722182337   -2.57619211820207    2.46709334886214
C        -0.48244142816326   -1.54379385067838    3.15472494605919
C        -0.41205425420192   -3.58047123560664    0.33938999169104
C        -1.27943266298156   -3.27615632094233   -0.76604833638443
C        -0.78734067119665   -3.19127350643908    1.59959349863871
C        -2.59709888622708   -2.79127756301842   -0.58948825554461
C        -2.16029368257320   -1.38581006721149   -2.57239115673284
C        -3.07900272869123   -2.03303793491038   -1.68956948550617
C        -1.62318867017949    1.02277904898554   -2.74486558083197
C        -2.60156841069662   -0.01847185193390   -2.78040293095203
C        -0.99759582081928    2.97341159663993   -1.39485528051850
C        -2.00498229642735    2.19286105904850   -2.05583096907097
C        -0.53971797328839    3.39012383817402    0.96467525903017
C        -1.46013300751156    3.31697479622545   -0.10935990074329
C         0.07538410665150    2.05470481122815    2.92099094019884
C        -0.54759713383202    0.86459913959182    3.40771650771265
C        -0.90270712437595    2.75593155668164    2.16774182690041
C        -1.92776301453625    0.87418043266477    3.01614948404969
C        -2.15774874265503    2.04832873012289    2.26292829748595
C        -1.87182759026118   -1.54332748933073    2.76153507239197
C        -2.06464117547924   -2.55970768679428    1.79536186012368
C        -3.02160863845651   -2.43665527257481    0.75008794327378
C        -2.61312917741101   -0.33566236470429    2.71097514218322
C        -3.94911251764755   -1.37242126055966    0.90813649045119
C        -3.67912940385927   -0.28230296458963    1.80042294784490
C        -4.15945787698908   -1.12389727860575   -1.50423925284006
C        -3.85810557157504    0.13208672550090   -2.19968274254931
C        -4.58772770416037   -0.81147999446277   -0.23424720378379
C        -3.17877802604371    2.23935729282602   -1.23374761245202
C        -2.78815041146107    2.76717630795881    0.03943717251255
C        -3.13413547734995    2.09366966084770    1.23348659673347
C        -4.01181689541023    0.96607969944442    1.12402313660146
C        -4.13076948329048    1.21624683479854   -1.30949896560363
C        -4.61149949485220    0.65353569770202   -0.09723808932971
