70
C70 Isomer 5733 Symmetry C1
C        -4.63277790078264   -0.29070650088361   -1.00852248567082
C        -4.70027452229269    0.71951613477468   -0.05027414846728
C        -4.48311443254941    0.11249530982873    1.25410306544615
C        -4.39143408879220   -1.55246891482349   -0.34227426627825
C        -4.31683114892691   -1.29482987801550    1.06357011394840
C        -3.32343879283903   -2.19594238832242   -0.99566216552493
C        -3.71758772104739   -0.18878312272725   -2.10671518795633
C        -2.92365828180592   -1.38665021293227   -2.13020302667066
C        -3.07783798741125    1.01611547507790   -2.32850600943708
C        -3.87835749504962    1.87492942868792   -0.15071713328762
C        -3.18881697643280    2.08476081984160   -1.35315102130831
C        -3.50779876619265    0.86988129012484    1.92034011767230
C        -3.15491140930721    2.00637391335727    1.09462608877192
C        -2.49800250417605    0.24764115309702    2.70113889427765
C        -3.31022816184314   -1.91647225659470    1.78329821375793
C        -2.53014390164019   -1.16929197675118    2.72309812364149
C        -2.33534656738765   -2.91390776277082   -0.25990401702063
C        -2.41598109575516   -2.86335136351567    1.14412670885706
C        -1.05525644717817   -3.15948499620678   -0.86397098164726
C        -1.59400592526826   -1.38801250569020   -2.54723653714876
C        -0.76053845046818   -2.46518010963260   -2.08553067157535
C        -1.72802671683125    1.01948693022238   -2.80941434645260
C        -0.96695095750032   -0.14101690101978   -2.95698749447770
C        -1.95249469551849    2.75777861551393   -1.31379330716289
C        -1.07949065967001    2.19405243883502   -2.31418533549423
C        -1.88187502299383    2.58157081725550    1.15777086751825
C        -1.38542064225815    3.15711497953222   -0.07668352045958
C        -1.23624936010478    0.93824104817197    2.88302244859462
C        -0.91630160252066    2.14216677381647    2.14800261442556
C        -0.15561723529307    0.17563744098128    3.35759791102710
C        -1.32167906176085   -1.90939414950968    2.91163121955303
C        -1.22061873329000   -2.93853552432994    1.91496903201945
C        -0.19409044002373   -1.26145410876721    3.32998931240134
C         0.03972192393875   -3.62160146034723   -0.04301345445309
C         0.01361249820225   -3.31609962758256    1.37395901832273
C         1.30602434577101   -3.77580110784370   -0.64859973671385
C         0.56693193696269   -2.43485038266482   -2.53925523101446
C         1.52120686005708   -3.25412135709352   -1.94959576168440
C         0.47804738776281   -0.00274337470337   -2.95242414724903
C         1.21300729356928   -1.18121670470062   -2.91232788495508
C         0.30319424681100    2.33113203779976   -2.25596628131030
C         1.15813442783607    1.22176301352789   -2.59344005648473
C        -0.06315993427094    3.55619249826170   -0.13278143629013
C         0.74863076470419    3.31093286034178   -1.31931183477207
C         0.44991054416145    2.60003703917697    2.07046859441765
C         0.78725503588783    3.49127926937853    1.00560172288888
C         1.19929317880042    0.54504180194083    3.15898699116391
C         1.54406488961252    1.79139959581998    2.59322156277703
C         1.08736084692681   -1.76126147637470    2.95433933549210
C         1.21410230001874   -2.81250693484596    2.02629309792381
C         1.97642260046068   -0.64003275110679    2.95423939821726
C         2.50943523616487   -3.52020529696540    0.08722265899369
C         2.45298361296320   -2.87980455586117    1.32575663292358
C         2.79326895873738   -2.53232297251247   -1.96533763187967
C         2.56952157580051   -1.22272300767459   -2.46917122807646
C         3.40034208385180   -2.73254404273180   -0.74321969132441
C         2.50318859836553    1.17907893861673   -2.07696912490482
C         3.16098286417026   -0.09155417115398   -1.85169877229588
C         2.07532044184030    3.36450578210562   -0.95890285086116
C         2.11353944862987    3.57086993874382    0.49535379342025
C         2.96085045392557    2.29315546710019   -1.29711629177394
C         2.84414874202016    1.83943914509180    2.01721145001114
C         3.11522722820891    2.76673643228313    0.98223651169673
C         3.73739004357215    2.05256877440218   -0.14015293471083
C         3.11850993183512   -0.62758833836577    2.12451816352481
C         3.37771816667746   -1.75877932044143    1.32505945585472
C         3.87095827506906   -1.60438009742247   -0.00834886425372
C         3.90518397128006   -0.32853157037650   -0.62337376017266
C         3.53590207746535    0.62941076066746    1.65400296222340
C         4.00092484712147    0.75484529888485    0.29198254945703
