66
C66 Isomer 1843 Symmetry C1
C        -4.59432655182193   -1.46578325778743    0.12848144304925
C        -3.74165984935234   -2.43199894194052   -0.48218445625466
C        -3.10839824349793   -1.80857796173949   -1.59248731146956
C        -4.56374555619691   -0.26072736588560   -0.65063717484132
C        -3.59904526872307   -0.43783207429708   -1.66968764660175
C        -4.38144144994452    0.83231117119396    0.25060418905797
C        -4.01515368498137   -1.13594238411532    1.38070608817200
C        -3.86684930870255    0.27965352290233    1.49172566994017
C        -2.88762499242118   -2.93724129187864    0.54457406713223
C        -2.90955708387381   -1.99746272297701    1.66130701163878
C        -1.68256322911045   -3.41729172754334    0.13470858836510
C        -1.76642335587434   -2.10141602836911   -1.92402990464275
C        -1.17553782213082   -3.15675614735962   -1.18773008833453
C        -0.87952271731896   -1.06977064551966   -2.44371107930068
C        -2.70382557311700    0.61014190392908   -2.04248925487223
C        -1.34084701758410    0.29084878266404   -2.47515384073178
C        -3.78206606920480    1.95452317107530   -0.27990945626441
C        -2.97598938016876    1.87446750301896   -1.48307468762867
C        -3.05738500162323    2.75006369338429    0.63100637673671
C        -2.69015393812659    0.80345997164941    2.07846329769076
C        -2.42298052587514    2.16030019385875    1.74104277592481
C        -1.69811657254699   -1.48997721632429    2.17403584599879
C        -1.55830247521453   -0.05489398565934    2.41338477595213
C        -0.56846035731552   -3.33026461537866    1.02588757763090
C        -0.50204231036114   -2.28949208509045    1.96717248056190
C         0.23076057753110   -3.34212473895955   -1.12953095873946
C         0.56995552435264   -3.65381473606125    0.23157401226652
C         0.53481082746554   -1.37307109523448   -2.51636631308058
C         1.10783373740130   -2.55639418673475   -1.89737532386625
C         1.42580917913929   -0.31095610455720   -2.74864394345184
C        -0.37720731346180    1.36256439158956   -2.52519006882117
C         0.97836097867704    1.03194296828770   -2.72078289189858
C        -1.93009144779609    2.86502436193203   -1.35670554350957
C        -2.05603317811662    3.49154378224049   -0.10159918737994
C        -0.64732774813298    2.64804405201134   -1.91267423735437
C        -1.09744859129229    2.70357892283875    1.82717745433977
C        -0.92770075527277    3.63221935974163    0.72427988417725
C        -0.24848851781523    0.50791869980245    2.53788236878330
C        -0.02339581436938    1.92285554321942    2.24764742753751
C         0.80495366259219   -1.77210059702418    2.29832947760832
C         0.92529162204776   -0.35739705904366    2.61412877920017
C         1.81602957164315   -3.38300032636513    0.72547172736297
C         1.94080726092405   -2.47431482698926    1.84283520576959
C         2.47286802732123   -2.56219185616004   -1.47365101349037
C         2.82873798126854   -3.08858981747801   -0.21639478942886
C         2.81531133831270   -0.33591527814752   -2.34011080574927
C         3.34420076795496   -1.42585134793722   -1.69475677944516
C         2.06830223824415    1.85354527750813   -2.24969316899982
C         3.19410495282668    1.00572331612725   -1.95528602655982
C         0.41972822898935    3.33754042628119   -1.28352336682947
C         0.29202779001082    3.72512052103752    0.09194595546396
C         1.78311220775688    2.94282634132613   -1.45267632222665
C         1.29925986846658    2.41348268958073    1.88607457861726
C         1.45783483601066    3.30447735963667    0.79416452239964
C         2.47551959174747    3.06937995659778   -0.19190048031403
C         2.20630291697013    0.21394436164768    2.56909526333154
C         2.40171442112761    1.59392592145682    2.17354199093058
C         3.21804180107880   -1.83119127945722    1.67516909416170
C         3.77412501288460   -2.20157535113148    0.41556906012641
C         4.17843755630615   -1.22404597683672   -0.52031522312622
C         3.36502094947271   -0.51622167000279    2.10083170258172
C         3.97678707178890    1.22113266852001   -0.82926870804039
C         3.54631279860111    2.24752778352355    0.10337710987832
C         3.57402639132105    1.67219740830358    1.39974655187678
C         4.42398403927178    0.07619217188445   -0.05410153164198
C         4.15333797183820    0.35570650121507    1.30869923063134
