76
C76 Isomer 3396 Symmetry C1
C         4.97166824723261   -1.36248037048157    0.96789056102553
C         5.12030440798266    0.02662270940755    0.66327929143044
C         5.06213613226110    0.15444887455176   -0.73778088496844
C         4.56816198512968   -2.05123307032639   -0.25510079825128
C         4.67028616581884   -1.14704006291604   -1.31191431614035
C         3.30114020306111   -2.67538625872219   -0.04286974191498
C         3.87812436849140   -1.46980154097552    1.85415588876540
C         2.91690436977633   -2.37374172601501    1.32312212382025
C         4.16179905290456    0.78049982381608    1.45192320962691
C         3.39602505842602   -0.16698941916897    2.21757199590659
C         3.49206514415201    1.88536002148139    0.91271805792507
C         4.25344611652714    1.13872147883496   -1.31536457653323
C         3.65882621288957    2.14785933986594   -0.50408754253572
C         3.57597258600173   -0.91358965324717   -2.18344306642231
C         3.41909673734006    0.50716312993802   -2.31042257321784
C         2.28387428589750   -2.60508667415059   -1.01580721099675
C         2.39227431475267   -1.68706512629276   -2.12239832784379
C         0.97317028375838   -2.96389003299243   -0.56450519812165
C         1.57870254697316   -2.22131329170809    1.66978894140811
C         0.64390669995359   -2.87668587708684    0.80480024584107
C         2.03065240587186    0.03428622911302    2.47737129192469
C         1.12191850740486   -1.07814831570981    2.39382985129298
C         2.24389376637866    2.28389749810331    1.52646718892645
C         1.49826343677973    1.35268051946599    2.30699101675750
C         1.53994519831325    3.40067498596384    0.95367532240186
C         2.66110344354418    2.87966391171196   -1.14449891248099
C         1.75233169604578    3.69641463100904   -0.40863280278267
C         2.20383097980793    1.07379139522595   -2.71594745407885
C         1.97628572945324    2.39765452056613   -2.30001749409759
C         1.17179326075962   -1.13926071339363   -2.67288034318958
C         1.06774210563703    0.24786145623819   -2.99876369966824
C        -0.10168408547177   -2.91788706674882   -1.50521351275132
C        -0.02373192813582   -1.91377162265057   -2.53478548066605
C        -1.34176215821049   -3.37670806661605   -1.06690199520365
C        -0.69276254006749   -2.96645027603797    1.24954781913928
C        -1.59533511228667   -3.55026405054568    0.33612235193767
C        -0.28731579007491   -0.89226966170444    2.54190550518403
C        -1.15422920248720   -2.00477619597553    2.22363654942897
C         0.08693469136568    1.54427639273871    2.56566687373078
C        -0.81430451403667    0.41971319551711    2.71570677001501
C         0.27321962868216    3.73475996767843    1.47966700723093
C        -0.45291016901943    2.80370392959875    2.30302532658835
C        -0.67800364263625    4.39740142022900    0.67814466382024
C         0.63353887994221    3.95406146183176   -1.26388407766650
C         0.68122997249992    2.98996363246130   -2.32798366848134
C        -0.58465106496622    4.31770961472586   -0.73819873000849
C        -0.22727096376498    0.88250777855995   -3.09265594469103
C        -0.45365270074625    2.25865574765236   -2.69668510616938
C        -1.23528163475533   -1.35561130488938   -2.96647524226085
C        -1.34167693033945    0.04928239690822   -3.15908132521632
C        -2.58303826366420   -2.92552196138406   -1.67169464440331
C        -2.51360082784495   -1.83228121484096   -2.53360284093128
C        -2.98634728028125   -3.40687362785745    0.54275874978913
C        -3.61026770289756   -2.97198902560808   -0.71234049233363
C        -2.54093511770540   -1.81729490464439    2.34396347994795
C        -3.44643020125914   -2.59374874720786    1.55593836723008
C        -2.24040612705074    0.62652210687061    2.57747833987101
C        -3.06827337307698   -0.48938691393405    2.42458677569258
C        -1.86595072948411    2.98543772429930    2.05550482799290
C        -1.99525680393698    3.96873197440248    1.05434088789659
C        -2.75610625210671    1.89867847546374    2.10699994113870
C        -1.79722799277191    3.72897503525943   -1.25133036533958
C        -1.75402104885925    2.66955461175934   -2.17574185577619
C        -2.71201811925090    3.66154506761569   -0.13070331353987
C        -2.65545666470994    0.45287923211041   -2.74596597869029
C        -3.38807273443955   -0.71286328617326   -2.35208916509247
C        -2.85734576812514    1.71938217561277   -2.17011014209165
C        -4.43552790454219   -1.84803243833892   -0.45056739930876
C        -4.43533763762668   -1.69029014414523    0.97605978020650
C        -4.24999568193777   -0.43876242074089    1.56445902136849
C        -4.32357600764197   -0.68164417354732   -1.27701061156623
C        -3.80817007222677    1.89977573052790    1.15277160292312
C        -3.65113145896982    2.65691300264537   -0.05510742940832
C        -3.84580455274284    1.76552538956919   -1.15604745059040
C        -4.45482804380250    0.69344444225378    0.78135340146175
C        -4.47386981786207    0.58013820519336   -0.65261131421571
