68
C68 Isomer 6301 Symmetry C1
C         4.03292792685799   -1.21747600159817   -0.83537293762144
C         3.18830732469556   -1.64112740685561   -1.86799787320653
C         2.86386340791839   -0.44073580213924   -2.61612061588984
C         4.18659273360349    0.22759407853539   -0.89611541226914
C         3.39067703893497    0.72791572591313   -1.93342119850851
C         4.11163239058514    0.74437025494410    0.41475800820216
C         3.78229790560666   -1.54965734907555    0.51321939137992
C         3.76039892038504   -0.34087397304602    1.31123307138443
C         2.86057301957034   -2.54926822810566    0.75493849343114
C         2.20146365643711   -2.64299297588174   -1.63735212001097
C         2.16981490562319   -3.18621918499526   -0.33032889802975
C         0.94940188789276   -2.56729859756040   -2.37005667005825
C         1.65245566925860   -0.34518386339666   -3.22720450959431
C         0.70717733585294   -1.43775280564169   -3.19275464145220
C         0.92643757729823    0.90249128645187   -3.23481170320952
C         2.56854097698197    1.88439750277560   -1.72765741746412
C         1.28021926144019    1.96914344410739   -2.39554596828121
C         3.51228385286847    1.99406433407736    0.55481098150726
C         2.72310088332557    2.55958164777562   -0.50858078350540
C         2.82194476508260    2.22462697216530    1.76809430214464
C         2.77057151302445   -0.17362838700250    2.30484287402876
C         2.36964600325336    1.17014151315679    2.56594566321897
C         1.96367341977194   -2.44545374399732    1.87704773100491
C         1.81110119238249   -1.23669283017627    2.58264920970973
C         0.95577309697592   -3.72121203562529    0.21512643679778
C         0.85843636024672   -3.29990872110995    1.59081378178167
C        -0.21184099839336   -3.17383951437552   -1.84716788301599
C        -0.19189199474072   -3.79722059355395   -0.54684981427120
C        -1.51964113804828   -2.63749080359264   -2.04826735371321
C        -0.58479588439819   -0.89275076309891   -3.36659278828184
C        -0.43343748990185    0.54034251674842   -3.48254270770333
C        -1.74226348178343   -1.43963998428095   -2.76099860804663
C        -1.44353191401000    1.37954389696277   -3.11714215392108
C         0.19483199363331    2.76246180223920   -1.83647879745305
C        -1.10227490118622    2.55011804207108   -2.34588962124312
C         1.57601642857988    3.22263834555812    0.10973747001937
C         1.69636675977076    3.08660660665148    1.49169224251285
C         0.29172722180722    3.27038754087429   -0.48884876951638
C         1.00431039081635    1.47634628268632    2.95718499446406
C         0.59889222395301    2.66539085870345    2.27661089981993
C         0.48742508577575   -0.92396792253765    3.09839422364420
C         0.08129676419205    0.46637407134088    3.23674350579142
C        -0.37508973834245   -3.04620718961792    2.15243029861382
C        -0.54685655406790   -1.86518311514669    2.94434901089915
C        -1.48310770946746   -3.62703865373944    0.06039226586477
C        -2.32195713109527   -2.96002880253567   -0.89603273551952
C        -1.57963618951783   -3.29365515183982    1.40654944759942
C        -3.31041564353567   -2.08996941084471   -0.47803095068124
C        -2.83221985849353   -0.55802887454494   -2.37148359515975
C        -2.70464176558774    0.83510134618136   -2.65137413808374
C        -3.60309552212409   -0.89668012984849   -1.23122816850663
C        -2.23093460804303    2.81796924486895   -1.54708761308086
C        -3.23525853114078    1.79005764316173   -1.77670321638903
C        -0.85698310717839    3.27247474819399    0.39531007514003
C        -0.69885354362710    2.84087058682674    1.77043133104802
C        -2.13434582173089    3.06400113491728   -0.17556713396014
C        -1.28196386614766    0.83636759336388    3.08001311281207
C        -1.66848524663467    1.99893177233342    2.35859429587727
C        -1.93333624662845   -1.48339380618561    2.81414264646238
C        -2.56061619928190   -2.33928235099594    1.83789521395018
C        -3.46195404748958   -1.80131217303278    0.92678071672561
C        -2.30219407498004   -0.15664446873207    2.88713718696524
C        -4.05134443532141    0.09640708336350   -0.29371925010248
C        -3.80998222476645    1.44814955408738   -0.53763531187374
C        -3.17136005295002    2.27241130668019    0.47319046631415
C        -2.92315317308650    1.72759724547978    1.70922962022686
C        -3.87517118218662   -0.42997087938152    1.03632562696378
C        -3.31554561851491    0.37491051089579    2.01934676331817
