72
C72 Isomer 11165 Symmetry C2
C         2.51896126065041   -3.26632844149142    1.37484312485584
C         1.47894921943667   -2.85083766250560    2.22095348887387
C         1.81439504416217   -1.53836697229812    2.72430259158483
C         3.45522179657454   -2.16725414316694    1.26014033906311
C         3.05585319973235   -1.13731869514524    2.13616520469032
C         3.70478347966978   -1.90073591726405   -0.09081059675397
C         2.26065729917122   -3.76264816694014    0.07940471432745
C         2.98509174101773   -2.91647791273428   -0.85235602058533
C         0.95893603084252   -4.16345349190472   -0.18939711416848
C         0.13468281276833   -3.17373091481938    1.94316298130097
C        -0.06277032000767   -3.99952516338105    0.80593630132779
C        -0.91298980356096   -2.23801012581492    2.35801736463266
C         0.81568800901560   -0.59227372114310    2.99685417632464
C        -0.58460532288365   -0.88677834318544    2.80655528911781
C         1.25564260876582    0.74937747316403    2.98045275343171
C         3.33365939473920    0.19872373887966    1.78627485602102
C         2.50966821791665    1.14180746408658    2.43234801778507
C         3.84172373534204   -0.55558110431343   -0.53093474027771
C         3.84775615468478    0.49145926367922    0.46731939164182
C         3.32239158381978   -0.25952598337729   -1.84712156334335
C         2.34911558479587   -2.54030289554719   -2.01458960969914
C         2.48895415185553   -1.19734458693364   -2.48870139357457
C         0.34495117264548   -3.82610530875304   -1.45076219079331
C         1.00388553663689   -2.97518291746821   -2.31004557295612
C        -1.31258620147825   -3.92807682921363    0.11214058541905
C        -1.06484609911586   -3.65577871375524   -1.27160562971921
C        -2.19459806296748   -2.47533506472643    1.87544634175161
C        -2.39438830424176   -3.35877322612169    0.74641042987427
C        -3.16847570263870   -1.41492686201390    1.77359162814339
C        -1.51005144901715    0.19533037712574    2.65377337191006
C        -2.83841456106163   -0.07410852340329    2.12999604243234
C         0.32714493585462    1.81952907602198    2.83856114769262
C        -1.03631283960702    1.57340451296212    2.62390757227575
C         2.37581703969020    2.48561007543194    1.95899325818766
C         1.03502862680755    2.92903976675579    2.26178293210518
C         3.71699894037980    1.83747660286525    0.02792727972183
C         3.00789206744355    2.85774421766273    0.79336100115760
C         3.05124908600298    1.07827501228689   -2.19552480490908
C         3.46191174732050    2.10562641508299   -1.32167945518824
C         1.80919959353811    1.48724853403651   -2.77696064239965
C         1.23445922920760   -0.79692082100412   -3.02998394507872
C         0.29996548322354   -1.86113492653182   -2.88298140833731
C         0.80300236323758    0.54752723649128   -3.04403405581356
C        -1.79101564897069   -2.63106853940044   -1.93846969628292
C        -1.06068317680095   -1.60626609735847   -2.66080898577540
C        -3.37006699992416   -2.76831093502838   -0.07888133565596
C        -3.97469605735962   -1.67678714825858    0.64982566631435
C        -3.03240750490831   -2.28863228486764   -1.35663307937713
C        -4.27633638517647   -0.65210232524965   -0.26359928091675
C        -3.57611617051610   -0.95363928664337   -1.49172982692790
C        -3.56217926598512    0.93681929754747    1.46859588945505
C        -4.27080288692805    0.63980939759051    0.24430796408076
C        -1.76400651176416    2.60289602176746    1.90552015000935
C        -3.01072505074063    2.26830713450659    1.33045766485687
C         0.37688040642955    3.78420671966130    1.40607140705941
C        -1.03491606597796    3.62289670875517    1.23469005924533
C         2.28385687945222    3.70852746806305   -0.13448847053890
C         2.53204782787224    3.21064461343281   -1.43131939983384
C         1.48484282449095    2.80182473543152   -2.27181293364477
C         0.98619541866003    4.11759411364623    0.14136229149107
C        -1.28835265641535    3.89670508354936   -0.14777328568590
C         0.14417206947676    3.13328402927144   -1.98675436762092
C        -0.04190780587979    3.96017389949098   -0.84840547925615
C        -0.59429885436209    0.85096520502211   -2.84605305557607
C        -1.52575771680794   -0.22525153142208   -2.68811933878356
C        -2.84947601845628    0.05261490519676   -2.15693916235485
C        -0.91159326555939    2.20429054767717   -2.39586310777662
C        -3.96774222257788    1.66259669826298   -0.67084413778875
C        -3.35225884373196    2.75016664371198    0.05452600406411
C        -2.37722758498469    3.33427098572205   -0.77615372971979
C        -3.16905176372964    1.39551034366852   -1.79875578401375
C        -2.18897544919377    2.44961126467777   -1.90608608109885
