76
C76 Isomer 13487 Symmetry C1
C        -4.77394791899891    0.67221103580463   -0.51065683341175
C        -4.57218010510485   -0.41666167683993   -1.33766249994404
C        -4.45997941946295   -1.60072892946312   -0.49671539902823
C        -4.59657514942994    0.19893168950039    0.87742351497868
C        -4.29650555992439   -1.18003809037559    0.85824012552597
C        -3.76617190814713    1.09591066344466    1.53373911067102
C        -4.02938664444888    1.84689811251869   -0.68608573589896
C        -3.65141227822621    2.24731172263712    0.65369576363008
C        -3.03987545743173    1.94419206755711   -1.69906065364982
C        -3.47971774111303   -0.42111153765822   -2.25084186298133
C        -2.70447917959877    0.73624890580943   -2.43616467462837
C        -3.50211508310638   -2.42481820933813   -1.08986058760188
C        -2.83114437547274   -1.71241910872074   -2.15507602484748
C        -2.74334359379644   -3.20227868377777   -0.23610656612328
C        -3.18807918249479   -1.65096187140615    1.63485955958312
C        -2.62549224526305   -2.84638923274260    1.14642360005230
C        -2.61369921194506    0.67059536350726    2.28277109957981
C        -2.30693757436739   -0.72651220796471    2.33245451691501
C        -1.58780638490075    1.64963806933247    2.52220452076207
C        -2.64042278101742    3.11884407430324    0.84553938578207
C        -1.72418857842327    2.92960814381907    1.93113853965987
C        -2.03675537596503    2.96542210694649   -1.50672765589578
C        -1.91941321195617    3.66313803245628   -0.27549802672412
C        -0.85191936354355    2.87197789209561   -2.24591195882957
C        -1.34305086280559    0.51566273561175   -2.88456756849635
C        -0.53304483741523    1.64750111920748   -2.94153676062647
C        -1.46129192444073   -1.90852916573914   -2.37920156532903
C        -0.69271284765103   -0.78717530430921   -2.86359396781394
C        -1.47825154752286   -3.67178807399624   -0.67728210354820
C        -0.79458418965215   -3.02115818621504   -1.71887905220971
C        -1.36319486310203   -3.31611713925094    1.59555023879120
C        -0.77318594028876   -4.04539408580043    0.51283145953228
C        -0.94560057452216   -1.13957845438613    2.66455456778034
C        -0.54793771261410   -2.51026264697967    2.42003780238041
C        -0.25290905083652    1.22920385666176    2.87621261843001
C         0.08405562190626   -0.16981896844859    2.87767295780167
C         0.78971253851348    2.16957070078785    2.81031035948259
C        -0.61017159561255    3.74665176270524    1.61903180338068
C        -0.67670378970589    4.13572332889761    0.21709898977923
C         0.60552755522123    3.45703077862144    2.20084073259883
C         0.36502445557872    3.47022752797606   -1.83911185668321
C         0.49675045151783    4.10397118761907   -0.57774891313483
C         0.87067474559954    1.55605864615180   -3.04353105667271
C         1.44066899573793    2.68256148824790   -2.38328027362814
C         0.73366200432022   -0.90194465901814   -2.95545697253374
C         1.51442887456297    0.30395928390634   -3.12870264438930
C         0.64748117479353   -3.11207812565049   -1.74351831261754
C         1.39668506121728   -2.10343230050473   -2.45914138965385
C         0.57927236826070   -4.24900666856248    0.44756438506029
C         1.29463159691861   -3.88290439769756   -0.74828610744741
C         0.82353294692831   -2.86301992366421    2.43816804366688
C         1.34014024723415   -3.85754245903717    1.57458922649444
C         1.49469001299799   -0.53047271827236    2.72361460024542
C         1.83722226067201   -1.85985014082216    2.54443458094771
C         2.15223634898479    1.77571000454421    2.51951654225889
C         2.50226176021566    0.43133731318845    2.32410576981692
C         1.78515207998022    3.79869309112812    1.48477717309767
C         1.75565980992236    3.98358181662653    0.09369221069944
C         2.77028550714442    2.79193508447902    1.77629120965999
C         2.68834697596620    2.57387885285431   -1.72528029088803
C         2.83894858698424    3.19939297950106   -0.46815406416868
C         3.46057955680461    2.45875904429275    0.59372397875210
C         2.88486667994036    0.34285151686102   -2.78835956767394
C         3.42476875768960    1.39961767364291   -1.96775130105353
C         2.78746827548423   -2.04617011358544   -2.20372053656936
C         3.50435745249244   -0.85162385097192   -2.40076491291266
C         2.63206693587629   -3.55358153062655   -0.30532605253231
C         2.64079277066024   -3.46027886516878    1.11751350596723
C         2.97332286546607   -2.23224459406618    1.72557945695075
C         3.36204091862329   -2.64133658034201   -1.01469021709657
C         3.54477440359611    0.11525696960603    1.37880229538859
C         3.94430345017009    1.14436344086282    0.43206711764069
C         4.18834454110181    0.76990684608976   -0.91372749857300
C         4.31750579846184   -0.58732401433003   -1.23897738679264
C         3.73003439555439   -1.26739063568271    1.02513815490159
C         4.10490927720845   -1.61339177838846   -0.30825066603607
