64
C64 Isomer 843 Symmetry C1
C         4.53037295477375   -1.46148112852646    0.88351812316972
C         3.76891189577664   -2.46104436046101    0.15697857015611
C         3.66872094447269   -2.06269940245114   -1.18199369571570
C         4.71537776429925   -0.34065954873516    0.00598526309135
C         4.24328274524818   -0.70891277420879   -1.26661260145295
C         4.14333046665921    0.84235522060826    0.60282875730002
C         3.67033309765734   -0.99923338242628    1.90323335882936
C         3.52015772150061    0.42262058562983    1.82703190639055
C         2.53739330069660   -2.69091864542618    0.84757184737803
C         2.46231081212830   -1.76337808527817    1.95770555126759
C         1.35910502381753   -2.91234235699908    0.12852774787747
C         2.42830327401527   -2.03901469807935   -1.85186716755624
C         1.27765687650680   -2.60457450981894   -1.27471063917838
C         3.34209132562060    0.09942321047300   -1.98782891388840
C         2.26364481624227   -0.73335219431112   -2.44951092022947
C         3.49296506858909    1.81211057369450   -0.20594790699806
C         3.07982117519650    1.43921227445271   -1.55964390254094
C         2.67210068837169    2.70756735352830    0.49763551725461
C         2.34390140359946    1.02704454004042    2.30238001573690
C         2.17337096857252    2.34554884644274    1.81287496254629
C         1.24275075166539   -1.16849177316037    2.34202193718143
C         1.16530717845193    0.24214588092093    2.62451014658400
C         0.16078438488847   -2.79991432528692    0.90243506101776
C         0.04789950960364   -1.86905646155667    1.97842117005056
C        -0.99009448338542   -3.17777466893555    0.19835055565709
C        -0.00902724667270   -2.22865837816564   -1.81946824339092
C        -1.10989576033224   -2.80435422878119   -1.19716538164008
C         0.98797974649688   -0.21143619852939   -2.73821700028069
C        -0.20556240789969   -1.00074463679443   -2.53919545280884
C         1.90970947481371    2.00149895473020   -2.06804257366946
C         0.90294286658865    1.19536535353216   -2.70665004775617
C         1.64202320122385    3.48345869788835   -0.14491405185425
C         1.22521654093033    3.09559984841573   -1.42784857319803
C         0.95087658508375    2.97611712541767    2.00381517100681
C         0.63683873867944    3.75561042041592    0.81689625034019
C        -0.13538710128366    0.86146625078306    2.63130293628095
C        -0.19941538402519    2.25674448278809    2.38068267262275
C        -1.24729162967299   -1.31897427847046    2.27638416824266
C        -1.36480507312877    0.10424520610880    2.46387667808659
C        -2.23217642655699   -3.03398337221766    0.79094893654388
C        -2.38317986972212   -2.06419683252155    1.84024782746086
C        -2.45336852141866   -2.37780476061276   -1.42337556602540
C        -3.19575189433593   -2.75729241958705   -0.25240542576875
C        -1.50883339732310   -0.38980612663368   -2.54334306752378
C        -2.68139505045989   -1.12878064047223   -2.07363105318075
C        -0.35461834541636    1.80942900057129   -2.54079631930591
C        -0.15799352218344    3.01025738519000   -1.73639578792347
C        -1.54228954238062    1.06147715182785   -2.54296329688878
C        -0.72348960045142    3.61266217563979    0.55165109720174
C        -1.29025436735680    2.79526811211790    1.61167431813128
C        -1.14508625416121    3.34529852943906   -0.78706423948354
C        -2.58630267819710    0.77401838147193    2.05748254790274
C        -2.47254160188068    2.09402573908622    1.44414347413633
C        -3.60708272956092   -1.41356485191624    1.60624270127392
C        -4.13367830408217   -1.88732370050514    0.29533837793807
C        -3.70449843074348   -0.01486669838349    1.65665147897419
C        -3.84646777317982   -0.40619774667835   -1.63778690204449
C        -4.53291130014068   -0.78679300426193   -0.43485612511124
C        -4.47786529978809    0.36441230449259    0.48953493029164
C        -2.66062196199614    1.72827065655692   -1.95125440087180
C        -2.39673277910213    2.73368551277152   -0.92066884318992
C        -3.16658582485243    2.37764910283900    0.21453734112033
C        -3.78990286923611    1.01880436560806   -1.59393936854268
C        -4.15537387124339    1.46823294670957   -0.24532393102468
