60
C60 Isomer 903 Symmetry C1
C         3.45285799026369   -2.28360701510502    0.91402816869164
C         3.90008076832393   -1.42504444469413   -0.15205872516707
C         3.09412172276540   -1.66340331046814   -1.29335133027745
C         2.33226980008157   -3.02777284636195    0.43277079461882
C         2.13616580201102   -2.70195300328247   -0.93016176848445
C         1.21415192684013   -2.82188778395872    1.30735725925880
C         2.94204407434294   -1.41768487519349    1.90281785379233
C         1.57298300184791   -1.75324445372689    2.19850561756474
C         3.99078301259729   -0.08661044131019    0.34306492097391
C         3.31416756994466   -0.05738142020180    1.62711877656684
C         3.76394266620516    0.95263944222444   -0.55652473317476
C         2.67546540153720   -0.57884614856243   -2.12702767657512
C         3.11064309696040    0.72466649835987   -1.81416804066567
C         1.40077957818555   -0.71104935058086   -2.75425704807330
C         0.82672254033098   -2.73419319663256   -1.45658827428739
C         0.55545042065223   -1.81622382905649   -2.50656460346086
C        -0.08871380929931   -2.93069926730365    0.82627131692194
C        -0.26470354914260   -3.10727398175150   -0.59621239654829
C        -1.10895095573678   -2.27340559446674    1.61441832935876
C         0.64256885074129   -0.75816527618469    2.51990673819883
C        -0.76171111590609   -1.10122532086941    2.37050349850783
C         2.41336625348756    0.96767504555430    1.96540656678505
C         1.09970072662860    0.62117722070784    2.51065225560866
C         3.23561891789701    2.15371727719734   -0.01843408102805
C         2.53143459306280    2.17480244025982    1.19820747464045
C         2.23735349369723    1.87434105347412   -2.05573961836875
C         2.42742515473593    2.80171654628918   -1.02410832741657
C         0.55447584747635    0.42905351963647   -3.02909290502494
C         0.93026469714096    1.72523634665400   -2.61708496951037
C        -0.79695667027378   -1.40027997559668   -2.78775203978336
C        -0.80814080536139    0.01359920744072   -3.03169249522501
C        -1.57846077317128   -2.91843699378003   -1.08382429236844
C        -1.85683290874556   -2.00132731832316   -2.17630792485128
C        -2.44549728909026   -2.44120598199443    1.15917427901237
C        -2.64830329195258   -2.82795195462202   -0.20482528873744
C        -3.45145601266705   -1.51492315510025    1.48885258741352
C        -1.75412138060120   -0.06701231077101    2.53202075956156
C        -3.10444693931321   -0.28645236615132    2.09544381915185
C         0.10087740893677    1.59888240293833    2.46782894377589
C        -1.29703387827738    1.27117883355271    2.50390759911697
C         1.41111584805738    3.06467434620050    1.01861342600657
C         1.32323341309435    3.42614167953129   -0.38235466955688
C         0.25266849236098    2.82351278857721    1.72111868385550
C        -0.12277619641717    2.55860116837257   -2.15518051598824
C         0.08593834721948    3.40913350176605   -1.00856875305383
C        -1.87096803675888    0.81208065839538   -2.54551529049289
C        -1.48343652681168    2.11092178402777   -2.12976738827054
C        -3.06675963614517   -1.25393357219744   -1.88079950038602
C        -3.65536882330484   -1.92188200505313   -0.77488812427347
C        -4.22781838749305   -1.21671523455145    0.27281748129048
C        -3.05370402014996    0.17161017646889   -1.96105512482045
C        -3.80031976577894    0.74113916525907    1.38687177852179
C        -4.33465881978356    0.17452192421299    0.16208191164399
C        -3.76331370194309    0.87578959815462   -0.93442462252708
C        -2.00037415458309    2.27546331993352    1.75797620029669
C        -1.02606943784898    3.13552797166816    1.14640991849790
C        -1.11341371041747    3.38259846969944   -0.21908216636535
C        -2.12977656025065    2.71010309664337   -0.99300489123131
C        -3.16662167587846    1.95049625534685    1.06813136467793
C        -3.18896258432328    2.08579068930525   -0.37886073831698
