76
C76 Isomer 14286 Symmetry C1
C        -4.30555221012707    0.57287207348620    1.84649645050149
C        -4.42900542727970    1.50199501939495    0.82304096918386
C        -4.68520185797326    0.79126266711016   -0.41626986939055
C        -4.41926903003768   -0.74663335331538    1.24385557392642
C        -4.54620892486358   -0.60309133263055   -0.17204972614395
C        -3.41912240846612   -1.54941694526446    1.77833629659405
C        -3.15618706417310    0.58024467047503    2.67374872407974
C        -2.67981025551855   -0.77407905414197    2.75706631586497
C        -2.20820498662806    1.61165223090155    2.57833904122334
C        -3.39770960278308    2.45063312687718    0.59155219401460
C        -2.33950125478712    2.57507297847880    1.50297021034533
C        -3.91662451749284    1.42503765910737   -1.40807650911136
C        -3.09467639087143    2.46179430245071   -0.81864570006140
C        -3.34418549629683    0.62791013698595   -2.38273954095146
C        -3.71395835481719   -1.40185009675303   -1.01265636027590
C        -3.28072409145114   -0.79592234398718   -2.21329903767737
C        -2.71688940168911   -2.48863302799818    0.97930862105264
C        -2.84326319042081   -2.40822421309945   -0.44364342913303
C        -1.58566403705335   -3.09977673767875    1.61343867768133
C        -1.36569092736529   -1.10016989443935    3.07391728939158
C        -0.92288718438128   -2.42457281396700    2.71064867622630
C        -0.89323424824112    1.30619953426809    3.08457481551119
C        -0.44392901062874   -0.02995928533635    3.33360570317700
C         0.07248360146296    2.29721611790516    2.92856810650588
C        -1.17025621216379    3.23547894014447    1.00785305273460
C        -0.12678045088339    3.34673196286333    1.94912668050511
C        -1.80782433017454    2.74382208642849   -1.30434218252000
C        -0.84721526310330    3.30192251140024   -0.38722591673008
C        -2.15659769331828    1.07066192021160   -3.03710646474225
C        -1.34638983335364    2.09923368879179   -2.51494884679292
C        -2.12857900622632   -1.25224026793827   -2.93041274384156
C        -1.56161337128981   -0.10847608614862   -3.58323498365877
C        -1.74436870161016   -2.92105278899410   -1.23398517282213
C        -1.31637117496172   -2.28948420347637   -2.46483543570984
C        -0.83392483078729   -3.97487462142291    0.80810815871144
C        -0.82578152565282   -3.75473955412911   -0.60877314047162
C         0.48115690468836   -4.35318933706433    1.18290045823757
C         0.42707337180157   -2.70724077669242    2.96660391655826
C         1.09523771777873   -3.73717146859660    2.25405471734880
C         0.96713051960178   -0.29992020571654    3.28128515933063
C         1.36321938688422   -1.62456156628105    3.11362418260849
C         1.47647567998869    2.04831079313206    3.03909633861423
C         1.94685441980997    0.72054511907806    2.97848894196368
C         1.11009318019199    3.82832128153140    1.55600836542697
C         2.12576633130809    3.08699618207125    2.31615923584405
C         0.52936130040332    3.45089711646526   -0.79946730153609
C         1.47742047451470    3.84922239198666    0.18691459545804
C         0.06432822925393    2.09542623963712   -2.84315477159388
C         1.01228673629703    2.73262645866513   -1.96244956473618
C        -0.25715775657364   -0.09807598691321   -3.96214988027909
C         0.53121827154144    1.08636814789212   -3.72287673500587
C         0.08276634256012   -2.30471264532495   -2.86042020216679
C         0.54040238873801   -1.27125711787094   -3.71207177890268
C         0.55902299651333   -3.82685040230153   -1.04710294115553
C         1.35600497340386   -4.21931303044669    0.02370496589280
C         1.06436349135991   -2.94021351151028   -2.02532027440685
C         2.38213031646605   -3.21880710271793    1.79816253796993
C         2.52958919557211   -1.93537387678396    2.31774449772684
C         2.49089029981372   -3.44022986509035    0.40325573640120
C         3.05257694312250    0.41008255150158    2.09157703073923
C         3.17113819321046   -0.92296138805451    1.56327209845598
C         3.16276544176401    2.80547896575515    1.46804129374362
C         2.82296834232015    3.35433221567058    0.15717189147633
C         3.59487270903515    1.45145654154254    1.30066485251045
C         2.36407254901932    2.22448049042683   -1.93309957446111
C         3.16751993401674    2.39704261095232   -0.77250880636228
C         3.75449453191353    1.24365494648143   -0.09198854672523
C         1.86379249440046    0.62037475120003   -3.65875427311765
C         1.86357802179260   -0.82050455818726   -3.61476876453907
C         2.72560234630174    1.08371727244962   -2.66988691161531
C         2.35216377590391   -2.33429010863776   -1.76127982933536
C         2.93336008758051   -2.39277765149412   -0.43784735205079
C         3.43817086203907   -1.18319604034802    0.17657712625679
C         3.67253948709686   -0.03596659545185   -0.66265525579595
C         2.71432801009249   -1.23397185706351   -2.56480106353158
C         3.33214016388177   -0.07929399045141   -2.01901461244327
