72
C72 Isomer 11173 Symmetry C1
C         4.24438461790803   -0.00032031620396   -0.50649536867725
C         3.85451351626146    0.67352401356935    0.68100552492825
C         3.44426997740545   -0.32600302461831    1.63516420161994
C         3.99010447945034   -1.39053265757205   -0.35141936335238
C         3.63644397125788   -1.61001832705872    1.01128647721183
C         3.14395859968209   -1.82779589791703   -1.40017231367660
C         3.72034668617964    0.39090977004314   -1.77131926276404
C         2.95059587187353   -0.71581310032960   -2.29647638327373
C         3.26229957043035    1.67197528884739   -1.88819575985208
C         3.23314808608099    1.94390500610481    0.60508387597603
C         3.16552703635733    2.51888795037652   -0.70382093571834
C         2.23799923416970    2.28241367685736    1.58627493268040
C         2.34669668930322   -0.09528612599430    2.47720500669136
C         1.85482777506741    1.26246684484549    2.54948252021795
C         1.48990672893407   -1.21559983379658    2.84705206103722
C         2.78144020461457   -2.64010328942543    1.27314198011121
C         1.80417061933754   -2.48760241373415    2.32480932894672
C         2.12753803380556   -2.78469404690194   -1.13805585559321
C         2.16054642519409   -3.35482164872593    0.16841437433797
C         0.87904394932072   -2.68525919986526   -1.84813481147299
C         1.71055019023067   -0.50760805627005   -2.90336921527428
C         0.72584337030355   -1.57696007774100   -2.78025209771100
C         2.11561695706839    1.91702315453332   -2.72412992062147
C         1.29010356142889    0.86216200421439   -3.16582879874759
C         2.17244082826639    3.45213377356525   -0.99475358612170
C         1.52738041632589    3.10565907121011   -2.25620727777227
C         1.27662802669689    3.31707469527682    1.26407394520056
C         1.18186718940213    3.79835002499604   -0.06715106784757
C         0.05906499688878    3.39898519929736    1.96939195918176
C         0.65865844151186    1.42291106936915    3.26699653325359
C        -0.13830017518229    2.57143833516970    3.08922572269419
C         0.10010539378741   -0.99060531743891    3.20097457746379
C        -0.24677203648189    0.32121066362571    3.51430987022661
C        -0.97373703831475   -1.87890219688812    2.78621796572184
C         0.77514964688512   -3.40211789339545    2.04365812835105
C         0.98688057072540   -3.89755842320209    0.68911306082898
C        -0.58228252723143   -3.09366956870377    2.18417169721553
C        -0.31100525957704   -3.29553743753388   -1.30049323956125
C        -0.22731013474378   -3.87351132147844   -0.00671808754653
C        -1.23512014839723   -3.57712304846305    0.98678908711080
C        -1.63217810435829   -2.87906154373049   -1.72321837694642
C        -0.54138628390056   -1.29157780565054   -3.26810017279599
C        -1.71908376864454   -1.99699838299780   -2.82192267536977
C        -0.10802800246824    1.16790012858510   -3.30462140022906
C        -0.93621600149738    0.06584188979715   -3.58069693755975
C         0.15238206781442    3.25116170905578   -2.08677780875923
C        -0.08066564477995    3.78886779214096   -0.76516129743205
C        -0.72558682970845    2.31200043210095   -2.66753369103515
C        -1.21447465291502    3.55065040702979    1.30814359008183
C        -1.28926913977648    3.54713299262735   -0.10442815407090
C        -1.52001048292251    2.19809459879916    3.16557830736155
C        -1.59221481002522    0.80444553090250    3.36835626832972
C        -2.18167325740402    2.81637677166658    2.07833007851947
C        -2.27543761187880   -1.34689293027659    2.43529121308071
C        -2.57955787031263    0.03541369116101    2.69907698194173
C        -2.41673279373750   -3.01733473035221    0.61111900050873
C        -2.69950752091446   -2.80548366770024   -0.78462968166061
C        -3.00808661942231   -1.98392256743376    1.40372175807392
C        -3.69305172004065   -1.78476200253212   -0.82978675248993
C        -3.85924153329740   -1.25991067356940    0.51044098963036
C        -2.81222285998808   -1.12209481460155   -2.95067873245821
C        -2.30922443977261    0.17077379401986   -3.37456716247502
C        -3.74501783137673   -0.91496132078109   -1.91992906315804
C        -2.05586831463597    2.23614909448027   -2.10903135222679
C        -2.33036408041309    2.81159506995907   -0.80371120227509
C        -2.87221166573532    1.17687632248972   -2.55919597478397
C        -3.83152179370107    0.51946603435337   -1.70247338541117
C        -3.15695619424504    2.09142904196799    1.41874021622322
C        -3.45125366529287    0.73992625491209    1.82621822631951
C        -4.04373908082952    0.09587393508029    0.70194546583107
C        -3.31138492067858    2.19102064863962   -0.00739331489346
C        -3.99173891536806    1.00141698121330   -0.42695444529451
