74
C74 Isomer 158 Symmetry C1
C         6.27134586995422    0.56274425675421    0.19516131028419
C         5.66184389954854    1.59739184481503   -0.47710289036748
C         4.94538763820847    1.09236416759192   -1.65026048831403
C         5.92693480128012   -0.66159112398043   -0.53523317928715
C         5.03797389814586   -0.32481571152040   -1.66226622549418
C         5.44219544534226   -1.54257186127351    0.41234395598078
C         5.62948973722490    0.50368689314668    1.52222170689770
C         5.22958288359960   -0.80855986911011    1.69403911242069
C         4.68215051145362    2.25088484301806    0.37512263918997
C         4.58856003858686    1.51745253681372    1.60279491529781
C         3.67920983621811    1.70148290390960   -1.65678442225329
C         3.52811391070289    2.44743854189344   -0.40507661450607
C         2.56272578011107    0.99575754681928   -2.13162770031071
C         3.86517834593476   -1.08292546665536   -1.91708003618064
C         2.66061414995729   -0.40273316972385   -2.36984931576479
C         4.29148259399776   -2.31793612306142    0.17724444403777
C         3.61638688001848   -2.24448133248500   -1.08292396297382
C         3.93972915590755   -1.15329933559753    2.15559318448105
C         3.47380447686541   -2.25690780545686    1.35517041393568
C         3.29339944088176    1.19202941359420    2.08773212740204
C         2.97281509578695   -0.16761493183164    2.47715764783370
C         2.27939882013475    2.44002434780472    0.21504270889405
C         2.17202595865779    1.90542479298802    1.52642886977166
C         1.27712893461020    1.56120676796308   -1.81464034917957
C         1.13015533489701    2.32745023346423   -0.64824631776748
C         0.09752300375943    0.97687668644003   -2.34534440667030
C         1.40143593770134   -1.10097365536285   -2.50343798681112
C         0.14945747658655   -0.39994320778839   -2.69251045326123
C         2.34026756718684   -2.80297655473612   -1.07830593659478
C         1.30009840625914   -2.39369916779397   -1.98819142129869
C         2.12920083781027   -2.61966580999677    1.33322377931520
C         1.67613525016019   -3.17894806515047    0.12267910196610
C         1.60281645779013   -0.59379338784703    2.56542213881223
C         1.18111325475307   -1.88676786197031    2.12703742936192
C         0.85533833208436    1.62164220999315    1.97374897035828
C         0.57759831987749    0.40468936806781    2.64182380094607
C        -0.15253979579785    2.52165640589473   -0.07200539251752
C        -0.24656718750311    2.28338622661611    1.33125382110065
C        -1.14383609008513    1.62132319860171   -2.06621008824703
C        -1.31393658005616    2.40288097375845   -0.87715219440825
C        -2.28655211567788    1.01073285786493   -2.61722324545909
C        -1.09569917003146   -1.11961362738305   -2.64663120635493
C        -2.28197770224331   -0.40606104385281   -2.79155137645460
C         0.04417288219724   -2.86122866650580   -1.48101241148966
C         0.28413593061384   -3.24997181207859   -0.13696861449737
C        -1.18041660271732   -2.31367569884975   -1.85509636522683
C        -0.21234469090175   -2.17328354943102    1.97222631316682
C        -0.66851250339578   -2.92098190722125    0.82961694593675
C        -0.77379477824833    0.02165247597097    2.87664895375199
C        -1.16335138609526   -1.33270324708892    2.62078142839766
C        -1.51648640205773    2.08919095704405    1.86181710742365
C        -1.77433042998790    1.00592398079303    2.74066858828913
C        -2.63213738196719    2.52070707682680   -0.27383915761096
C        -2.71911358881713    2.36219703828204    1.12449652004502
C        -3.58185266483903    1.39749693271844   -2.23540021315409
C        -3.78809683399800    2.13850115670317   -1.02704124833918
C        -3.56572438451719   -0.90790980929502   -2.35015366078877
C        -4.41928812656001    0.23251377598872   -2.23331857821753
C        -2.32393307665347   -2.52144428907617   -1.00152206275511
C        -2.01892634647278   -2.81375824156420    0.36617710349078
C        -3.59887385226822   -1.92439424940562   -1.35673344712044
C        -2.53159263147322   -1.61505589846287    2.44879827514830
C        -2.96126825339287   -2.45202203674734    1.35474023366167
C        -3.17724191806574    0.70859722765994    2.66330111808641
C        -3.79909356709776    1.64124405211238    1.75401595874925
C        -3.55977899965343   -0.63662389920512    2.66309612744972
C        -4.92312926886093    1.58985040107296   -0.38892405378678
C        -5.30461747777229    0.37282790184297   -1.14930904398096
C        -4.91331993844101    1.25960908081625    0.98594253751274
C        -4.62338196019509   -1.82775237377671   -0.34784096293255
C        -4.26336962592557   -2.11152968614317    0.99114136615712
C        -4.68835064455007   -1.01255848305657    1.86370571025282
C        -5.48421870531711   -0.67366398097787   -0.26972065362359
C        -5.37427241316905   -0.10740213418096    1.09111931819320
