68
C68 Isomer 3303 Symmetry C1
C         4.81939836379277   -0.71781920130898   -0.48686277628279
C         4.74222835182096    0.63159747490271   -0.23766819084246
C         3.99510098729089    1.26993357366531   -1.33461870146660
C         4.14549727191475   -0.94524286450316   -1.78008420347719
C         3.49892711152174    0.26768463137287   -2.20536694054871
C         3.40080495647314   -2.09119502990366   -1.65451824806982
C         4.29682782751617   -1.66715397831822    0.46737910021213
C         3.52112236085335   -2.59711844973131   -0.27732083070190
C         3.73849699526380   -1.17473653379696    1.66278650894014
C         4.22906725753774    1.15118941206701    0.98815343348507
C         3.77923854978578    0.24669217667510    1.95452337804016
C         3.16523684850514    2.24552860988109   -0.80081510435138
C         3.38334024206435    2.28053026000175    0.64249096258302
C         1.87183499822945    2.43855395661755   -1.34334401382340
C         2.12005772414410    0.28292083173192   -2.55255724181224
C         1.34999254922207    1.46637199182719   -2.26420029220156
C         2.03456570112659   -2.11501037574608   -2.03708185138803
C         1.38503726493314   -0.96449471747699   -2.56002132764394
C         2.24535097576773   -2.98715832059651    0.12234171982227
C         1.36753975337967   -2.87522308497869   -1.02265682939604
C         2.46530035210808   -1.66203503162592    2.12152794754762
C         1.68711210883139   -2.56577294383695    1.36466388127292
C         2.59487139617926    0.57028497239963    2.70811710898226
C         1.78748759774503   -0.60031526417317    2.83256376714071
C         2.33627712182962    2.63572152866619    1.45408317506987
C         1.94641986493413    1.78459602321322    2.54547850630940
C         0.94754759298731    3.17039643168761   -0.51477728155168
C         1.13693560326475    3.19218519231884    0.88823772711415
C        -0.36287535090694    3.29195701762280   -0.95047194154054
C        -0.06490211826405    1.45730045424904   -2.54643790030037
C        -0.81380684344010    2.57428949918873   -2.11629037085867
C        -0.04477154389028   -0.97645019951026   -2.53881909783199
C        -0.79323890169714    0.22526882207601   -2.76257198312531
C         0.00551327784892   -2.82245420513457   -0.88122422330627
C        -0.70827972781220   -2.07919827916384   -1.89257695203566
C         0.26185984829404   -2.56901587436444    1.50917551803119
C        -0.58544909583016   -2.96606136810500    0.42197968162885
C         0.39705681781692   -0.53808143990451    2.92882679907744
C        -0.34307681272231   -1.68711920418478    2.46679346925428
C         0.52600568056676    1.86499528438780    2.65310083554649
C         0.03905767287626    2.84661792719946    1.72567328144321
C        -0.27508455762512    0.74727603252813    2.90892922863200
C        -1.46799561129187    3.36700574980984   -0.03382776680992
C        -1.29515468437347    2.85982139980786    1.27739673192064
C        -2.21519137172976    2.51943513827127   -2.03847134261267
C        -2.61852846118815    3.01221610038937   -0.75440017625917
C        -2.23521737202993    0.18448364336561   -2.67161671844286
C        -2.96032895160783    1.35188246370534   -2.30017153804659
C        -2.08242317990000   -2.12166281742014   -1.79991074827275
C        -2.88432838227950   -1.03996734437606   -2.32548278195663
C        -2.00563083989762   -2.93551377577058    0.52330319880664
C        -2.75186758153831   -2.73415356900840   -0.68601090163508
C        -1.72291738555986   -1.62089302415690    2.53603595824545
C        -2.57779521169027   -2.43985845789952    1.72712913311502
C        -1.68387297969231    0.85055909511775    2.62113145859926
C        -2.24302139291014    1.90356433055912    1.80598162730880
C        -2.40791356635222   -0.35545615899048    2.76002214300748
C        -3.62450941416096    2.17219819362314   -0.23098447794052
C        -4.01931738836702    1.29436556940195   -1.31531761357844
C        -3.48737867745875    1.66860157775909    1.09563602288422
C        -4.11310427592757   -1.08495829721711   -1.66322613025973
C        -4.04244703103225   -2.15228210147901   -0.65632576368097
C        -4.62831750390641    0.08258139085621   -1.02286851464921
C        -3.85437182732600   -1.81373530130696    1.71840360484539
C        -3.70468942619167   -0.48732957981692    2.27868373972935
C        -4.24474782198462    0.47806229342413    1.36531547586673
C        -4.58383693586965   -1.66473138566068    0.53417164316478
C        -4.89871879997135   -0.23447087090390    0.33986400907413
