72
C72 Isomer 9789 Symmetry C1
C         3.35941145870069   -2.70138049623376    1.04250900817087
C         3.41742742643935   -2.94861378113771   -0.31067801568485
C         2.22481459680856   -3.70008675087158   -0.68814099592023
C         2.14118176123789   -3.33508198903256    1.55384507510609
C         1.40715123056721   -3.88759290000815    0.47730149270822
C         1.52036160751242   -2.43329101363198    2.41048956275756
C         3.42492483183972   -1.37028394905336    1.54993682446339
C         2.34388893247323   -1.22540820673959    2.45798328299344
C         3.80222987150785   -0.28116823168969    0.72188943020826
C         3.59076418370399   -1.84614127227699   -1.19727922690237
C         3.97016834380266   -0.58137109598299   -0.68291757611512
C         1.69439739129638   -3.04209068211670   -1.79307918268150
C         2.54277243650559   -1.92738848112684   -2.16127348563754
C         0.30274512737259   -2.95836614144580   -1.98157189847153
C         0.01201127907193   -3.68975058477054    0.38721769805076
C        -0.52275540152359   -3.52254463099734   -0.94532651688500
C         0.10713907564661   -2.36785952861308    2.44575173902984
C        -0.69229466133585   -3.03990146723995    1.46301953482082
C        -0.39374399498137   -1.18246069762523    3.02294172624967
C         1.76290963371474    0.02682013820573    2.70332746179574
C         0.43259513480216   -0.01622247734168    3.15446586775193
C         3.37493151285015    1.04857138793548    1.12363108547774
C         2.28943850715060    1.21890608542371    2.06987267214723
C         3.62599345441979    2.09723455296597    0.19503224102593
C         3.75793932765375    0.46970443186126   -1.61044936913726
C         3.84176640305603    1.78482350834329   -1.18071862121150
C         1.97323564278306   -0.77336380597614   -2.74513085706438
C         2.71524880347816    0.39720460940454   -2.60820264942695
C        -0.21059903639736   -1.87536029596489   -2.77887996945914
C         0.55831290213653   -0.67473432125789   -2.99172911647736
C        -1.59495883162720   -1.77497337755088   -2.89644849897211
C        -1.89814023386994   -3.32474341001641   -1.04547860705063
C        -2.41542444987254   -2.66458387678411   -2.16771924085775
C        -2.07832728961790   -2.61945346819059    1.28670422699089
C        -2.71681910140219   -2.95935135505918    0.09221196829592
C        -1.72822623268104   -0.77193139767369    2.87025009849271
C        -2.62805273158970   -1.49648200325358    2.05082300547540
C        -0.41753460818771    1.11993391670433    3.08713205236308
C        -1.76158933740499    0.66160635449669    2.97809400845670
C         1.41984366394615    2.36704658347608    2.01668725224113
C         0.04554357971310    2.30109905135728    2.48180405540716
C         2.80723437540198    3.25181307847299    0.20084276458538
C         1.70686579973381    3.35979300038791    1.03244198300561
C         2.92421872813104    2.58076332080024   -1.99715803340185
C         2.09862271084345    1.68520950275380   -2.73810778730714
C         2.34622200401163    3.51880930457019   -1.18167149314546
C        -0.09013932782491    0.59868407763733   -2.96270369461540
C         0.68937405638299    1.80354675762028   -2.72954760550299
C        -2.26920970336810   -0.50764030171852   -2.96236848509077
C        -1.53385818141355    0.67345950303908   -2.82401129965284
C        -3.62988377293646   -1.98394024090184   -1.80159395952788
C        -3.84161500148262   -2.19689193498249   -0.41589002194563
C        -3.57630716813426   -0.68290535178106   -2.35771429380755
C        -3.74642680924839   -0.78316815428074    1.58116933797771
C        -4.36257698682247   -1.13854336982956    0.32627458084752
C        -2.75375864206521    1.40172507703758    2.31954199796551
C        -3.79905054598613    0.66419563858009    1.69955557058294
C        -0.97850987503595    3.06577792396363    1.84546130016181
C        -2.31661815573288    2.61947602330281    1.72829058159213
C         0.62052071920140    3.88337067464403    0.21289259223591
C         0.95067920447703    3.70229193887047   -1.17743566631305
C         0.09249326155277    2.89870351274698   -1.98785214875852
C        -0.66005616616597    3.72459206363317    0.60894802593095
C        -2.15374556921999    1.79543736519060   -2.12711223233174
C        -2.76988481912299    2.94031350840789    0.38563439743136
C        -1.28952792890502    2.82140281998626   -1.58962391253227
C        -1.66739082269120    3.41502315351361   -0.36512831106104
C        -4.13185291459949    0.36019652052886   -1.62829785911959
C        -4.68614188422784    0.06312853378255   -0.35571055662073
C        -4.38187231180052    1.16273895432726    0.51832492218789
C        -3.42699575791415    1.62278528791184   -1.55077304256395
C        -3.71649072473754    2.16288288127329   -0.24157519373158
