68
C68 Isomer 1268 Symmetry C1
C         4.84428829891940   -1.61840151470510   -0.04115626294001
C         4.53347083762418   -1.14562826998789    1.28345842345275
C         4.58991503254525    0.25166712777547    1.24373984483156
C         4.82985733813969   -0.46707666124599   -0.94360208328919
C         4.72849862440180    0.67448288253212   -0.17126612344622
C         3.80853848668529   -0.65479227450343   -1.94187449149232
C         3.76560366450514   -2.41515537589165   -0.43584027843006
C         3.20377383672958   -1.92485695682490   -1.66494057391967
C         3.29334388878539   -1.76029099476764    1.72263066834971
C         2.83839811437238   -2.60781042892842    0.65024874100160
C         2.33370706882101   -1.02124443155277    2.42995823888755
C         3.57124985489488    1.02362190440364    1.81024775996240
C         2.53822088430048    0.40768353485141    2.57649430990023
C         3.74648850775211    1.68331103657379   -0.42223121365241
C         3.17851551162141    2.02531361159173    0.84319171248158
C         2.97511507326295    0.43195287017177   -2.33849481618116
C         2.89792577869389    1.64797735806550   -1.55638509340518
C         1.79936774290957    0.02442209806024   -2.99076965940690
C         1.85496223346792   -2.18927011995544   -1.94469637897549
C         1.29320393210609   -1.28828769533799   -2.87108806483997
C         1.47877105203288   -2.80328194855529    0.39361280820223
C         0.97811593364836   -2.78511051564649   -0.96745241681483
C         0.97721480122398   -1.51500375784528    2.41727632773003
C         0.55795614135179   -2.46397817964272    1.43974594956486
C        -0.04783334184557   -0.70318684193059    3.01815544085084
C         1.42677871393946    1.22903220362564    2.79908399484957
C         0.15070141762652    0.68678793226891    3.15891863219939
C         1.95776177547929    2.69770400169245    0.92375283416435
C         1.20291699388258    2.44026174645885    2.09207644116526
C         1.66079445892165    2.41340051804995   -1.51956744867946
C         1.27970760615556    3.06416636873590   -0.29365594323179
C         0.67548559643304    0.89566280932141   -3.17973414325217
C         0.61537896064160    2.12652930238641   -2.48319577609601
C        -0.10706973317932   -1.25028688472126   -3.07882133877288
C        -0.48166017083994    0.10370373681033   -3.39140312589781
C        -0.42282415552020   -2.79551045530363   -1.19637260058943
C        -0.94462476464512   -2.10720307662250   -2.36544373221764
C        -0.83155588654710   -2.78091679125015    1.23703186964291
C        -1.32291958442888   -3.06998708316607   -0.09176589934074
C        -1.37593142302679   -1.10884163749806    2.92419207344949
C        -1.73715789364777   -2.29547671917515    2.20963341504549
C        -2.44783245159123   -0.14847914499062    2.79250957282991
C        -0.87078526956516    1.61683667829636    2.82152140621331
C        -0.20500890779852    2.69251145098988    2.13714602117585
C        -2.17012742421961    1.20324695181964    2.46439969641404
C        -0.05549103492137    3.52936576942239   -0.13502694796700
C        -0.82589249536426    3.28979508211737    1.07829797100153
C        -0.69594535095232    2.64364658445926   -2.30443626246528
C        -0.96446154501444    3.44587946990515   -1.18514515035234
C        -1.77381762956108    0.56597977136753   -3.06800034367565
C        -1.89040310310338    1.86498920594830   -2.55188209474167
C        -2.32615701071074   -1.76280688475919   -2.41331850397101
C        -2.73488668661878   -0.38412122800455   -2.65946395363186
C        -2.72770253238716   -2.98529488511133   -0.33301376752618
C        -3.20093713158875   -2.34320276695062   -1.51901170655718
C        -3.11720194094996   -2.17696628813905    1.91368450685570
C        -3.52460241689467   -0.78777063663495    2.18298294701985
C        -3.61952201482332   -2.55198962923237    0.69678300367183
C        -3.76907708050254   -0.06540876382615   -1.73810137517133
C        -4.16132576461067   -1.30227711473235   -1.13942805483712
C        -4.18121596584678   -0.25801895148788    1.05367547954247
C        -4.41056287326838   -1.39216957553269    0.19941278934724
C        -2.85574322844447    1.80118435523087    1.33258801960902
C        -2.17854535073130    2.89136257726616    0.72005564702322
C        -2.27472482417317    3.08475239815705   -0.66251352948358
C        -2.84390146524990    2.11726549696432   -1.49875337162103
C        -3.75891228014070    1.00590435193357    0.51317115919487
C        -3.67666742916175    1.11170329720675   -0.93682517875806
