80
C80 Isomer 17745 Symmetry C1
C         4.72158293177317    2.37272342319730   -0.40664097055859
C         5.06343010373832    1.61974428317356    0.71119152461294
C         5.29366150026688    0.24826547934034    0.28432054121681
C         4.66570371971982    1.47924325670275   -1.55661562303872
C         5.06469547582247    0.17909031375737   -1.12657260660579
C         3.42238669448960    1.66843277944902   -2.18241231446837
C         3.54553022454497    3.17551730033434   -0.40507177086202
C         2.74793707726171    2.77634890794355   -1.54260088665053
C         2.89012025001600    3.37738927281341    0.80291961150296
C         4.20654241509676    1.58819224518544    1.85595112267915
C         3.19704306944853    2.53979879749280    1.94516201206234
C         4.57693709223098   -0.58954388869108    1.14780073600855
C         3.87625791420854    0.21707379916819    2.13336941858077
C         3.97259003589294   -1.77580650062446    0.66912753743955
C         4.34992595911171   -0.90738307528948   -1.60870152374995
C         4.01698233172313   -1.98382640576701   -0.72847761300542
C         2.65102914302203    0.56182719029964   -2.65457520249400
C         3.20970322029560   -0.71931849864604   -2.48028094155619
C         1.22376838226664    0.67327238862227   -2.74149376168758
C         1.35802517302305    2.83742215751119   -1.53162487044780
C         0.59836995509070    1.88271655352426   -2.30293539834595
C         1.47870325796791    3.56754756806525    0.78118162372834
C         0.70716204012716    3.41045563525048   -0.37972108559776
C         1.96364076043946    2.18471177525580    2.56112908315568
C         0.93778292474502    3.00722594364184    1.97120758333665
C         2.61057585033599   -0.16990449178177    2.60576840674179
C         1.64118868979128    0.85960097594251    2.90877659090650
C         2.88127884668628   -2.33541661049014    1.43269328325666
C         2.14304671088607   -1.51696949654252    2.36107029838095
C         2.21729654798900   -3.42959514633623    0.83122283734440
C         2.94232278901157   -2.69734338618869   -1.35744461147664
C         2.36317894632799   -1.85908141592958   -2.36577326140922
C         2.15789391801657   -3.52476209778720   -0.61690316869155
C         0.40245672533868   -0.50704473513843   -2.81373988705268
C         0.96817329428962   -1.79474905464947   -2.52169275957225
C        -1.01197999443194   -0.37983072056784   -2.85476253039696
C        -0.81247143292148    1.99627654654163   -2.30211978583851
C        -1.59535734602346    0.93489754023896   -2.87400089715361
C        -0.70000733020054    3.29478065389731   -0.22692639333854
C        -1.45497307498100    2.88444728339056   -1.37137071735313
C        -0.39853348851724    2.72468850527953    2.10054933000720
C        -1.29360219747814    3.14097547217241    1.05572698211936
C         0.24904077907091    0.54506575027359    3.09458568400685
C        -0.73224354372075    1.58747780651225    2.91492997186069
C         0.77347419871205   -1.83038773529722    2.67928210430537
C        -0.18302705237736   -0.81083613657087    3.04965551869645
C         0.96478084316687   -3.82225241971112    1.29015688228584
C         0.22178809208880   -3.03903906105086    2.18906822381265
C         0.78623738176029   -3.72592945485674   -1.01129637271445
C         0.15606784800944   -2.81724020138134   -1.89886118342003
C         0.10640691145991   -4.12736830357342    0.15184432505295
C        -1.82851321142321   -1.48218829872500   -2.43486835232383
C        -1.24363176885468   -2.57496699833347   -1.72550096191300
C        -3.21420041712425   -1.27428756110763   -2.24092339326201
C        -2.99780180036694    1.06467178858108   -2.86932787995207
C        -3.81452704946888   -0.08306137987609   -2.65740965750071
C        -2.85431507235663    2.86987062334490   -1.24585381586007
C        -3.61900728602133    2.11811157756407   -2.14526605623054
C        -2.69184953568341    2.85941764001569    1.19394929266178
C        -3.50781836615890    2.86376009535888    0.04832201629478
C        -2.07953618354448    1.30643747959274    3.02621343440055
C        -3.09194887243686    2.05149561328737    2.29335621272708
C        -1.59819375725513   -1.08758046183963    2.96304725841838
C        -2.51247408938510   -0.04136071159175    3.15123901226625
C        -1.15431477001320   -3.10929642006517    1.76317655152236
C        -1.17942013094396   -3.68120384430169    0.43817252926766
C        -1.93508104589778   -3.03545790868385   -0.55553585544684
C        -2.08830059559423   -2.16958409024227    2.14479367860319
C        -3.88966073806393   -1.71823414552617   -1.04143478978757
C        -3.13311722520633   -2.39623850211705   -0.08577124225863
C        -3.26319810962802   -2.03038507655524    1.30181285517020
C        -4.89001405488132    0.24899232862559   -1.72874414262283
C        -4.76957337001924    1.59478766546452   -1.41572846768347
C        -4.68270092405938    2.03062964206825   -0.05972742395818
C        -4.88907073575059   -0.73683064121357   -0.69506108456002
C        -4.20639811031929    1.21324057392916    2.15829695127353
C        -3.82434207461744   -0.10200442630492    2.62114499807038
C        -4.19378443292691   -1.02814669222833    1.62586491575125
C        -4.94224361005935    1.09061648325591    0.95135323307376
C        -4.98548722655173   -0.32778512048237    0.63033508824342
