80
C80 Isomer 7034 Symmetry C1
C        -5.35736420255486    1.54231280550336   -0.54846537541370
C        -5.37765301463092    0.11209364926570   -0.55613960148032
C        -4.87878806637945   -0.32576771604757    0.69382256429125
C        -4.83879379045828    1.99200602465096    0.71512903657594
C        -4.47670669541893    0.84895022724687    1.46311801780215
C        -3.82643687963021    2.96426649951728    0.43703746708516
C        -4.42657784289212    1.94738526030802   -1.53453549208912
C        -3.49233129899320    2.86726583635163   -0.97040776750103
C        -4.68507386373745   -0.32591328193454   -1.73377868438404
C        -3.95850439881402    0.80769192202595   -2.27358902455841
C        -4.05365516854667   -1.53861734633721   -1.65752731331464
C        -4.12637351596679   -1.50999333748601    0.79268988593750
C        -3.97206200380338   -2.24439305760492   -0.41226238445007
C        -3.06196384690708   -1.59751291750853    1.78201710784782
C        -3.26468223810608    0.81160740083309    2.22888789855573
C        -2.52050095882457   -0.41439718892744    2.40610428713697
C        -2.78976705632360    3.05933017502695    1.33636436901145
C        -2.54842189703699    2.01776066714159    2.31058928687332
C        -1.52612841004505    3.49249548185327    0.86641318451138
C        -2.15393164997026    2.82595860622748   -1.38739126716630
C        -1.17276084635564    3.37562579538578   -0.48982425501592
C        -2.59918620534987    0.69096206466473   -2.60424896338602
C        -1.69914234022129    1.78664967174885   -2.28231766130634
C        -2.80288957886056   -1.74241837752891   -2.33599588329707
C        -2.03401079700351   -0.64247949771791   -2.74762769673730
C        -2.90224056175987   -3.17307761226458   -0.55713705864836
C        -2.17331046984780   -2.88152186023452   -1.76413187774740
C        -2.23437778516579   -2.71628156315464    1.71842791368632
C        -2.18974948887080   -3.55526632818757    0.55122650258363
C        -0.92510151609720   -2.74275229953836    2.28224659573442
C        -1.12074463617506   -0.38478851021112    2.77400016044944
C        -0.30272322900893   -1.56474433886657    2.71970711903059
C        -1.15551517873770    2.02322626933191    2.60522513340819
C        -0.55841163095018    3.07070315203590    1.83329916046223
C        -0.41280063415640    0.86480024324698    2.84487948115521
C         0.77527377347568    3.13145383268270    1.57511537073287
C         0.20685990803956    3.30825367506281   -0.80661087297449
C         1.16072043358620    3.56242607251035    0.24876748872593
C        -0.30949432471114    1.62397374438007   -2.49438620883643
C         0.64343217588185    2.56449338992801   -1.93333457383646
C        -0.62554243136373   -0.84095947442314   -2.85960426561547
C         0.19420831025195    0.34517755319290   -2.94986345359115
C        -0.80254662762346   -3.10399561687053   -1.86213725792999
C        -0.02520454880301   -2.10621828019573   -2.55024648147027
C        -0.86761458658273   -4.06756313780227    0.39142705803803
C        -0.17448782322546   -3.76174669885696    1.60797495257888
C        -0.19104507775846   -3.93742147709991   -0.84559990915392
C         1.19941596371811   -3.73092924783798    1.63400579553966
C         1.15335596775182   -1.48760522584847    2.65954052677035
C         1.87664689592868   -2.59894895393342    2.20690730924128
C         1.03586842614246    0.95914700626479    2.72660415055525
C         1.61911247781904    2.20864380385780    2.29532890408586
C         1.83038837536403   -0.20987304862712    2.63668407717123
C         2.97603166361720    2.31351762004557    2.03283438366123
C         2.50544374035701    3.59282630780693   -0.03717496541589
C         3.43616583031634    3.22757790805464    1.00064451301295
C         2.06277443901775    2.42070392246676   -2.14755971206894
C         2.99339616708467    3.08979000159579   -1.30221201718893
C         1.56852409614182    0.18255832704137   -3.05166668827872
C         2.50728220641255    1.22258747057147   -2.74148241591991
C         1.40882165861979   -2.21279009745911   -2.48215765115503
C         2.18652090655024   -1.08225852423829   -2.81052349805333
C         1.21786003738336   -3.99626117872865   -0.78911954174366
C         1.87956052104170   -4.10179802708250    0.44311840426865
C         2.02806605077697   -3.16830963936262   -1.65783752471307
C         3.09524432100834   -2.41631346289225    1.43822978387324
C         3.08496444747622   -3.32050391221778    0.36517207455714
C         3.22271854731979   -2.81380074280972   -0.95184757157757
C         3.19219008273771   -0.11518231680545    2.13235547437453
C         3.78322192281770    1.14025388755395    1.96517261396885
C         3.71515937593848   -1.17138416612809    1.30347302338638
C         4.55836090508557    2.67593239390897    0.38598201610702
C         4.27481868847113    2.53480246516782   -1.03438414170974
C         4.75382540765936    1.35831255184872    0.92131502497251
C         3.70561442832650    0.58750467480854   -2.31025192338863
C         3.46245882830910   -0.82767849922917   -2.24309311916838
C         3.88502075836540   -1.58578019983047   -1.13238274968702
C         4.34272327140262   -0.86163000217081    0.03976324722833
C         4.54077629369886    1.18957283773120   -1.38136195278952
C         4.82578981377291    0.44427596515332   -0.14638256222633
