58
C58 Isomer 1018 Symmetry C1
C         3.98162369617707   -1.15872503611676    0.47417822195615
C         4.10822078222033   -0.19987681356248   -0.53187045396832
C         3.49354872799140   -0.74642121612360   -1.73175825018782
C         3.19100747144101   -2.27350254119733   -0.06351505325234
C         2.85004346968557   -1.97872126633778   -1.40424747325585
C         2.16301149933049   -2.59443513125712    0.85941486194893
C         3.39755975432141   -0.79666594572026    1.70298886811340
C         2.32733382141805   -1.75827502761768    1.98807657074777
C         2.89577379659794    0.48903710791224    1.92436907448709
C         3.62055748175439    1.12460687363876   -0.35113542609553
C         3.07442634284934    1.49590046653857    0.92205554185500
C         2.77631566384004    0.28816398564385   -2.34918811826279
C         2.88160900064262    1.48813245805823   -1.54043155356846
C         1.55681235841052   -0.02237184827985   -2.94397005666829
C         1.52757725495410   -2.25074466483718   -1.87026735534922
C         0.98629168902696   -1.32401692127695   -2.79157220400265
C         0.84624722204919   -2.91959363770892    0.43223238949088
C         0.58802263754269   -2.91523151358716   -0.98245147674084
C        -0.23384001139260   -2.60749658419726    1.35009832497894
C         1.23422105325954   -1.05930426360788    2.50288764600773
C         1.56729369495712    0.33588944404645    2.53479346970202
C        -0.08559022318213   -1.49618325884208    2.26072198462400
C         0.56492977295083    1.29121530784435    2.43868318884705
C         2.12036276553873    2.51722201100064    0.90711304873760
C         0.96858649373829    2.52324230107400    1.82019769757282
C         1.84856199321885    2.43634958932709   -1.53380221010695
C         1.69479049348859    3.13787083356823   -0.29906789347859
C         0.49870514265237    0.94848667258066   -2.97387263448447
C         0.63918680943375    2.20245483931470   -2.34121041510482
C        -0.43493698244069   -1.15089755542317   -2.94716808509173
C        -0.74557774051916    0.24792241193123   -3.02005887456854
C        -0.77073227344630   -2.95603760500788   -1.38908057602556
C        -1.31169102373639   -2.01740057484072   -2.35846513495333
C        -1.54655581874711   -2.91688400349844    0.92290471592358
C        -1.78180910483922   -3.17560759431586   -0.45823853486857
C        -2.64771781144700   -2.18883482949197    1.41648804426776
C        -1.14013019028531   -0.52689321597862    2.44167284496860
C        -0.83819349527067    0.88632911349214    2.42272879493572
C        -2.45543091858408   -0.96059527436673    2.09140916712377
C        -1.80298516287095    1.80816658634088    1.86213885054228
C         0.02541022192174    3.40115538899682    1.32857198239583
C         0.46688545169280    3.79181204172789   -0.00563494245069
C        -1.35802824620842    3.02261447692378    1.26677522769925
C        -0.59350764844253    2.80011854679883   -1.97180357328446
C        -0.62332912629104    3.67351473631580   -0.84079850124217
C        -1.79421474149545    3.34899384933916   -0.03906624498093
C        -1.94271513450944    0.74659238745931   -2.45162614403824
C        -1.83630800995162    2.07515551204735   -1.98282629234573
C        -2.58475868932316    2.45946566916349   -0.80054984969005
C        -2.62448098781128   -1.57660762369221   -1.92845474168089
C        -2.98324980591517   -2.44568746857602   -0.86477230049502
C        -3.57949743302035   -1.95041522138353    0.29337525929542
C        -2.92358081235856   -0.17932209760010   -1.87872027967487
C        -3.38139118515107   -0.03138750278888    1.53909948717869
C        -2.99683370492453    1.27500295512616    1.27461877570164
C        -3.32759435046886    1.52367625923524   -0.12367384952340
C        -3.96155103427729   -0.61587144107516    0.32945108550187
C        -3.67268489619538    0.26791585286378   -0.74374662516267
