68
C68 Isomer 1584 Symmetry C1
C         4.78859847941621    0.72513444876086    1.01130069952918
C         4.39792490993737    1.88401134221113    0.24066692997998
C         4.29646800137305    1.47945634653771   -1.09701087088441
C         4.75351368145754   -0.43158943328918    0.14014730585611
C         4.54654311738805    0.03000981568861   -1.16261063738155
C         3.82514622285708   -1.40149688521311    0.67386068858007
C         3.77100029187013    0.52763239472190    1.96319658780785
C         3.24306349492976   -0.79898507727310    1.84908691492808
C         3.22027838047642    2.44735928178762    0.82730481241975
C         2.83014412839208    1.60471109593725    1.93743486145463
C         2.17511641185259    2.92095048037285    0.02210779803690
C         3.13454984839783    1.74010820014426   -1.86233513550805
C         2.11132240134047    2.56851636817878   -1.37982252585278
C         3.54427185110498   -0.54549826049611   -1.97116839292224
C         2.72959187990277    0.51063702748329   -2.50357036765879
C         2.99864253058830   -2.15906766050840   -0.17760736563419
C         2.91884099987078   -1.76219121882640   -1.56502917558717
C         1.84561559751405   -2.79086600851473    0.42071867543513
C         1.91769668301062   -1.04650870351885    2.18478952263177
C         1.37749590484681   -2.26520960880893    1.65804526268969
C         1.47880076725282    1.37155131411204    2.24968810196526
C         1.02071828634523    0.04505929272520    2.52560765226574
C         0.93641509368836    3.14864104014059    0.69804616112172
C         0.52078194892837    2.34602094975062    1.80547701504364
C        -0.05129487711530    3.73953806471791   -0.10932814243690
C         0.80769583721388    2.47464096911902   -2.00570719720257
C        -0.16887140649762    3.31036203283959   -1.48942695626128
C         1.39368377577404    0.29036589546088   -2.89049556051736
C         0.38341292734093    1.29850247755358   -2.72345020427522
C         1.72935583022097   -2.05641248131952   -2.23536189270635
C         1.00096735056214   -1.05729339840978   -2.94034056249977
C         0.88125595463749   -3.48230841259160   -0.41442484666708
C         0.79600187324588   -3.02572840672893   -1.75109672122649
C        -0.32445261679119   -3.97142603613016    0.16497254684951
C         0.08241977710845   -2.58276958773020    2.10880183798008
C        -0.65279950909153   -3.59249552194065    1.50810676111600
C        -0.38604769905617   -0.19073401656052    2.59645381987525
C        -0.81595399635979   -1.52889558141047    2.55951612516140
C        -0.87921943979564    2.16791570826329    2.06422079569035
C        -1.37048145808038    0.84951478944824    2.37618621673415
C        -1.32330614152178    3.93494957508662    0.39204732659536
C        -1.77517011001681    3.12806396751909    1.49298883022469
C        -1.56039361174828    3.16820292645474   -1.78767557070005
C        -2.26365402929943    3.78774287226859   -0.70467527726802
C        -1.01277575298738    0.95649729845128   -2.75878499959844
C        -2.01109185780718    1.93336857289171   -2.34416636073725
C        -0.37373318080103   -1.41642046134047   -2.93379047802264
C        -0.46953241549881   -2.72648046869082   -2.34844081580146
C        -1.37951844603025   -0.44770172548755   -2.81481610766976
C        -1.54480701121028   -3.91565665785673   -0.55796219085826
C        -1.63933930787304   -3.14360569076896   -1.73005013186013
C        -2.05100925213627   -3.19624957531916    1.57695041307695
C        -2.13120189201082   -1.89487525080063    2.18012621201236
C        -2.59728123694850   -3.41846266995598    0.32966893445066
C        -2.70909023627627    0.46625138759308    1.99576687454167
C        -3.01452257589660   -0.91284778458356    1.68251768106501
C        -3.10726072323018    2.78207710210798    1.22197336703249
C        -3.40846633752448    3.21017624832518   -0.17295024972466
C        -3.54574367938879    1.45220722886398    1.38317096937832
C        -3.28455859988569    1.46905977503110   -1.89093497840149
C        -3.96712804506811    2.12308554916247   -0.82733511574477
C        -4.25131700441037    1.10834079951594    0.19141650746015
C        -2.61682125722911   -0.90246686485533   -2.20024617380835
C        -2.71883819353111   -2.18797305784299   -1.60758858277803
C        -3.30363146699246   -2.36536977129676   -0.30868734524204
C        -3.68552588444539   -1.22959904900656    0.43861510763093
C        -3.48511792809648    0.05953452895391   -1.68081130982998
C        -4.06937705819293   -0.14201184110475   -0.37927707335330
