80
C80 Isomer 7978 Symmetry C1
C         5.24994732568445   -1.02549533982014    0.77403596097375
C         4.52090429712877   -2.21382308554652    0.61271495798091
C         3.42607356857678   -2.19822480830042    1.54170651551635
C         4.54611667813814   -0.19854022324524    1.72820878835334
C         3.41442285623268   -0.92394346556922    2.21292376733069
C         4.33898962483228    1.06868427252510    1.16364597335824
C         5.24989046154267   -0.32530966568262   -0.47818007041555
C         4.83265351538481    1.00994603495309   -0.21909257634978
C         4.21655857468349   -2.33909304276987   -0.79507688642424
C         4.56933407843878   -1.10365040435816   -1.46540302373619
C         3.03401217674145   -2.94106312387188   -1.12172268525453
C         2.20376654153949   -2.80008574783356    1.20177478641171
C         2.13185528996469   -3.38372582911292   -0.08569760669304
C         0.98664592720826   -2.30767429486072    1.79663783674924
C         2.19862962450499   -0.26565598410273    2.47895836343056
C         0.97132390467377   -1.03272162197172    2.44622302397269
C         3.16477375547235    1.78320783885580    1.47285773097441
C         2.14009941228184    1.15752449409746    2.26520603225781
C         2.76762970457886    2.79407870038904    0.52293844885137
C         4.09882843137297    1.64110457414270   -1.19632373000017
C         3.17206549022565    2.66700606787305   -0.82603892713256
C         3.62911543677908   -0.49736735148473   -2.35228558698215
C         3.53711266071413    0.91307719164435   -2.30110520331387
C         2.21554082625082   -2.47736055500267   -2.21537510737492
C         2.41885489309031   -1.19187161256900   -2.76023759558273
C         0.87295115351112   -3.53904899340975   -0.68832181758260
C         0.91329253060080   -3.00353602908191   -2.01971715519647
C        -0.25036232695411   -2.84406974165291    1.33382027099280
C        -0.29918641048353   -3.45042770224150    0.04466678889012
C        -1.47790688614549   -2.38764009847539    1.90276528735366
C        -0.28486388340626   -0.38302496352275    2.69408707320417
C        -1.51208379287335   -1.11352235140364    2.55483687651574
C         0.87508717473405    1.80875907758960    2.42001371398829
C        -0.30299133290248    1.05597994162293    2.77624773815794
C         1.55629204834628    3.44481596463333    0.73123915447043
C         0.70159922867458    3.06690896074390    1.80764926681090
C         0.73553177178540    3.91211418974790   -0.34453601513409
C         2.19155545296992    2.75784552475175   -1.84101968062696
C         2.34949113421053    1.59501606008601   -2.67891206143752
C         0.94598754802710    3.37278101156141   -1.63144623470187
C         1.23668134112843   -0.49388125937794   -3.21192042742035
C         1.21186251549279    0.94825852865369   -3.17868725968146
C        -0.22822452694711   -2.43413789910029   -2.57415747812398
C        -0.02867009789832   -1.18202276055543   -3.25587607222995
C        -1.51011693223634   -3.42484661254159   -0.73123207617217
C        -1.50162441511055   -2.82736918816428   -2.03169809852872
C        -2.65964197559589   -2.96731740920991    1.38821418960730
C        -2.67767297611207   -3.47632937035699    0.02482055903694
C        -3.93111131802760   -2.37879413990379    1.62111864644909
C        -2.77891488927607   -0.41863910996613    2.53897569449043
C        -3.94286820595273   -1.00935365571008    1.99736493531227
C        -1.55136536500428    1.70498442879106    2.67260028769660
C        -2.75100231254055    0.97977549800340    2.47178488495171
C        -0.59329685000439    3.59980332768293    1.51480888626263
C        -0.58294027870149    4.09587169976490    0.16249207380393
C        -1.70400523859481    2.96067052594208    1.99890860301987
C        -1.67184951016270    3.86604084506293   -0.65813696686968
C        -0.17801584959345    2.92540018669733   -2.40883009250146
C        -0.02739729288783    1.69623463289261   -3.16832937535621
C        -1.46111302093037    3.29882828148606   -1.96409425630378
C        -1.19282896760160   -0.44187812009539   -3.49556302374212
C        -1.18687254103213    0.98812855711822   -3.47436565107357
C        -2.68571314485910   -2.12285216607945   -2.43036079138892
C        -2.48734484239295   -0.89697537003572   -3.10683875491275
C        -3.91736561730924   -3.10515449689326   -0.55505395536283
C        -4.75558638168100   -2.54908013220185    0.46032686216465
C        -3.87813234243082   -2.23212608869995   -1.68504829912768
C        -4.72558926881417   -0.30352836518174    1.00304711367219
C        -5.12694399202326   -1.25955316833279    0.02144261545136
C        -4.64247636071113   -1.05905703109732   -1.31988365580140
C        -3.59142118974911    1.70235902646564    1.54885918952206
C        -2.90894389065790    2.89848542174010    1.21006377353499
C        -2.88450595987940    3.30921019490799   -0.11665070046570
C        -4.38654751180248    1.00556422958494    0.61754912248744
C        -2.62179912274328    2.51373368797862   -2.25529110468894
C        -2.48476346920603    1.39734530551754   -3.04485732048543
C        -3.28511403638541    0.24027784044884   -2.78788063377048
C        -4.23728412667313    0.22127866946699   -1.73990063595802
C        -3.50041286490149    2.47448443122499   -1.11319040943049
C        -4.24560563632710    1.33318715474555   -0.79419679067320
