78
C78 Isomer 15726 Symmetry C1
C         4.62984154253275   -0.60343721417450    1.32158026676120
C         4.63987245425214   -1.55587508318367    0.33158728077475
C         4.68005522496134   -0.89270790113545   -0.97581472905398
C         4.72467711813359    0.68840936465141    0.65726296286891
C         4.58722894077387    0.50471034113446   -0.76575588804913
C         3.86781632637140    1.54738526980773    1.30571261694322
C         3.55356263155742   -0.53640154337646    2.28140461826359
C         3.17776293849758    0.82060113186132    2.37144973934813
C         2.55189217503854   -1.52818179414098    2.34268124520893
C         3.63909877648506   -2.55917632767157    0.32120987007130
C         2.71862740608482   -2.62485319471736    1.40592736896943
C         3.75677154284553   -1.57947288918031   -1.78021597583805
C         3.15726463082550   -2.66724818474987   -1.02360339829937
C         2.90613685788563   -0.84002299754709   -2.59007467549550
C         3.60897867235104    1.27519086752292   -1.47444005395077
C         2.86780728830567    0.58897519959053   -2.46066369264560
C         3.16587918416984    2.54717460509218    0.58331265677656
C         2.94360781562745    2.39236549567772   -0.82556129367572
C         2.22458395759314    3.20895906757099    1.38568080898552
C         1.89169341154883    1.19592017235557    2.79087522394268
C         1.54613174949349    2.52383028083027    2.48717438911433
C         1.21051070660769   -1.16171213710676    2.78720387469582
C         0.87045215442679    0.21042092908780    3.01669687097865
C         0.13669304563066   -2.11921067857870    2.64576529436807
C         1.59026547119940   -3.38246151512266    1.12200352260279
C         0.40009554680135   -3.27995743488866    1.90415636176033
C         1.85065774518265   -3.10988922443503   -1.29348689883299
C         1.20577735848263   -3.71485051542656   -0.20272566527056
C         1.57670847554698   -1.30197212642065   -2.85468425867938
C         1.00220314702562   -2.43079247359991   -2.25615925697859
C         1.54322775816796    1.00279527314481   -2.81877904563402
C         0.77285737314958   -0.15810849747877   -3.10493799261103
C         1.71113689636048    2.92814006795036   -1.36922230212372
C         0.94328179890794    2.16338947334852   -2.32901720743370
C         1.29835765087957    4.03856192482370    0.77789830883276
C         0.97901557298592    3.84281907835006   -0.58320995205814
C         0.20568241408141    2.94344492184192    2.51762390258790
C         0.06641014641232    3.98469710686664    1.54759858867271
C        -0.51715037642930    0.65151384395744    3.03146244554980
C        -0.84903500475033    2.02023584646360    2.73745684815750
C        -1.25131063410295   -1.73151564261142    2.82653362494617
C        -1.56435194200274   -0.32871460282265    2.99196665694042
C        -2.26739276778426   -2.59769318438988    2.37441947458229
C        -0.62771834677414   -3.91096929256877    1.14611617228913
C        -0.19423013929427   -3.96739301586172   -0.21774934387707
C        -1.94416149821081   -3.66331795113551    1.45839932344559
C        -0.43669554381256   -2.50737694700308   -2.17110380882360
C        -1.02231890039448   -3.45608650801200   -1.24045323616865
C        -0.61550202416334   -0.18486290037012   -3.00901380468210
C        -1.24909587563062   -1.41850780672854   -2.62870103418193
C        -0.49356488301293    2.24558999120923   -2.44794867317664
C        -1.24485337939804    1.10297074066091   -2.88319978230037
C        -0.45419624277011    3.92660944497484   -0.67884347470518
C        -0.99686430083774    3.99654588156850    0.67175867298194
C        -1.17442047359833    3.22847133993445   -1.63651621721536
C        -2.12360517815730    2.37724674223199    2.15109747877069
C        -2.18938267150995    3.32776365876609    1.05324208641895
C        -2.87144276216538    0.10644512547449    2.68512446114918
C        -3.13474373251215    1.41966672625421    2.19695338631404
C        -3.55615638922347   -2.10014083188666    1.94934844112669
C        -3.84487772922611   -0.76273512975863    2.08961057438290
C        -2.86192137511226   -3.65790040207132    0.38924284108797
C        -2.40305545155100   -3.37747055035980   -0.92284958757103
C        -3.91181873301556   -2.73456134895668    0.71879065835612
C        -2.65502219824420   -1.35673358428237   -2.27162290980623
C        -3.22333635487492   -2.32712607000773   -1.43539589546892
C        -4.19371981303807   -1.95686499334930   -0.40814190404390
C        -2.64808797270471    1.07789990406085   -2.69952206321991
C        -3.32116914139452   -0.11170094316781   -2.33730408603625
C        -2.56832166636520    3.09125092017952   -1.34962880827436
C        -3.09542979290099    3.13856466533730    0.01248523653208
C        -3.30778628037509    2.15659482060461   -2.04650063834656
C        -4.18643718240250    1.33740796349649    1.21173901461711
C        -4.53545313122211   -0.04102895798666    1.04938311680139
C        -4.61527474442902   -0.61540925098361   -0.24884170454333
C        -4.36445332384302    0.23497656989796   -1.36127987358570
C        -4.15589651540472    2.18259702378667    0.10936049452134
C        -4.34136943454442    1.61129986688117   -1.18532764884151
