72
C72 Isomer 5791 Symmetry C1
C         4.61640628880628   -1.34408384601231    0.42369299678071
C         4.36974101637739   -1.31055495193180   -0.92910136729761
C         4.39874210014082    0.08303212938560   -1.38426311019068
C         4.76915606592720    0.05592446837395    0.85607000781836
C         4.46566142181111    0.92641379116152   -0.24839220559839
C         4.04523744336540    0.18202881207683    2.01717988729586
C         3.68047789095421   -2.00815348976266    1.29203154930603
C         3.45642177430491   -1.11749866960673    2.36345191675173
C         2.55645553352151   -2.69486413195344    0.75932833972124
C         3.22363953199158   -1.93940937603673   -1.49123738577054
C         2.36100722048109   -2.70593083370875   -0.67617322400848
C         3.39021401624904    0.21294651174111   -2.34774076321830
C         2.66165003346106   -1.02940303516772   -2.46077465911924
C         2.66304010249203    1.39545564466802   -2.36579455674793
C         3.48883893241331    1.96921657766120   -0.09178758712274
C         2.74988465623343    2.28483147139974   -1.25276794972255
C         3.03810592457173    1.17380024862201    2.18619976643921
C         2.76205373699334    2.10884750010009    1.16896550514087
C         2.17925174055726   -0.88151019129006    2.88392883852801
C         1.94637967202990    0.53484036362383    2.88186790545165
C         1.36622019470307   -2.73163957350403    1.57867434015044
C         1.11673200395158   -1.75053616543710    2.59323172065481
C         0.23179110317996   -3.33974453164735    1.02477424774880
C         1.05716053145354   -2.95033750408869   -1.22429681405621
C         0.11137866410604   -3.54732646894977   -0.37379694303726
C         1.30053601806380   -1.03663469315811   -2.78035730632445
C         0.54888349468789   -2.17083997987066   -2.31863536686354
C         1.31455538649010    1.39720468755807   -2.83140999958562
C         0.61160056287773    0.21135871164616   -3.06320571638062
C         1.49646175553446    2.97335801774978   -1.18281720425701
C         0.64480556428320    2.51179115860874   -2.21946205309103
C         1.46553968989370    2.73848822491358    1.22953167841385
C         0.93968710787639    3.37804508776797    0.04694174108426
C         0.65974356380020    1.02931081577338    2.84933789222171
C         0.49918326682261    2.30635008761097    2.20268438665034
C        -0.22194518724583   -1.27800206526955    2.85428723108525
C        -0.45049699452949    0.11164944643611    3.03678908370245
C        -1.07555807704413   -3.19410662611272    1.58571694123128
C        -1.32639911091932   -2.14614247232803    2.50029403361243
C        -1.28443909589245   -3.60551955454265   -0.67454689957531
C        -2.02534057821772   -3.52077696889076    0.55677502678997
C        -0.83620983218720   -2.15146577997991   -2.54991870624507
C        -1.75890014519637   -2.95328627725927   -1.79961909063552
C        -0.83426185296978    0.27495245700144   -3.03835314988465
C        -1.51330738107508   -0.95553854700185   -2.94907481020165
C        -0.75474282008450    2.58812841690637   -2.14099929668318
C        -1.52950178715602    1.47264064463121   -2.64119910935864
C        -0.40955979869146    3.77003277214187   -0.02084248791948
C        -1.25915547513331    3.41352424473474   -1.11745814799932
C        -0.81537274378189    2.80301695950137    2.15120220110595
C        -1.20882310666049    3.69115221212988    1.15236430777098
C        -1.79288393165791    0.64055106584440    2.92129583903647
C        -1.96697481871486    1.97689830285540    2.50621116178868
C        -2.64187676716087   -1.63698567544328    2.54358890794404
C        -2.87354089408870   -0.23086277235335    2.70491318049377
C        -3.29325820587742   -2.95547861158611    0.56340047635793
C        -3.63481037406662   -2.13850643818914    1.66609074560284
C        -3.03455437690332   -2.28449197560433   -1.76750013786009
C        -2.86981947796853   -1.05200438090177   -2.50058588316029
C        -3.82290755966181   -2.31443825650083   -0.63146125146635
C        -2.86457240106117    1.35838057966963   -2.18796109580214
C        -3.52946918682859    0.09275972830374   -2.10030798555891
C        -2.59108684566268    3.18992971451013   -0.59326747546103
C        -2.56672846746559    3.37791429411355    0.79712307756176
C        -3.04679389583391    2.34812351214747    1.65633019611417
C        -3.37033747116199    2.15832335484393   -1.11785966112171
C        -3.97403069270361    0.14217052187547    1.85163284657359
C        -4.41899889338195   -1.03289900212256    1.20429415431055
C        -4.51598346636773   -1.10504201293873   -0.21043234990370
C        -4.36840986486353    0.07965562832895   -0.92712616810636
C        -3.95768380972004    1.37537197820982    1.15220030907135
C        -4.17890862247105    1.33559471452275   -0.25387452097576
