78
C78 Isomer 19024 Symmetry C1
C         4.92311470650550   -0.39519172647711    0.20221276951752
C         4.58871694710138   -0.18915164778795    1.51260921986648
C         4.23533894499328    1.22830073654943    1.68557260187210
C         4.71579775785846    0.87398901442365   -0.50689574615231
C         4.19696054446311    1.84002781980355    0.40813737453708
C         4.01548868495182    0.58560250082919   -1.65994450744560
C         4.29221369283255   -1.44435169566183   -0.53171302137839
C         3.87441986140910   -0.86876103422579   -1.76288599296473
C         3.44927273624659   -2.37907360227669    0.14133254781905
C         3.60407106507331   -0.99835634304551    2.16592070369633
C         3.05790749956985   -2.12857121940902    1.52030092577791
C         3.12137576989587    1.25870120558184    2.52027119642068
C         2.75653064125364   -0.09034435387282    2.87292902981848
C         2.12678901622149    2.23403246774830    2.34352795902923
C         3.07631334611808    2.63542315461507    0.05879279801785
C         2.23163989445485    3.04005726994693    1.15519947753297
C         2.95991438938383    1.44969102139898   -2.09901617584351
C         2.48502332192544    2.51190899462240   -1.25188987509094
C         2.07242425640149    0.88377243772505   -3.02040423420567
C         2.82265125783218   -1.42068265046972   -2.50401410685289
C         2.00594703185547   -0.53871225069580   -3.24549429388801
C         2.50824868637941   -3.02292453524123   -0.68503270169036
C         2.21355429341848   -2.58972408214010   -2.00321008425452
C         1.32643839645433   -3.62488264362451   -0.15068529378930
C         1.78434799503935   -2.58830942110791    2.01363091264614
C         1.01258547497180   -3.50484855294801    1.21095691927013
C         1.43874118986134   -0.41527541186917    3.19268425589985
C         1.06670212925581   -1.78172849079237    2.96217991008248
C         0.84558558560990    1.96518979153640    2.94117920230684
C         0.46227817164573    0.63680336472904    3.31016391598411
C        -0.18273439102227    2.89419907753523    2.68206576388471
C         1.11511540869647    3.81176338065569    0.82355295408373
C         0.04085244637368    3.89912688042292    1.73219686696564
C         1.15286384417657    3.04394583678391   -1.49543583910915
C         0.56771929673756    3.82108729332246   -0.49394507131386
C         0.77417066328267    1.42740739227891   -3.24959927255206
C         0.25547531820768    2.47620014385603   -2.48400067306747
C         0.67073966952461   -0.88290749077751   -3.56346293157715
C        -0.04352267817429    0.35025801404884   -3.70747942757305
C         0.83123829200814   -2.88147804809514   -2.26237988538010
C         0.30702527753560   -3.59182000439159   -1.14428561149794
C         0.01687687075194   -2.02249556909910   -3.01898200104625
C        -1.06924371234688   -3.57301159039643   -0.82678795976994
C        -0.34140263779769   -3.77919832929923    1.52449160488868
C        -1.37695815976945   -3.84756641229557    0.51721524843504
C        -0.27383746022037   -2.08903823829521    3.26159661039530
C        -0.89511912216827   -3.20307320671751    2.67604432623338
C        -0.94088579068472    0.29059748861038    3.32209637235551
C        -1.26691406533774   -1.06028114694422    3.38900839133296
C        -1.58150651804227    2.52055594028081    2.62519015666906
C        -1.97074432478421    1.20461674095649    2.84398876111310
C        -1.17598108908850    4.10084815175345    0.98597868856978
C        -0.87595188470073    3.97315371013072   -0.37624263695417
C        -2.18963978671813    3.32414261078877    1.59491917989434
C        -1.19325060845080    2.56041894665921   -2.34536400927056
C        -1.76810283826935    3.28416179445120   -1.23689175722400
C        -1.39130908251792    0.38420869732804   -3.51313195233423
C        -1.98286503490115    1.53996742230345   -2.91667471935747
C        -1.40871711353212   -1.97225754257580   -2.72822656937590
C        -1.96117285096029   -2.77024486910597   -1.64879143461594
C        -2.10126667470713   -0.80949131196812   -3.11486021442827
C        -3.16588551919366   -2.34265064882552   -1.05650664656785
C        -2.57851237870237   -3.31974870317181    1.10760837188703
C        -2.27901105788314   -2.88598189217067    2.42585529456002
C        -2.51260234427859   -1.56738647785078    2.82794332784500
C        -3.42029668917459   -2.53011426537409    0.35334502473816
C        -3.14343042432236    0.69319041736569    2.14006032320863
C        -3.36645920325820   -0.73084928347311    2.06948677170879
C        -3.92894933538308   -1.30180571786763    0.89651418637328
C        -3.13473994593542    2.75521864260047    0.76845577564638
C        -2.98218392768319    2.83067581817817   -0.65747106185680
C        -3.69899001581328    1.48675728781926    1.12120175929601
C        -3.20857364677577    1.08779307667749   -2.32597566982959
C        -3.26896490685042   -0.35232060574835   -2.44562020412590
C        -3.79663173309423   -1.11465006618542   -1.42057085389404
C        -4.25757663823067   -0.47005578707383   -0.21913177388110
C        -3.68438877337713    1.70182473226228   -1.18735230473067
C        -4.18114801212796    0.89969759276848   -0.09706096529005
