74
C74 Isomer 12615 Symmetry C1
C         3.94399590572219   -2.09582854052607    1.24900684072738
C         4.54539938133855   -0.87350671177166    1.06148914149333
C         3.98129629004341    0.05425035393381    2.05133648360261
C         3.00247205016536   -1.96043650037604    2.36725394291452
C         2.91348965650030   -0.59280259797808    2.73045462784247
C         1.85456903663132   -2.68954917246107    2.08233445577193
C         3.25320647636006   -2.73553490330852    0.18533209500441
C         2.11673112159610   -3.34784595125558    0.81419242947514
C         3.08595737223199   -2.08746328530037   -1.07000004805764
C         4.52450548185100   -0.24065708010511   -0.20094590460799
C         3.81399960103202   -0.85536639583573   -1.28937433177731
C         3.80547807093806    1.28155952055519    1.43373889547290
C         4.33208428733347    1.17067261824568    0.07443541603244
C         2.64145684527861    2.02914311233930    1.70782886102114
C         1.64010832203457    0.02851162475220    2.82120065056216
C         1.56581431066606    1.41696493922580    2.45090615409237
C         0.56251630457446   -2.16703398370224    2.35532047554019
C         0.44355388013194   -0.78695045113780    2.75516589042855
C        -0.54193743907390   -2.83912512661601    1.71415185456611
C         1.05513938178436   -3.71281478998890    0.05988917066580
C        -0.25416795415415   -3.69654639088632    0.63850695432602
C         1.82994656184219   -2.30749444193958   -1.78093949102521
C         0.94593462307668   -3.27336858725572   -1.29792467612070
C         1.20352256127392   -1.25354222909366   -2.56474727276384
C         3.29704256604178    0.03486366323793   -2.26285823127899
C         1.97094136494845   -0.13804419928227   -2.83077497959316
C         3.86011941830639    2.00073448129735   -0.90786537075508
C         3.50886451151553    1.42062863462371   -2.15790759920651
C         2.33112890724298    3.05515524755995    0.74001807553019
C         2.86649840256493    3.00162840641818   -0.57100282489505
C         1.11440115290185    3.70179813737588    0.86898512653972
C         0.27575195771457    2.04531413207987    2.48671101061431
C         0.18254323084584    3.33462053898491    1.91320038510747
C        -0.85163643843604   -0.16187913897681    2.70776040780040
C        -0.93738057853049    1.27315481386277    2.69590234654394
C        -1.87347150845597   -2.30249677474497    1.82252956997477
C        -2.02600433056094   -0.97682299829269    2.41005468399807
C        -2.86785263433027   -2.81900901220689    0.97176313113965
C        -1.15222484209223   -3.76918351260999   -0.46560149575305
C        -0.44648021213654   -3.27876772280058   -1.61749831729375
C        -2.47504657185234   -3.47768876823883   -0.25705160291774
C        -0.23855673556326   -1.10770208272187   -2.69510226476069
C        -1.04722456089847   -2.24474262013950   -2.36973794290871
C        -0.85512420025032    0.18969442697229   -2.72066244825703
C         1.34783712372264    1.14768032523027   -2.98035865828776
C         2.31808076914607    2.09224120243602   -2.59257166153112
C         1.95575976084461    3.09280989348512   -1.67100770443680
C        -0.02345776883220    1.35899913175065   -2.72689648005894
C         0.33659185901918    4.06915895512026   -0.27911972740258
C         0.59024131811000    3.41926185132080   -1.51214760804114
C        -0.44146938966142    2.59369602729397   -2.09298229256484
C        -1.06839611656791    3.84947649252145    1.53601815858834
C        -0.98283483225920    4.21699631108285    0.14320231335195
C        -2.21452341494891    1.89598738648685    2.42405790046159
C        -2.25573431251540    3.14456628714450    1.74094089377072
C        -3.26674672606237   -0.35240010438930    2.25303090993032
C        -3.35138340728466    1.08543444474491    2.22003879467855
C        -4.04390704538870   -2.04937987404801    0.65206552584479
C        -4.27797370407192   -0.87463439686758    1.35619726830457
C        -3.17572030983548   -2.85991918612853   -1.31860972657170
C        -2.44682222624939   -2.08999149546556   -2.24888804643944
C        -4.21990300637220   -2.04545820052683   -0.75745603358636
C        -2.26277223017650    0.35850254695339   -2.41017942847627
C        -3.06124676869780   -0.78398704495541   -2.30401640894608
C        -4.23584619011249   -0.81531424997336   -1.46118083660128
C        -1.79129559800051    2.69633724432386   -1.59888129412133
C        -2.05249846247974    3.60459491323840   -0.53973655930695
C        -2.98757181702722    3.23639635299531    0.49397121768344
C        -2.73012795878164    1.60373554515496   -1.80697966544210
C        -4.32407516510688    1.43377777423780    1.25363402681711
C        -4.80338145904046    0.22552225145085    0.64102057181854
C        -4.59551755878516    0.32964301770428   -0.76412169616303
C        -3.95423331024542    2.31968010806873    0.21328498112268
C        -3.90343308049290    1.56709580769743   -1.02780300921043
