78
C78 Isomer 8639 Symmetry C1
C         5.06064034510726    1.26197872452639    0.85343476220697
C         4.79981476670586   -0.11686901031570    1.04787367046830
C         4.58006013655841   -0.74419495464356   -0.22579317138892
C         4.75751773310613    1.53594294427069   -0.50541053622927
C         4.45890888671168    0.30966983253433   -1.19691318492221
C         3.78789160252433    2.56463093324834   -0.56985832138746
C         4.11536186259432    2.00787339135943    1.64717434004850
C         3.42063569756462    2.90359121704565    0.79646757375796
C         3.76213623933666   -0.24780553579903    2.01585839747510
C         3.30364800295662    1.09314613208036    2.36033204138940
C         2.85995376616063   -1.30873289611873    1.95306062353176
C         3.76671076497247   -1.88177483187099   -0.28186573751661
C         3.01267620664985   -2.28234207253922    0.88929907411884
C         3.18062424265266   -2.12404966673699   -1.54576010572008
C         3.41669057274336    0.26039464555005   -2.15462020127330
C         2.92541798410995   -1.02778085881357   -2.41902492551093
C         2.78593204631099    2.53735403485522   -1.56995447804281
C         2.51869048103851    1.37469713703866   -2.38002665783313
C         1.72137513567096    3.40026070096642   -1.31008053432456
C         2.09945619935450    3.26385349010487    1.10872683894059
C         1.41039480463984    3.81714154771652    0.01603710676729
C         1.92819950034613    1.33404848841040    2.57840612550435
C         1.32049720176206    2.53263243791284    2.07656142725740
C         1.58212133710505   -1.12435925796362    2.59105706477444
C         1.10352447193445    0.19974943314147    2.87770148073849
C         0.63695578073045   -2.19025169953598    2.48500328024624
C         1.98118648767330   -3.20946544955130    0.70024575858951
C         0.82388491897194   -3.21197367987968    1.52214212016843
C         2.12352311483312   -3.06597760337438   -1.71349040511713
C         1.58702597807446   -3.68299723504956   -0.60184348190005
C         1.66412465107305   -1.23621967494800   -3.05899664235832
C         1.24379853190659   -2.56702360285137   -2.73628643555532
C         1.18970389506446    1.15665432473650   -2.89315405790845
C         0.75238731180034   -0.18206500488131   -3.23883712786509
C         0.49750306077022    3.32405770449314   -2.02814575771277
C         0.16135921807789    2.17104349731000   -2.75017934313261
C         0.03160268257326    4.10778774750272    0.09007129995864
C        -0.47561464950193    4.02908147105182   -1.24736224979126
C        -0.11330325655898    2.68567694864603    2.09010234693176
C        -0.73190185858465    3.64081839901743    1.18508522057370
C        -0.29007199162252    0.44068373253747    3.11280245272435
C        -0.92357806701650    1.67635134827843    2.69025308977973
C        -0.67137129488796   -1.98493726844547    2.91304954734584
C        -1.09565658635582   -0.69165550508535    3.34533064902481
C        -1.79078770212444   -2.62913509756550    2.26178121077802
C        -0.29323109781875   -3.72180615634837    0.77685240451242
C         0.17730753118247   -3.97348596202088   -0.55011446943463
C        -1.61760758378586   -3.31384969249235    1.03325065963944
C        -0.09470359315141   -2.86526207265962   -2.69774961056510
C        -0.64801113990755   -3.63320977968196   -1.60407214953493
C        -0.65751631575861   -0.51881564284378   -3.30384371886101
C        -1.03447584375129   -1.86338192781033   -3.07629599814298
C        -1.26308050183584    1.86473135958820   -2.88931070392958
C        -1.66557241908870    0.49568454716918   -3.11953253605161
C        -1.80965991381513    3.81804094594323   -1.46773169578720
C        -2.22061178270478    2.74769392311000   -2.34824777247579
C        -2.12526596068056    3.59857449062449    0.95062695650006
C        -2.65399865850377    3.84696852176967   -0.33554721363486
C        -2.36480051331838    1.66676189400321    2.43704606621731
C        -2.93580580592040    2.58033722841288    1.55014352276770
C        -2.50127251516195   -0.64425261078206    3.17370829896305
C        -2.91373356893053   -1.82273117267635    2.46478962079692
C        -3.10948994203467    0.45995421419474    2.59197505527243
C        -3.76384584889739   -1.42961544398061    1.39611132341331
C        -4.01016834604569   -0.02817652493437    1.56023898702555
C        -2.51649421510095   -2.99883803446938   -0.06780170144239
C        -1.97954458915558   -3.15945904183022   -1.35854955213966
C        -2.24470564396287   -2.19004772544757   -2.38315240458278
C        -3.57124575546352   -2.00201147655296    0.11379405837366
C        -2.95029847687330    0.09658129960184   -2.69355401449523
C        -3.18608673533081   -1.22161293546770   -2.19158364235398
C        -3.92482637686272   -1.15937955403514   -0.96956479508138
C        -3.48383089141884    2.27992663823695   -1.81831922891762
C        -3.73009921135067    2.92074112918759   -0.56971613791535
C        -3.94803587640755    2.16787964151179    0.59118138401882
C        -4.33214413862799    0.80062379558064    0.47782081761435
C        -3.80734973135181    0.94381431289755   -1.93183119011304
C        -4.32744475167821    0.20311245383580   -0.80827476726606
