74
C74 Isomer 8248 Symmetry C1
C         4.94174173408665   -1.24906910034615    0.83971955328783
C         4.46563659160482   -2.16102251068147   -0.09628790689682
C         3.42397252801931   -2.93565926734705    0.56991917214247
C         4.02468220893221   -1.28531634960497    2.00681046504343
C         3.05864598086915   -2.29753731553756    1.78754195835438
C         3.63043768344850    0.03613463835348    2.28337421642602
C         5.08977891918962    0.07264676001217    0.45084672700414
C         4.42302464005201    0.89629116231012    1.45577893913217
C         4.64088657973327    0.52382045748574   -0.82740176024058
C         3.91687776001958   -1.71753818411572   -1.33539813945712
C         3.92071235481698   -0.34634571313503   -1.70910154955307
C         2.42404949562059   -3.22211159189600   -0.35487238752389
C         2.70926363670065   -2.47079830956387   -1.54546376847655
C         1.10117993280041   -3.38215782797959    0.11132482966043
C         1.68465811340143   -2.06165391371966    2.08540314966069
C         0.68950221100197   -2.81256078956945    1.35891903211440
C         2.25314627256404    0.34231670089470    2.50822781118926
C         1.31823345013786   -0.76164823127597    2.56945870210081
C         1.77474482086531    1.63975718931690    2.12238154671928
C         3.85335613570224    1.99201997235918    0.82613836574971
C         4.12841824217262    1.84356199616278   -0.59428855759205
C         2.58703229103479    2.48643918070922    1.26685532328338
C         3.25880632614116    2.40777015234060   -1.49358570232418
C         2.75297194510715    0.18347100035277   -2.44242040196131
C         2.55621983821738    1.56853063443349   -2.44987452806544
C         1.63543812052808   -1.98929488949054   -2.31218727052169
C         1.58372759661041   -0.62226486158850   -2.74966847563246
C         0.16063165139268   -3.40940513541018   -0.91677303247503
C         0.43142155546246   -2.68678988212339   -2.12484903790911
C        -1.22103432542660   -3.36063406667075   -0.65171073058557
C        -0.70139042018134   -2.55699678981264    1.56498373608012
C        -1.70762994522946   -2.98437282539773    0.60979067162350
C        -0.06326468275118   -0.48285108154454    2.73671546497140
C        -1.04920042259936   -1.50279451764987    2.46019904931554
C         0.37120931227873    1.88718329639557    2.20317719406287
C        -0.47858683717876    0.88378805782592    2.76393984928468
C        -0.26087468239341    2.85133683461659    1.35198592705969
C         1.94068495169810    3.34775478092879    0.36659514258197
C         2.35531173902033    3.37439273068197   -1.00525703816480
C         0.51611720349570    3.47855528008791    0.38131659214742
C         1.25193412454680    2.13982859524911   -2.62806624589834
C         1.17484516117951    3.29874527538443   -1.80142496562087
C         0.05521829426987    3.47171332211087   -0.98204346115468
C         0.27965546632146   -0.04431376477694   -2.98774711692804
C         0.09928282502105    1.36669199215936   -2.82908220945463
C        -0.80284758037268   -2.19005436162085   -2.60958932150154
C        -1.83233282010365   -2.83281523013792   -1.84303318480309
C        -0.93142006071965   -0.84554282941125   -2.97984330031544
C        -3.08142054904201   -2.32259534941806   -1.81108166479204
C        -3.07813085726583   -2.50725970179805    0.66664945607731
C        -3.81988052912655   -2.33240252972094   -0.56125102074677
C        -2.41455399167598   -1.18739410974201    2.61343946263157
C        -3.45528009246285   -1.69480305222631    1.74027956177903
C        -1.85704298026358    1.16466310803932    2.84361951325572
C        -2.77657490667265    0.11669772874890    2.98229890278719
C        -1.68277052864342    2.80653621477632    1.08339029380956
C        -2.48757610551520    2.16530501603670    2.01288197662984
C        -1.15828579057714    2.86976896162953   -1.33011274658384
C        -1.17639070936504    1.88345191685095   -2.35669054128528
C        -2.14536238265401    2.87203059427922   -0.28849594271840
C        -2.26245246659148   -0.25960801363153   -2.88261775813248
C        -3.35037479271609   -1.10214809657007   -2.52715872209048
C        -2.37495434912647    1.13005434663308   -2.52061056960951
C        -4.81323090897681   -1.36530064772911   -0.69149469382434
C        -4.52834612782472   -0.59898214607729   -1.91830249448163
C        -4.47991213436273   -0.66971445356399    1.60438626355565
C        -4.01568106534759    0.46156125048687    2.31173091564746
C        -3.82262164462969    1.71421345538922    1.68732906506288
C        -5.11439069176062   -0.45371475401054    0.36257111238937
C        -3.39128460305110    2.37915854772664   -0.62921928553772
C        -3.53182174204825    1.59543561860249   -1.83038591556147
C        -4.63598989221097    0.73752394631366   -1.60178554163899
C        -4.30999240016682    1.88015525074023    0.37903526063153
C        -5.07055367503122    0.85516622847071   -0.20283821319344
