74
C74 Isomer 8255 Symmetry C1
C        -5.10674291644889   -0.58817942694171    0.50975828453185
C        -4.71342239277476   -1.11632350822478   -0.72690225024134
C        -3.93785764742180   -2.31671285542970   -0.45613497751383
C        -4.36519110310550   -1.31814354314294    1.56121207790298
C        -3.63614686766888   -2.34264658450297    0.93971009793725
C        -3.67370063484282   -0.37921432074603    2.35765294413738
C        -4.94043786807391    0.76842941564943    0.73594277191379
C        -4.16511434378448    0.90559720568209    1.97486182700587
C        -4.34537964220385    1.60992328706086   -0.23826144232758
C        -3.99130864803576   -0.32812688740403   -1.66507843091085
C        -3.79548433446670    1.06197868172356   -1.44407742959119
C        -2.88148432223627   -2.35896199267956   -1.37104824962670
C        -2.87713365683083   -1.13972400384075   -2.12517513074597
C        -1.68171672236318   -2.98636584075969   -1.01985138929407
C        -2.30690236283338   -2.61506974319487    1.35014580597656
C        -1.51059937878170   -3.29889480568045    0.37338390003318
C        -2.28219623435145   -0.53484026824640    2.66531866118022
C        -1.63253486354450   -1.76097283405584    2.28525127942182
C        -1.46190071641417    0.63573216114517    2.80055808398466
C        -3.30010644259366    1.97366923600349    1.84394307969395
C        -3.52792763421192    2.53019060090111    0.51522453038929
C        -1.97977975736142    1.90469453156218    2.35769628489965
C        -2.52235840016133    3.20023343051495   -0.10396918658248
C        -2.58860290263814    1.64829954713876   -2.00096876642375
C        -2.12663619967437    2.85742362147224   -1.44278310704053
C        -1.66064415912626   -0.61143721386033   -2.57473968100278
C        -1.58737310817395    0.82535279349055   -2.65424200365874
C        -0.52524096519357   -2.67141486641124   -1.80281576438106
C        -0.46162560316256   -1.42806773982874   -2.50468227740487
C         0.68378079738173   -3.29238738104116   -1.41949181767041
C        -0.24519909785665   -3.68058397223429    0.79002573488103
C         0.74018718436019   -3.96603420461688   -0.17876126747104
C        -0.19465373173824   -1.89305136622070    2.45111008924916
C         0.40691513469304   -3.01883217644621    1.87333194807147
C        -0.02434139842539    0.48364022913113    2.95457503182229
C         0.64549876052301   -0.78399963325256    2.81877125205349
C         0.76178205101212    1.63732802480956    2.86094925200226
C        -1.08247071285913    2.90996663131518    1.86377153852985
C        -1.34494141211454    3.57150097692221    0.63331144901140
C         0.25651331072115    2.81353127632085    2.21662793753603
C        -0.78144342008600    3.31294819625805   -1.56898447375059
C        -0.29834398024124    3.79780971073405   -0.28956586156183
C        -0.31043649128834    1.35164448058571   -2.87645791275505
C         0.09253807177110    2.62094496869090   -2.36971612934958
C         0.84436183725917   -0.83586443985709   -2.69836968732199
C         0.87021977265942    0.54027791416701   -2.92001407221275
C         1.97830211861466   -2.73103330258651   -1.68995109008601
C         2.08948240631362   -1.45354394950426   -2.24772093423362
C         2.02835371213144   -3.74369603647512    0.39994306733264
C         1.82719380151021   -3.07131218095319    1.62895002496810
C         2.83743153673749   -3.13701744590522   -0.59746583874118
C         2.09082396747099   -0.84518470566200    2.64097914912141
C         2.67108436976027   -2.01470918177150    2.02209788441719
C         2.16942824156712    1.59505884327716    2.66494573353378
C         2.87228523489825    0.37445476808202    2.61891939687741
C         1.30181931960263    3.35593937509352    1.42207546812939
C         1.05960277828835    3.68535492853941    0.06905851598874
C         2.50727922926652    2.70534949340248    1.82008686333927
C         1.50036114471883    2.59025263834791   -2.08070262353157
C         1.99937456164680    1.34276084268183   -2.52584416565449
C         2.02032204039949    3.20399147335562   -0.91561021158073
C         3.27133631931797   -0.65333438418535   -1.93178723181191
C         3.19756424574144    0.78880388323809   -2.03651009148902
C         3.82263200849740   -2.29971031970454   -0.17007806852867
C         3.85503522707539   -1.87543063041855    1.22406096394429
C         4.19443090490601   -1.17463336616637   -0.98804106531718
C         4.14594903149409    0.43586184595282    1.95453685727506
C         4.60442704092568   -0.70690162231801    1.25789560932975
C         4.92155614607448   -0.31688369756713   -0.12349687223091
C         3.56570990351027    2.60478471426239    0.92705756002489
C         3.26795832124210    2.73050267140436   -0.49388561529709
C         3.93032453095992    1.64062499767734   -1.15470761415749
C         4.46698905456864    1.55478984184341    1.12104165564508
C         4.80952595546854    1.05259319339927   -0.20188988059360
