74
C74 Isomer 12016 Symmetry C1
C         4.09377139473161   -1.92845164804890   -0.80148062522509
C         3.22580783608653   -2.95096957313829   -1.04540125042301
C         2.72064812881726   -3.41457547316916    0.25420008023517
C         4.09707720383859   -1.67963223134491    0.64735098093615
C         3.08869761001867   -2.47919989757675    1.26282975162283
C         4.09810973803472   -0.31104537464525    0.80914782140566
C         3.93790162392565   -0.68285920315257   -1.47902347809206
C         4.16675107757771    0.32926262126822   -0.50600883079301
C         2.87933811679097   -0.52648057473785   -2.42962618758620
C         2.09545499932605   -2.78227542174952   -1.91599019422464
C         1.87030345719724   -1.56441741026614   -2.59316713700972
C         1.39633001457516   -3.74932736933148    0.07962892991911
C         1.00625001619321   -3.44445272998608   -1.28668865545242
C         0.48217083703762   -3.50275589689390    1.12771176323593
C         2.07211205905391   -1.86495093688705    2.06830362904827
C         0.75717885698123   -2.45851464553633    2.08349324730152
C         3.30368116323288    0.27694549292997    1.83088593580860
C         2.21165165995836   -0.47505311467935    2.41368287470181
C         3.24371736418015    1.67930397734944    1.73847895365396
C         3.70728639312104    1.64602448115658   -0.67721920127557
C         3.41805897771270    2.39020312202340    0.48211915035671
C         2.50085288051043    0.81328891091067   -2.63862743651068
C         2.95680189909844    1.90230267086888   -1.85061444135475
C         1.20272482448215    1.14296975858557   -3.13614056375749
C         0.48366029472192   -1.21061903210897   -2.89072091475650
C         0.21308623423635    0.15392809838445   -3.27605139840186
C        -0.32616170231533   -3.13310514951809   -1.58735066774091
C        -0.61637448030804   -2.01230854389502   -2.44261982606693
C        -0.83073806189906   -3.77477949534295    0.73015027447970
C        -1.26048007959958   -3.58132911525884   -0.63326917381775
C        -1.87745814626427   -3.35838598134645    1.55251855298977
C        -0.37768582459799   -1.72083736854986    2.59068865465094
C        -1.67725795038988   -2.25100556000175    2.40415226923372
C         1.04680163853635    0.25973992348046    2.86796436062759
C        -0.27187894982461   -0.30767034338037    2.85252108847116
C         2.27047364415905    2.35832230294522    2.47063671320451
C         1.12715025930581    1.66896108175548    2.94129396803165
C         2.46946011550078    3.46161706954112    0.44877541987824
C         1.85516050135742    3.51410492958706    1.72837919417337
C         1.94477001891352    2.91855931904001   -1.86385699694097
C         0.89162269368774    2.46944616525157   -2.72191394575753
C         1.67321125255673    3.70451836573851   -0.72165048542046
C        -0.44511200028223    2.87581187898232   -2.53417994684791
C        -1.11379956466210    0.62164961062141   -3.27321778426972
C        -1.44613988959780    1.96018618949040   -2.92579501061119
C        -1.98673840934542   -1.50736330932345   -2.41399700656204
C        -2.20538700635937   -0.22374848703980   -2.91064873191687
C        -2.60768845035235   -3.09102848528041   -0.61091169113724
C        -3.03733095229095   -3.09962945364346    0.73505059161788
C        -2.99439946245596   -2.04598456449789   -1.49447775680404
C        -2.84958825402926   -1.41822552005721    2.29774160740753
C        -3.71090735537763   -1.99867036132365    1.28391423770024
C        -1.43876853147215    0.53825872918942    2.73048393791969
C        -2.72998698629818   -0.02678665858050    2.41843137684423
C        -0.00815549877560    2.49692299192213    2.67241299010999
C         0.46316302603386    3.63307652864119    1.87944729909922
C        -1.26798024041480    1.95122256081733    2.48535245643618
C         0.31641364901261    4.09233138271884   -0.52412684137510
C        -0.71608419287284    3.72809067488260   -1.43342135265900
C        -0.27707309782985    4.04601953898491    0.78918229861412
C        -2.17449996382778    2.67022127733275    1.59069751934818
C        -1.94443213777803    3.54783224809336   -0.70654834789572
C        -1.63040705243244    3.61505738486353    0.67690782980481
C        -2.75735166670311    1.95241981468422   -2.33170449693441
C        -3.26879062301536    0.62826047393848   -2.43917199193945
C        -2.99812492265319    2.73021229695124   -1.16982414280800
C        -4.04403010341583   -1.21564533988647   -1.03128444032917
C        -4.38483996580154   -1.18402888033460    0.37946292602670
C        -4.18040129938113    0.14113000566834   -1.51012327988279
C        -3.69862690024752    0.75577462914575    1.70810130409481
C        -3.34949217629865    2.05518576580834    1.18947383966103
C        -3.83589970336123    2.17059345721995   -0.16759479452316
C        -4.54719035277043    0.16297572072977    0.75962210424440
C        -4.53938950520295    0.98538169901036   -0.43274690579206
