78
C78 Isomer 13389 Symmetry C1
C         5.14047164467539   -1.39970906638055    0.37235544132696
C         4.76338091590869   -1.57233193987633   -0.97440894539953
C         4.58492912702139   -0.24313346588592   -1.54277519757227
C         5.08804739678857    0.04137519232244    0.68138109203992
C         4.73226302361636    0.71686757392394   -0.50879294956182
C         4.28418794735699    0.21074261737468    1.83376719794537
C         4.44377574602941   -2.08406115464957    1.36248776498101
C         3.96941740175462   -1.08628275878411    2.32592780405120
C         3.34397958029421   -2.91246291863191    1.03012683990970
C         3.63836615689341   -2.34736149136117   -1.31994009203149
C         2.91930663037991   -3.06917097798233   -0.32221694813986
C         3.42217878351753   -0.24340712646108   -2.33297879336647
C         2.86624861066662   -1.55544369960543   -2.27100618193282
C         2.57533933748839    0.88248434231406   -2.40471283053367
C         3.84085696055875    1.80880666153424   -0.46845386637658
C         2.96816742739344    2.00497417632867   -1.60037761186784
C         3.29454135736103    1.23165193342638    1.88847486710752
C         3.33279245337622    2.19726393565847    0.82354726170578
C         2.02137803947331    0.98203109401622    2.51674188367139
C         2.65956258627645   -1.38469283688719    2.66792328939546
C         2.30908846325071   -2.60857627189196    1.97996988214757
C         1.67439088552305   -0.36814992620014    2.84458216059034
C         0.99101999824667   -2.91030609555495    1.75425426289605
C         1.53698602667407   -3.33940450341723   -0.56560724764380
C         0.62043278128359   -3.53020596286173    0.51016340837040
C         1.51387487405184   -1.73626678143628   -2.46591584652657
C         0.94151803282879   -2.88285804199725   -1.79861620406568
C         1.19271837773498    0.69829230466017   -2.76383915237803
C         0.66836606436641   -0.62246019981442   -2.84914569119047
C         0.25626486364144    1.79784608949898   -2.64931457860278
C         2.05967875486122    3.06582450673453   -1.53672120531236
C         0.75711516932633    3.01254268779730   -2.15864896985198
C         2.35625097483551    3.19362259955557    0.85336369850535
C         1.96502181170893    3.81767241949761   -0.35356627125039
C         0.93304673625139    1.92661394335256    2.38294441434430
C         1.19887914181208    3.11510518314987    1.68733055223802
C        -0.44248813520360    1.54787460982904    2.61821729015045
C         0.31645827880721   -0.78477978712548    2.88043042778865
C         0.00814961182689   -2.13541844223275    2.47645855269410
C        -0.74743707022848    0.18409135112240    2.92041071028047
C        -1.30736857795816   -2.52043095207098    2.29929456207199
C        -0.76241502783654   -3.78335154403331    0.26201363957976
C        -1.70909428841310   -3.42404420357505    1.24646020849058
C        -0.38386474800261   -3.12757132632747   -2.04362929243554
C        -1.21855167979550   -3.79851329758711   -1.08383471467607
C        -0.75395812068396   -0.84096138805317   -2.92915445520609
C        -1.19206574565019   -2.17131211188688   -2.76210112565155
C        -1.17976867242544    1.54994687171493   -2.59558001533665
C        -1.71006888357021    0.21943896228597   -2.73057196196644
C        -2.00587161449981    2.51260716708823   -1.98864546954057
C        -0.09024491340823    3.89242703946807   -1.39495063808142
C         0.61216166079931    4.27537161898623   -0.21901486228957
C         0.13536354120374    3.85071541026378    1.03271482811314
C        -1.42252670966343    3.60306865888516   -1.25711310709239
C        -1.50896308455071    2.41245653126876    2.13864247761862
C        -1.20859353881317    3.47136252774284    1.19032325415956
C        -2.02600388605720    3.61018226806508    0.04253510231193
C        -2.82211116128658    1.94181170168111    2.14530022162988
C        -2.11138066546606   -0.28876736655736    2.90205713988522
C        -2.38178502290646   -1.64739973736829    2.61011965311973
C        -3.15150089704359    0.62388078737528    2.60453893776969
C        -3.06524854622092   -3.11575045368435    0.93209625964834
C        -3.50365470958110   -2.06958144617007    1.82189890402620
C        -2.54727317854339   -3.47180168224871   -1.38622333440529
C        -2.52264585106358   -2.44216938494875   -2.41745778135555
C        -3.47967004295089   -3.08637380257763   -0.41015074052143
C        -3.04970796331193   -0.07666465789525   -2.26142481228992
C        -3.42749676520906   -1.43351020913925   -2.09131719721798
C        -4.15460847339773   -1.89338450426276   -0.91199915989185
C        -3.22347152026125    2.15710674814503   -1.32902903886414
C        -3.22751233894559    2.85768173626434   -0.07527507047834
C        -3.73013738550841    2.24350303475770    1.05417365148973
C        -3.78097991658425    0.87852750573290   -1.46012970109530
C        -4.30538845285757    0.17747871903386    1.91341470987390
C        -4.42231034681554   -1.12089000766072    1.39140406965840
C        -4.67163266429672   -0.97856127282638   -0.04163879584470
C        -4.55772341122863    1.12218878350186    0.85034728659289
C        -4.59845316562529    0.42808350355296   -0.37391385033433
