80
C80 Isomer 8914 Symmetry C1
C         5.02871707653620    0.65488406704715    1.53864507888740
C         5.15352690759017    0.06499848212721    0.22851440364632
C         4.50501527500608   -1.18104375904653    0.25721060380196
C         4.21438491313306   -0.20683047166401    2.35569984898390
C         3.90564901930898   -1.34178496062138    1.59174417323063
C         3.12417054622221    0.55315595923522    2.88076971818129
C         4.34606846413417    1.86685588695272    1.39748693413372
C         3.21519002774724    1.86547989701154    2.28796384627660
C         4.72505867905393    1.04418793651459   -0.73197368544669
C         4.15610673641410    2.15672993819500   -0.00574538140602
C         4.06347554427550    0.58970210195741   -1.85722623764178
C         3.80656348960562   -1.66069759692817   -0.88120071493773
C         3.75033741977901   -0.80388431164073   -2.00140871778888
C         2.74407120876992   -2.62265318977369   -0.67789397345404
C         2.65985443556937   -1.97661556999350    1.74365115151526
C         2.22650622008763   -2.82686232611956    0.66219471295519
C         1.87133391905252   -0.03913998179097    3.05342059621264
C         1.68685392085502   -1.40641639821045    2.63868708104319
C         0.72589508534582    0.83406868152574    3.10912224403132
C         2.06359282989515    2.53800788626043    1.92346349521395
C         0.82857989171466    2.13790736301467    2.55321722095616
C         2.96135067164256    2.74764290883494   -0.41848896114122
C         2.02010109025310    3.15749122718092    0.61047540228062
C         2.97308073026624    1.33832001279807   -2.41202164478441
C         2.41078646482007    2.41539022627118   -1.72271974308483
C         2.63511255431491   -0.87717167425473   -2.90133641368296
C         2.12873810147459    0.42837063366391   -3.14974754982278
C         1.86802479106360   -2.87150750689407   -1.74543303477735
C         1.75880894809762   -1.93538837119273   -2.83068879360710
C         0.55490158232312   -3.39626766677294   -1.55721515277291
C         0.97798646050567   -3.42261472848511    0.81739223542391
C         0.14476834277888   -3.76951074465441   -0.29678008505746
C         0.37136894180058   -1.95672943067057    2.70105765176046
C         0.10438214537629   -3.07213939734363    1.89370851407672
C        -0.56586094979444    0.25076760500184    3.34281144462159
C        -0.74192910660412   -1.17264421169127    3.19368740297707
C        -1.69516865614314    1.07763145902250    3.24166141086215
C        -0.36185548874375    2.83901286917401    2.18027872619578
C        -1.60805657771475    2.34398526765803    2.58255745851043
C         0.80688935356033    3.65611960381751    0.18874052408833
C        -0.36300133866160    3.63358522192940    1.01821321346168
C         1.06151562852326    2.77275787637339   -2.07526322822935
C         0.37100787697706    3.59620932439190   -1.17983984922192
C         0.76524385520330    0.65331385568110   -3.35540866981382
C         0.26878236308266    1.94311818767697   -2.95779174581353
C         0.38161863665489   -1.74978358792251   -3.14964459000847
C        -0.37911864378586   -2.71804636807035   -2.40310331245600
C        -0.13744169653139   -0.47825785297650   -3.41801179574353
C        -1.70848657498206   -2.50739488634582   -2.03203934235650
C        -1.22439843149578   -3.65318325563026    0.06538220215272
C        -1.23106554741317   -3.36665408803023    1.47191000207131
C        -2.18226091488737   -3.06598741387050   -0.78118433985157
C        -2.04760461073812   -1.64903335138947    2.97393862990255
C        -2.28834623645021   -2.70736714893815    2.03637121914049
C        -3.01233345446648    0.57262662589598    3.02039861455384
C        -3.18794712865375   -0.78792843979904    2.88371234610357
C        -2.80298087758811    2.56625824425938    1.83914954363097
C        -3.70877823223919    1.49451536316072    2.15238637863550
C        -1.51527905411475    3.72013511519701    0.19441969918504
C        -1.04697352449453    3.69653498949733   -1.16775325705262
C        -2.75782133515449    3.14771438436130    0.55122985627795
C        -1.11577988125558    2.11155820810090   -2.98162807124187
C        -1.78965937266389    3.02629077942797   -2.11532557966784
C        -1.55448202322907   -0.30878790663843   -3.23560260785232
C        -2.36115525862303   -1.34980178010695   -2.61164063316443
C        -2.01988654288151    1.01065873270473   -3.20267647153963
C        -3.63021821318318   -1.02601914414116   -2.13563231084228
C        -3.37969732039338   -2.54080439377664   -0.16646047840365
C        -3.44795875307100   -2.40785442617279    1.24468291916686
C        -4.08607090567979   -1.28729092500080    1.86628691586014
C        -4.16425581474912   -1.63832344319660   -0.92578463851191
C        -4.60377441730144    1.03502579153841    1.21385779000412
C        -4.82706794969549   -0.39638887965487    1.09915934862005
C        -4.96336686687097   -0.68440569173835   -0.27861871243935
C        -3.62004256442651    2.60541866656351   -0.48714290525433
C        -3.09698961311602    2.52289449306236   -1.79739263289472
C        -3.26538233093324    1.34333214353138   -2.59461397036700
C        -4.10895059995212    0.32727779055014   -2.17178245724397
C        -4.57519384748707    1.60588462050325   -0.12214235075516
C        -4.87577949264563    0.56239485347615   -1.01089651850145
