74
C74 Isomer 2537 Symmetry C1
C         5.10305521123412   -1.10404175396352   -0.29754018725675
C         5.07037811061651    0.31984063643473   -0.02676264536025
C         4.66468964207645    0.46765301829061    1.30469357028117
C         4.51265435099433   -1.80682696235264    0.82759312661174
C         4.28943548257451   -0.86349198782550    1.82514188576312
C         3.38915521724629   -2.57515497280663    0.36282876005169
C         4.27026070130658   -1.34165660513372   -1.39830580948413
C         3.30063394912181   -2.35147032650831   -1.05684592909797
C         4.26776460371624    0.95019336300725   -1.03590281560173
C         3.78373095720368   -0.09424107110144   -1.92036507244831
C         3.36345584355357    1.96611316836874   -0.70623072933706
C         3.62997328858888    1.35442460923890    1.64051834748173
C         3.09006830479241    2.24025627799809    0.68545969039425
C         3.01560762945605   -0.73937302134915    2.43037459571357
C         2.66436306333478    0.65441479119231    2.45377301182825
C         2.17729677986889   -2.60107224546935    1.08241463968928
C         1.98643575560016   -1.66856990071154    2.16613196604262
C         1.00702563568034   -3.04771325430131    0.37396245545316
C         2.07959114913846   -2.36182775063119   -1.70846299665554
C         0.98379135900817   -3.01050251852284   -1.04189854080106
C         2.51822846701333   -0.04668863429885   -2.52149701730558
C         1.77827498097209   -1.28252558111343   -2.62473319561232
C         2.28605337971396    2.21061518060374   -1.64562160745317
C         1.79735355208489    1.19805582670073   -2.52693800889568
C         1.42661780968128    3.25528605928529   -1.33736814973784
C         1.87627348545964    2.89183450885068    1.04896312158650
C         1.33438119404042    3.72027336785213    0.04048370171883
C         1.34364073732380    1.07712654894891    2.56579732594336
C         0.97627511195347    2.36392074935453    2.03354316692193
C         0.65810213001485   -1.28237331836360    2.52855488881887
C         0.34687495303375    0.08112342606867    2.81491004562072
C        -0.23434448273502   -3.10416807310224    1.09914871039090
C        -0.39753215842579   -2.20752769780956    2.22714046385631
C        -1.37345553020751   -3.56702004914567    0.43439650628771
C        -0.26975775399256   -3.10071557322895   -1.72942211728709
C        -1.39408937440472   -3.56363693798658   -1.01363164433697
C         0.47899081040789   -1.20429660031528   -3.08971124930123
C        -0.50074451528619   -2.20730438584179   -2.79345765004050
C         0.41574959782963    1.25149877353410   -2.93302664820133
C        -0.19083608286470    0.04034520535540   -3.28551530765070
C         0.14711796915616    3.43211878784648   -1.94692509281822
C        -0.47306922105250    2.33524156992388   -2.59470064522884
C         0.10554997203548    4.31911914070155    0.22074496765518
C        -0.59739635093660    4.26659777605539   -1.07015159119579
C        -0.39885386281479    2.77354272951663    2.06451051039831
C        -0.78651827380138    3.87361858862075    1.23659401845527
C        -1.01735341270797    0.50639253560972    2.91321724593764
C        -1.41143837185484    1.82488483519678    2.47104676047562
C        -1.67904509590616   -1.87429743008353    2.65245274213705
C        -1.97674257819523   -0.51449658623982    3.02840579284941
C        -2.70034981238975   -3.25258025201204    0.89429283011448
C        -2.85466897676746   -2.43392054337485    2.01938785469394
C        -2.68846736083792   -3.18743755404528   -1.41230458775230
C        -3.51125311945259   -2.99715826056480   -0.24210381900724
C        -1.78234406024761   -1.60530368666484   -2.96737859707415
C        -1.59238794301819   -0.19190304775581   -3.13886111522317
C        -2.88085225130586   -2.07917485757656   -2.27315545146390
C        -1.88486070499422    2.07208391291786   -2.35066229843556
C        -2.42823845153739    0.74379850962149   -2.51643999610558
C        -1.91967801416895    4.01339225746439   -0.82024053626034
C        -2.07829259095387    3.88677162178826    0.63311460071329
C        -2.57652344910344    2.91061440741582   -1.43695745087797
C        -2.73738339788936    1.94803123521610    1.92706191262446
C        -2.96151636610822    2.85112633028769    0.85259737227477
C        -3.40038492728331    2.31999012801066   -0.43103054085793
C        -3.32829088970486   -0.28074470700494    2.66602623777927
C        -3.85252378143866   -1.44026610455292    1.99794669461045
C        -3.61767232123403    0.85447717528569    1.90951394229288
C        -4.21360102521332   -1.77566430026350   -0.38677542384729
C        -3.76849983402702   -1.14347699982582   -1.61998980065562
C        -3.52412917784148    0.23488931642769   -1.69000121899536
C        -3.91558866402124    1.02592795591312   -0.53600965306273
C        -4.42807976801213   -1.00257524864780    0.76467090828180
C        -4.27608723309601    0.40860447559082    0.68051076897764
