70
C70 Isomer 5110 Symmetry C1
C         4.75103160782962   -0.55161781299133    0.15129210872685
C         4.53725390523742    0.50416738800800   -0.73766281202998
C         4.21441193223401    1.65899487725791    0.06829017545242
C         4.22926441296756   -0.13968538305117    1.48086536961437
C         3.83868083791875    1.20178778600794    1.37774153067451
C         3.31400492632054   -1.11684510142344    1.92980462800485
C         4.19418249029165   -1.77236603504934   -0.15712022071969
C         3.49373125929117   -2.23601507235937    1.05032175049294
C         3.27775171716239   -1.91132341320941   -1.24323945159298
C         3.54106788575671    0.41667735769965   -1.76767138183747
C         2.80582610750069   -0.78336740466456   -1.98296516427544
C         3.32502822301616    2.45001721191029   -0.66454974703477
C         2.83987249384118    1.66563402923985   -1.78760588156826
C         2.42582949063867    3.19985484501033    0.06463829928766
C         2.58399889674122    1.60925933192742    1.94406278459399
C         2.06914634886959    2.79425481307295    1.40405264409829
C         1.98217360700882   -0.76875289125962    2.37686367755388
C         1.63322438297213    0.63100535129458    2.44246842741840
C         0.94054393639872   -1.75837414927480    2.24630249778966
C         2.40316707646032   -2.96147907544637    0.64900326282959
C         2.29747285586404   -2.83661384026439   -0.79257707440763
C         1.21630350720680   -2.91448836833415    1.43178121598021
C         1.04868899144468   -2.93198935044642   -1.38221149944130
C         1.38376030236579   -0.69470784871335   -2.33015011669718
C         0.52664883760647   -1.85113687780579   -2.17142726798123
C         1.50269096553548    1.77847705511489   -2.17659302410701
C         0.74784410914374    0.57801302665009   -2.48618008227388
C         1.25559197460894    3.65940022697912   -0.58161607571157
C         0.81078044823277    2.98106784733061   -1.74986323634182
C         0.72232503752616    3.18358599279330    1.60433535175134
C         0.31349506120347    3.95445729784845    0.45775300752744
C         0.24887322021688    0.99699228703632    2.58314965217731
C        -0.19544382288386    2.33519686145851    2.24120036223090
C        -0.44100505883600   -1.43444428349455    2.46136447485428
C        -0.74901538291575   -0.04670403147471    2.72863005815738
C        -1.50180193109898   -2.35737829380836    2.06212757943719
C         0.18680110000554   -3.61327866388859    0.84159372582201
C         0.17018697251160   -3.74853903426499   -0.61116208406736
C        -1.15254968334664   -3.49456454967316    1.29137753536557
C        -1.13198239299782   -3.88690821139800   -1.00822243338381
C        -1.96560222446016   -3.93692971255890    0.19972996426597
C        -0.90937029276811   -1.78270872628397   -2.32331911982060
C        -1.69124556151925   -2.90918787404677   -1.89850358470485
C        -0.70656304712872    0.66342508586805   -2.55135241436156
C        -1.55936433384405   -0.50126469691743   -2.41019869471298
C        -0.55883924578174    3.07851198074125   -2.02396452743268
C        -1.31470704289936    1.92107267438865   -2.43593788009683
C        -1.01450825223167    4.10373958183516    0.14721112562558
C        -1.39442879854150    3.85799479065913   -1.19756725032808
C        -1.59983693033148    2.65065044661848    2.03677466198720
C        -2.01389420764266    3.55180150649636    1.02215684259764
C        -2.10168640791133    0.32726544746956    2.76194936571853
C        -2.53246532670293    1.66874045280741    2.43561093983451
C        -2.86346727263594   -1.87985918885279    1.89724882494821
C        -3.14109563327559   -0.57959117121779    2.35960763589696
C        -3.13851404141351   -3.29648549345034   -0.09257207031653
C        -3.01100218018297   -2.70858877865908   -1.43901387786779
C        -3.65472314848859   -2.31545616040333    0.78202286867430
C        -2.92472478171757   -0.33260792868599   -1.96122899610968
C        -3.58905069213093   -1.44898262494706   -1.38859802835025
C        -4.23136826189539   -1.31816091449122   -0.08741260901684
C        -2.66205036190738    2.07905648696773   -1.93286599667804
C        -2.70174354404210    3.25820113134359   -1.16510725510115
C        -3.14271349056519    3.20950175268211    0.18018150958905
C        -3.42965882795914    0.95787930558795   -1.55487895884291
C        -3.79392411922565    1.57964575716101    1.81722258262067
C        -4.15906902085528    0.19547617654145    1.75006854803505
C        -4.51793919159881   -0.07538045385442    0.40460700115262
C        -3.98416291095180    2.16278103701472    0.53156651749820
C        -4.24713749924182    1.09719621584217   -0.39763969107339
