72
C72 Isomer 5437 Symmetry C1
C         5.07230060862868   -0.18127847070490   -0.81323395999201
C         4.42391151491139   -0.05226090754419   -2.01937330204425
C         3.79515094417700    1.27427659754175   -2.07589128177897
C         4.87505451790621    1.09129207337406   -0.08810307907650
C         3.98067754497220    1.93976925877224   -0.84680681189697
C         4.57761720770238    0.76837481587541    1.21303116022930
C         4.73404341756138   -1.26850933099584    0.07473103860453
C         4.49635017298526   -0.68978892535136    1.35351501298797
C         3.82024876556249   -2.23304136431684   -0.36494294673644
C         3.45798228295501   -1.00603636832348   -2.47010290583192
C         3.23150935913030   -2.13716817237319   -1.68334945755805
C         2.52077010573063    1.11837032603464   -2.62197119296839
C         2.31035924156915   -0.27815103860439   -2.93496897245545
C         1.45334313715246    1.91314831383949   -2.16059711662609
C         2.86581536971463    2.56597595882600   -0.22971451177193
C         1.64650842887756    2.72023811298971   -0.99910116121692
C         3.46045837510162    1.35677420401211    1.86461842022055
C         2.71514329739954    2.36877242468080    1.19884256225352
C         3.33405590600860   -0.95359515439327    2.08486551511225
C         2.75456655807915    0.30138596725257    2.51551157836303
C         2.76522829949437   -2.67298813233227    0.51472436680600
C         2.43708440700286   -1.99088636365862    1.71061476303440
C         1.90347810802190   -2.66551974754782   -1.62865347179181
C         1.68325442026034   -3.13028072303121   -0.29717371523377
C         1.01505427924775   -0.79348666092618   -2.88030985015535
C         0.80811807779833   -2.09179425692152   -2.29970051361618
C         0.13513062313477    1.49379410856672   -2.55098010987560
C        -0.08181100681081    0.13355066685508   -2.90842388135557
C        -0.96697986992386    2.33580597889328   -2.19910610704174
C         0.44974391127032    3.22289046409497   -0.37188441313307
C        -0.81813029019853    3.20983194353025   -1.06452344503058
C         1.45521917483920    2.59465702786667    1.75376333671144
C         0.43059636145860    3.25650775611663    1.02882211424415
C         1.39069328318876    0.39363419480812    2.82620879524728
C         0.81944414539448    1.67397928736288    2.65344353692980
C         1.05749466171002   -1.92937213962243    2.13311060754996
C         0.51722482284991   -0.73754809477139    2.74639380691170
C         0.40535013106102   -3.30646096386770    0.19929489512633
C         0.13834334402913   -2.83211526119521    1.53037484502059
C        -0.50979164885991   -2.51797718153741   -1.93294907947520
C        -0.66869949518852   -3.33376528601507   -0.76440493393251
C        -1.40733503536705   -0.41779931705764   -2.89777956358266
C        -1.62974956285114   -1.77803168819531   -2.44981981850247
C        -2.24732039638162    1.88747673565047   -2.59263761804705
C        -2.46574926201755    0.49985491949664   -2.89838714901599
C        -3.41054720632863    2.37193814082157   -1.92974150850600
C        -1.99212448261215    3.48172182188765   -0.30421338132960
C        -3.26320698333460    3.09093303577134   -0.75422386526875
C        -0.79310901692995    2.99557730455335    1.72974829280921
C        -0.57941794547450    1.87944390156194    2.60563012379213
C        -1.98323188152649    3.15355500688131    1.10562078807158
C        -0.90835085957259   -0.50161530653976    2.77747819240860
C        -1.50078155591026    0.81558996256887    2.64653174603567
C        -1.21327126137370   -2.76875843720229    1.91788070529383
C        -1.76067624028035   -1.57028784462700    2.50020873082332
C        -1.96031756483011   -3.57033824612980   -0.25523784682890
C        -2.20362214587872   -3.37945647383599    1.14597235789025
C        -2.92059091594981   -2.12663573681129   -1.97650115544094
C        -3.07700076221766   -3.06286098924056   -0.94397803573322
C        -3.75080277035624    0.13721176328949   -2.34360005326147
C        -4.28739451279037    1.24791489603972   -1.66111089098968
C        -3.93061687980067   -1.10552109886580   -1.77605212308973
C        -3.94439701600510    2.32548702599302    0.30882167566400
C        -3.06895411069185    2.23915765423470    1.39535533477182
C        -2.81053618091302    0.99680902849350    2.04962524517334
C        -4.52828873944694    1.16711402192458   -0.25595886926155
C        -3.10786587230642   -1.40680190303277    2.03472937755430
C        -3.41263384294667   -2.58554148310161    1.28587100283043
C        -3.99522738917496   -2.46654197589225    0.03580381184511
C        -4.44852868098160   -1.21736454775622   -0.43252808602175
C        -3.60544578260187   -0.14172890912291    1.63640451156675
C        -4.42581763905318   -0.07550619901604    0.42748793359185
