76
C76 Isomer 15610 Symmetry C1
C        -4.36351340516847   -1.74445239486600   -0.93960901373394
C        -3.55342574581741   -2.24683426984231   -1.92310068819984
C        -2.72060527047983   -3.30648947776153   -1.33503088430748
C        -3.96576591467236   -2.37397910337637    0.32667796342128
C        -2.89035102245978   -3.26975520383728    0.07512778679300
C        -3.82853032113474   -1.35425714530389    1.25304444990893
C        -4.47279656739166   -0.34139171544385   -0.74833913948955
C        -4.32472398630141   -0.11699385120589    0.65259310371880
C        -3.82140075348851    0.54303288648679   -1.66046132352717
C        -2.70586468669699   -1.38008907475639   -2.69276432616802
C        -2.81629386600818    0.02142387645041   -2.57248553191576
C        -1.45219199497531   -3.18104313018141   -1.89222274299327
C        -1.43182500131359   -2.02610676565288   -2.75372416855492
C        -0.31029209602934   -3.51549852352866   -1.14436012657040
C        -1.73293695935324   -3.23934558754399    0.89258936209544
C        -0.51874531490883   -3.69598607460330    0.26365098136667
C        -2.68383629660552   -1.30844290238917    2.11230883248628
C        -1.62861999156376   -2.27202962667174    1.95236239276982
C        -2.36952603016415   -0.04638081954257    2.63623304476407
C        -3.95700262829441    1.13710899744565    1.15048293319587
C        -3.03871937789376    1.15536445738560    2.24443776311185
C        -3.65483312414101    1.84586893813163   -1.18158499723253
C        -3.87787232544956    2.18310251837949    0.19356027573100
C        -2.60858252713295    2.70173104863595   -1.68618910052720
C        -1.62491993384267    0.79449645263449   -2.85494786432369
C        -1.54229293226014    2.17413676591660   -2.44857466010785
C        -0.24811965193587   -1.31661621691709   -2.94278500006293
C        -0.40383236835823    0.09783891487548   -3.15040834741545
C         0.95422743899040   -3.04986810084332   -1.64760183277780
C         1.00156516113423   -1.90519455439913   -2.51760999429160
C         2.09018342252758   -3.34203956651843   -0.86392929692327
C         0.62554424173018   -3.68837181930405    1.06354583241457
C         1.89178882642591   -3.77831030162378    0.46151778311081
C        -0.31231329641121   -1.93967081598708    2.47212722972530
C         0.74181347024662   -2.78494587921207    2.16323447645048
C        -1.02173291714517    0.30080977687901    2.99370074904319
C         0.03581152244523   -0.59244211178181    2.88516247390889
C        -2.11774833873465    2.23408289924493    2.40171586558319
C        -0.84919685638764    1.69758383635765    2.82616901440435
C        -3.08488599953464    3.32594908482630    0.47673504337698
C        -2.36885404796485    3.68765318108429   -0.70309961922427
C        -2.15148464618362    3.32600483883651    1.54026576818000
C        -1.04594408837708    4.05082273005055   -0.35081863531733
C        -0.88781823053950    3.83742955180597    1.05419563907451
C        -0.26225597472960    2.84802386414135   -2.34340997200632
C        -0.00969268969805    3.77426149638815   -1.25784078440714
C         0.79282633452544    0.81947602422785   -3.21969806999771
C         0.85926468514610    2.19852315983124   -2.86843065374874
C         2.20439372958281   -1.12099423790584   -2.57669479453808
C         2.06440413331984    0.21033207424514   -3.01562644585688
C         3.29329403948231   -2.54665656161951   -0.90588832181663
C         3.37874483844921   -1.44839432446426   -1.77983077282649
C         2.84670356977634   -3.08530994778294    1.29051101747384
C         2.12373577110114   -2.34362075667552    2.23673436344675
C         3.79242231777759   -2.46117728322564    0.44577461697037
C         1.36884977631771   -0.04896836635055    2.74483206177059
C         2.44981648005315   -0.97551041193511    2.47931494266207
C         0.38837710574647    2.21919725813368    2.43593191324180
C         0.34485312362129    3.37081226143730    1.55161522807681
C         1.53530476170164    1.34749472559812    2.46548907536180
C         1.27556800621612    3.81380166656847   -0.68502466096995
C         1.44514716670131    3.58321391315702    0.70894121193743
C         2.20541861718421    2.46804845540699   -2.45062913337763
C         2.97360681807932    1.25519267109410   -2.60998284942185
C         2.42183282712711    3.27014341543411   -1.34538474690228
C         4.27330580683308   -0.40076484325323   -1.39205388797380
C         4.03274989945898    0.97760241824631   -1.78093367585117
C         4.33972581238828   -1.27098827728811    0.90492196172572
C         3.65459966935485   -0.51030047408552    1.92530472989414
C         4.77190769895642   -0.35998457570285   -0.07891149899199
C         2.75478672827035    1.80538905281042    1.81833251340773
C         2.68161840571981    2.89035242530464    0.91132265593711
C         3.36655921012539    2.85806358528744   -0.34698768071484
C         4.25873576343533    1.82926834005611   -0.62576005791363
C         3.81007496698069    0.88739721507739    1.59832163890027
C         4.60978503261524    0.98417031550996    0.43794860553769
