78
C78 Isomer 8427 Symmetry Cs
C         5.22943712997187   -0.00625479162385   -0.19741533668564
C         4.71065894381688   -1.13557271469142    0.47994098704532
C         4.02944069879089   -0.73270982783737    1.68116211264489
C         4.70470473728220    1.12679489979716    0.49206286959532
C         4.02483363656085    0.70624211029636    1.69093589610812
C         3.95028000153624    1.90965186449787   -0.40383095744009
C         4.65001934048220   -0.01224962696601   -1.50996793527719
C         3.88636940529582    1.16888312005516   -1.66292861531324
C         3.97249463703212   -1.94635279328246   -0.42257878916349
C         3.90335250148593   -1.21966739682148   -1.67260946570628
C         2.87576982756738   -2.70962729042609    0.04089796255854
C         2.91773385960443   -1.47165621003291    2.14260965275468
C         2.31770705032769   -2.54335571423995    1.36188672475933
C         2.08985276166073   -0.74756169327853    3.01156349324581
C         2.90070568440944    1.42385653503396    2.15486724071738
C         2.07892051101482    0.67822418567787    3.01633001151865
C         2.83771408822781    2.65377707276371    0.05532734273538
C         2.28371327695245    2.48259404490908    1.37659495841640
C         1.96144356559620    3.04949636476085   -0.95942392402357
C         2.68298081059678    1.17402244827028   -2.41854912098349
C         1.86852782400931    2.28096102811705   -2.18852169034667
C         2.70359202793291   -1.24036212527572   -2.43061600306138
C         2.03748166555877   -0.03654159390914   -2.86115626045393
C         2.00584978065409   -3.12063937305890   -0.97389817459674
C         1.90149493738695   -2.35789829522011   -2.19710869106098
C         0.74607895229234   -3.66982441379816   -0.68898655097411
C         0.96778338052451   -2.95599997257315    1.62030965756082
C         0.18251008398386   -3.62466121120963    0.60026933983275
C         0.78603970015116   -1.19652143217973    3.33961163678632
C         0.22603805352076   -2.31956080963964    2.69506792110906
C         0.77057731544161    1.10367927288624    3.34531983555767
C         0.00492548247515   -0.05445476497847    3.68017913429721
C         0.92334250407711    2.87294437686417    1.63392105591690
C         0.19167962798942    2.22100619097062    2.70559049259661
C         0.69825603184346    3.57931581165190   -0.67721971255368
C         0.13126676708203    3.52776818813715    0.61542205917869
C         0.53982240098691    2.32738498998522   -2.64271893533220
C        -0.11283732187344    3.32415804113965   -1.84246942590366
C         0.61976304986454   -0.04615092212330   -3.13688750859771
C        -0.14613535888936    1.17237931203991   -3.08353497380752
C         0.56993525490820   -2.42272337589788   -2.65236601673265
C        -0.06801234012488   -3.42944549338490   -1.85462752537845
C        -0.13065569372022   -1.27732999118669   -3.08840816125069
C        -1.41259117888667   -3.49978430968789   -1.79448534942049
C        -1.26399304141680   -3.73675943557848    0.67004545050969
C        -2.03191443224055   -3.83080896300556   -0.52879446918703
C        -1.18038589238693   -2.38751219943912    2.72221824315343
C        -1.92857271210528   -3.12665700783167    1.76155501175845
C        -1.38808575379346   -0.06563930926156    3.55778700162210
C        -1.98849445715986   -1.27844452383871    3.16683644629377
C        -1.21540533545769    2.26595362451549    2.73159401005583
C        -2.00793768780998    1.13882338998994    3.17022685757105
C        -1.31478462623789    3.61659619075458    0.68218369112797
C        -1.97220030435256    2.99382742825289    1.77272745908584
C        -1.45712634534027    3.37606023145340   -1.78417129858983
C        -2.08319740432694    3.69716770753362   -0.51802386549445
C        -1.58965449889567    1.17141819611068   -2.96784748605123
C        -2.21715153902346    2.35755146214128   -2.48399572529308
C        -1.57429371090626   -1.29540225568454   -2.97264303753864
C        -2.18644480229142   -2.49103876955563   -2.49191438126157
C        -2.31839650017972   -0.06702674623316   -2.84892178392610
C        -3.31854988387923   -3.27321837588574   -0.60970355202942
C        -3.40537481743212   -2.46561246100024   -1.80919157111710
C        -3.20409505350585   -2.48840606885640    1.63463946187361
C        -3.19654165955795   -1.28110510797297    2.42827641294809
C        -3.89039826296685   -2.51406189353766    0.43357092180048
C        -3.21233777823944    1.12415900824701    2.43180020438709
C        -3.23760041264994    2.33377660495792    1.64087083521410
C        -3.79487312556837   -0.08313433288963    1.97115495059175
C        -3.36056157372551    3.12254139490750   -0.60160892198827
C        -3.43565361695662    2.31523592063445   -1.80239378761340
C        -3.92222211506471    2.35147172843644    0.44048205352439
C        -3.58132380159589   -0.07626643563486   -2.13644077245853
C        -4.04194455595619   -1.25087563607439   -1.49952340454666
C        -4.40715547397888   -1.27190357826531   -0.11304270906143
C        -4.40815567975336   -0.08559219575719    0.64640662909003
C        -4.05564939436322    1.09113729380319   -1.49491548728720
C        -4.42138916628234    1.10351140003365   -0.10980464803570
