72
C72 Isomer 7026 Symmetry C1
C         4.98649989372691   -0.14585653104345    0.03615242585297
C         4.69927727309352    1.18763038686881    0.39848131817714
C         4.01225006616965    1.13831078584634    1.67190135844111
C         4.38769266302189   -1.03707396536002    1.05620562785324
C         3.72181166682071   -0.22215148721040    1.99020938562868
C         3.66458193151382   -2.05788330245643    0.38519413284007
C         4.61193567451015   -0.61219113580249   -1.21200110124947
C         3.87221262955726   -1.86003332007838   -1.00796653688261
C         3.85471326090565    0.20323435049423   -2.10866434596622
C         3.97085588606310    2.03890826909914   -0.46235674762107
C         3.58651415848565    1.56660896180190   -1.75553140279608
C         2.97391594275805    2.07005967167446    1.64373416923190
C         2.97171985934957    2.71420760670674    0.35542945779331
C         1.76277117194824    1.81616767548449    2.31210064457165
C         2.42296374114685   -0.56749238921813    2.47064169199360
C         1.52222094316134    0.49315692645471    2.83360554310358
C         2.38942182133730   -2.45775278001405    0.83883118389991
C         1.87193348890451   -1.82307412295084    2.03157716607607
C         1.42761023631161   -2.89900469715303   -0.14293740684031
C         2.78482772708823   -1.86139615820543   -1.87335404073072
C         2.78659758907519   -0.61320577206379   -2.61262506913364
C         1.57307437548385   -2.46265112131718   -1.49662793624597
C         1.56711676284225   -0.08642808177129   -3.07198326693409
C         2.38626779428504    2.09457363559408   -2.26519715048972
C         1.48717543362657    1.32032296923421   -3.04627368174165
C         1.77410724227009    3.21968774225605   -0.15740553897109
C         1.58040689623694    3.04905071886786   -1.54877070075984
C         0.66526293749003    2.68090681187720    1.97952617085920
C         0.60636887399241    3.34276676699441    0.69832023506185
C        -0.53510379931871    2.43525069968619    2.66826204086078
C         0.17311048028079    0.15486569820027    3.19705418365352
C        -0.81616812377016    1.13719800471050    3.22443152398512
C         0.54056598513521   -2.10329543566677    2.37403020008747
C        -0.28712168927274   -1.16892730834769    3.02624147161466
C         0.11747187821297   -3.29303877669689    0.29474947703625
C        -0.29034631011586   -2.97938947972736    1.60049990404489
C        -0.90274336402616   -3.44296114737519   -0.67537517249280
C         0.40462659133720   -2.12077295391247   -2.28730029570402
C         0.34585881402147   -0.86658923395446   -3.01551245281637
C        -0.77152863796048   -2.76568596754966   -1.95358228614223
C        -0.92211011653029   -0.23550492144323   -3.22132201193030
C         0.20915696563989    1.93881912264827   -3.00914124866803
C         0.27390532820276    3.02291825963816   -2.07912027299083
C        -0.96474336456373    1.21750888769698   -3.22032516231062
C        -0.67551084004802    3.61618155286013    0.10234543664010
C        -0.85192918499611    3.40987049458106   -1.32533115211122
C        -1.73666500485751    2.96264615321731    2.19228928828020
C        -1.84190973034664    3.46919799603875    0.89548052411042
C        -2.20222999077236    0.82819079670861    2.95368808585739
C        -2.77997165168830    1.96830934412415    2.38304498731520
C        -1.66234718516315   -1.47008378199655    2.70070621199730
C        -1.65247325051321   -2.64161281053967    1.89361026094714
C        -2.62170924657599   -0.45840184672034    2.51601456110537
C        -2.25038339119238   -3.35887956191857   -0.30705539261558
C        -2.64827503044338   -2.80782237247495    0.93831317183192
C        -2.04800248521919   -2.23420428322070   -2.32791231985079
C        -2.14731855771712   -0.94555383037486   -2.90637819850973
C        -2.96923067741175   -2.65582510523806   -1.34608286899011
C        -3.32333144898248   -0.22636665608160   -2.56305468693358
C        -2.13542908055317    1.91456016284211   -2.81373155862316
C        -2.08345362834962    2.98327395506884   -1.84779406489259
C        -3.31890870279588    1.18967837060564   -2.60055872863850
C        -3.10236707481687    2.96657477392383    0.36172139604503
C        -3.59763226245009    1.92518231908235    1.24159570644908
C        -3.24455350424860    2.82001621940958   -0.99655267229927
C        -4.00640320434261    1.71808574126944   -1.46167427138920
C        -3.59441540602981   -0.55498095558701    1.42940008062881
C        -3.61541093319295   -1.75847548062731    0.70114124807195
C        -3.86143353962418   -1.74962283029980   -0.73350694952970
C        -4.10544959083342   -0.57066602017138   -1.40262416369413
C        -4.05976956995628    0.66272852663967    0.75664646192743
C        -4.35342440532751    0.62920526636296   -0.62854587637907
