66
C66 Isomer 4103 Symmetry C1
C         4.15663983223751   -1.19056317435099   -0.02994781561925
C         4.13834480764296   -0.55908542234783   -1.25618103266389
C         4.12923914588050    0.89769218874615   -1.01205828773858
C         4.19705232545397   -0.16386901027577    1.01760167454862
C         4.13293726451242    1.11321764996992    0.39587171690074
C         3.27699423914879   -0.53626742533775    1.99953140109043
C         3.16619572619739   -2.14664897101181    0.29824979049984
C         2.71089176341682   -1.82157725050271    1.62148024251849
C         2.23563284875047   -2.59946696056419   -0.67049020752791
C         3.14329795768540   -0.88291810195009   -2.19923792544368
C         2.22122900416819   -1.94061094621332   -1.95780934503656
C         3.15382022538873    1.45966670002943   -1.82931367166096
C         2.66438218856064    0.38715841031092   -2.68599570110113
C         2.23331146121152    2.45595586825783   -1.34034172313391
C         3.22894252657005    2.05946751992201    0.90068702155324
C         2.36520818897227    2.78890179202739    0.01585395581931
C         2.44911607558615    0.45660661744249    2.61350989492456
C         2.47524711997106    1.76300248348501    2.07658543800516
C         1.22796842035069   -0.01054873291456    3.16011231603469
C         1.45378236154547   -2.22602357061694    2.06715306949931
C         0.80608343614103   -1.35031381908014    2.97809554287078
C         1.04548555463446   -3.25623032419991   -0.16405293455317
C         0.66835976524971   -3.12001025509498    1.23176278187882
C         0.02424537867223   -3.52186794478664   -1.10522842896856
C         0.96140781849838   -1.85794825408986   -2.66485572429797
C        -0.08517407571193   -2.69292542144007   -2.27750603861252
C         1.41275647194710    0.50464230680536   -3.20836017238621
C         0.56757824928664   -0.65262937660082   -3.30863856796972
C         0.92404363517663    2.59752614036119   -1.95799845053033
C         0.60491515355813    1.66850940586952   -2.96359206174069
C        -0.17982580541847    3.24468417315410   -1.26369141863082
C         1.19399644101607    3.17831938235294    0.76722694046385
C         1.26025617343841    2.54561449200315    2.02765302662196
C        -0.03430223242115    3.51782275634772    0.15522776489030
C         0.05799188313455    0.82361753082772    3.25001865937964
C         0.07601061805617    2.12301311846052    2.67579027437355
C        -0.62664863502166   -1.34535680833374    3.07458403561944
C        -1.09844095830363    0.00709377249612    3.17859460770878
C        -0.69217980774711   -3.28236022873518    1.59415144020597
C        -1.35503287061995   -2.28338910669754    2.41177387967336
C        -1.30241821981509   -3.79325278384329   -0.68703617182272
C        -1.65408673637154   -3.66757648284888    0.63789492503118
C        -1.46652411293029   -2.28410465283179   -2.41627629387247
C        -2.22448099395112   -2.96731360699789   -1.46809956766784
C        -0.77591940057088   -0.19887821578123   -3.32296659227682
C        -0.73699288598602    1.23406033520813   -3.18937826373843
C        -1.82563722111466   -0.94997972956271   -2.75124283679881
C        -1.49514530006359    3.01408224238086   -1.74696724623076
C        -1.77653885090150    1.89728695580090   -2.60689061553211
C        -2.62211752151222    3.09433537397888   -0.88201626165422
C        -1.16690925014306    3.45378641027906    1.01463270729942
C        -1.13386566429207    2.62653425874965    2.18766508028061
C        -2.46811915565545    3.31053723637872    0.46484286823682
C        -2.28064686100470    0.42004975672221    2.51583293170039
C        -2.33234143515612    1.80542162825480    2.19778937750902
C        -3.16846249054608    2.23763110070101    1.17307081840727
C        -2.60100605894922   -1.88211567738652    1.76965593703595
C        -2.81301439281044   -2.75647492891956    0.71479878995377
C        -3.09498580198875   -2.26977274842102   -0.59072295425139
C        -2.99125796777467   -0.51438616930374    1.67672615966028
C        -2.85897758540964   -0.28585905542963   -1.99353071371712
C        -2.89773120536324    1.13472253896470   -2.07644288486598
C        -3.45385294007925    1.88951878349877   -1.05335847240912
C        -3.69903167782450    1.32016162572399    0.22480246183284
C        -3.36886245668151   -0.89059347136558   -0.77989002419146
C        -3.55383348992098   -0.07772192767449    0.41389087461670
