72
C72 Isomer 8504 Symmetry C1
C        -3.60904424668503   -1.84470604165211   -1.92186730788338
C        -3.18235203797509   -2.92766019973446   -1.19349725883836
C        -3.57119072782703   -2.73282496863525    0.20418864477390
C        -4.29020852938422   -0.94192822589109   -1.00108956692565
C        -4.11127478243463   -1.42099115979014    0.33553977243485
C        -3.90484557770669    0.34420337309250   -1.32655548494050
C        -2.67483192390355   -1.08227623946830   -2.69054671499166
C        -2.94841623049392    0.28339856536801   -2.43263936939041
C        -1.32987058115235   -1.49761527797178   -2.82197895644515
C        -1.82279565578247   -3.34202468636006   -1.25016286283049
C        -0.91092048163876   -2.69775528176430   -2.12087969588169
C        -2.49057984467482   -3.16423473700942    0.97636497437134
C        -1.42313819813676   -3.64044287967056    0.09346022720436
C        -2.12552447586575   -2.38909827196319    2.07763538348448
C        -3.58342964150249   -0.52102870039872    1.32057089711063
C        -2.65875335491113   -1.06667247166423    2.23181136379921
C        -3.71488261515415    1.31275827564485   -0.31120644572659
C        -3.45226310591550    0.89445323984582    1.03360394830371
C        -3.14716843234066    2.50920899990040   -0.80070379972437
C        -1.97459654136548    1.28600206131667   -2.60105325768764
C        -2.23210960660892    2.49616651494661   -1.94305052170524
C        -0.35421133275988   -0.47171027521186   -3.10383582095229
C        -0.63030699801974    0.93859440016735   -2.96548651013652
C         0.98240716372255   -0.88111762934392   -3.10390337294842
C         0.47647719655669   -2.91144497411438   -1.82674900946167
C         1.39673442999271   -2.11876717331940   -2.53880155027304
C        -0.08517614212143   -3.61762032924828    0.47677558833399
C         0.89908511660004   -3.48148481657446   -0.57723550900427
C        -0.76969805263078   -2.38113394596355    2.48542703369627
C         0.22032725267853   -3.12202351382189    1.80730017506332
C        -1.60691673843921   -0.26806306188767    2.79448977531352
C        -0.45984455241939   -1.07473471955917    2.98607390947254
C        -2.56442437171352    1.72773622072524    1.82952622171884
C        -1.49475031839979    1.10869955120328    2.58854855551653
C        -2.71273969206927    3.46399455621712    0.09181755771564
C        -2.35928561069525    3.06316068195166    1.41298004079781
C        -1.20366142970529    3.43679797967509   -1.71870503207825
C        -1.56651708069848    4.15299911427488   -0.52024300168825
C         0.43018840961916    1.87431584173684   -2.70260014783559
C         0.14417244186278    3.10765140805824   -1.99359367422363
C         2.06611669821067    0.05100919054010   -3.04074306616508
C         1.80009297287652    1.41557519841787   -2.77833223664330
C         2.76636917711140   -1.97163543727282   -2.14883961538577
C         3.20167699190050   -0.64457068497588   -2.51220813295997
C         2.25244305937767   -3.31216153592375   -0.19523955514742
C         3.20596595410853   -2.57168824963902   -0.98629638148301
C         1.53697040675831   -2.73949051807099    2.08942039171462
C         2.55765938672604   -3.05204011016038    1.15984974251533
C         0.85000855499979   -0.54512862632836    2.94535275534731
C         1.86440767029151   -1.46490439713622    2.65036764189891
C        -0.15283574247683    1.67010647897521    2.64715243581000
C         1.02893352678772    0.85850326984387    2.68960096480294
C        -1.11880036702162    3.70817717076731    1.68928299063515
C        -0.65256080718929    4.38577629233825    0.46556344665246
C        -0.02363590628943    2.99851543629338    2.16324417098079
C         1.12757899814061    3.61128416087818   -1.04605300505515
C         0.71262889401780    4.07444710519241    0.23949556620144
C         1.14675642510299    3.35394320503908    1.38791882707013
C         2.81027244223439    2.10430214151215   -2.05178828471855
C         2.39655395055654    3.04270329134111   -1.03640449283974
C         4.10327515356838    0.02851109459598   -1.69088716270555
C         3.92596031589110    1.41765575488220   -1.54892686559615
C         4.04953218476912   -1.80222952886807   -0.07626181898566
C         3.59030146108567   -2.06696726879762    1.24243409116409
C         3.11002107310256   -1.03046676046740    2.07489281183135
C         4.41075449509355   -0.51130070488224   -0.37851034569402
C         2.28339481289896    1.29077386029382    2.07949925005258
C         2.27591904505320    2.53437177733362    1.36052848349683
C         3.05920132317196    2.69432196398786    0.18497019414892
C         4.02781027523814    1.73117605437527   -0.13366399065209
C         3.30362303388672    0.32936100241252    1.73837671846283
C         4.15794144011576    0.55128817039619    0.59647527370788
