74
C74 Isomer 2401 Symmetry C1
C         5.06839212758707   -1.84092241947849   -0.59328901452124
C         5.13789591538020   -0.48236410055864   -1.08285378964091
C         5.23158833980171    0.34178288758312    0.03192137830455
C         4.82494762267257   -1.80542268732180    0.84507810463168
C         4.99277830927926   -0.48280565040229    1.25534442917319
C         3.58133924961826   -2.43688839623115    1.12908182715431
C         3.95654270205464   -2.44338075671743   -1.19149524872302
C         3.14193149233383   -2.98975280974975   -0.15096854923500
C         4.02895381209693   -0.26799693550007   -1.98382365882371
C         3.31050932911624   -1.51529081669557   -2.08244052733871
C         3.26949250225792    0.91007374909119   -1.93672441265484
C         4.45745006343063    1.50690677414930    0.12492909455090
C         3.57746304713552    1.90269502036247   -0.92064585087726
C         4.01508198914080    0.17148225927121    2.01875363294197
C         3.92062616284520    1.50545707382671    1.46651445781519
C         2.60046683317122   -1.80977526267005    1.95440300850578
C         2.79519654677966   -0.46883918387812    2.42654005182840
C         1.24856767895381   -2.28144122108972    1.85502040779393
C         1.81186849950376   -3.14562554876011   -0.39401462952551
C         0.98531986872099   -3.17050336361853    0.77877792824244
C         1.91308334302329   -1.56698048778161   -2.24781115263447
C         1.19432253825620   -2.60549953532137   -1.58698311448705
C         1.90525731025806    0.84080618906961   -2.44150846974671
C         1.16969645687557   -0.38645074864187   -2.57725980277392
C         1.15158269405543    2.00861256674870   -2.35642152443079
C         2.58529552079766    2.88122418757321   -0.57871308308220
C         1.50066760294659    3.06165151942233   -1.45806895301953
C         2.84196324495342    2.26480170294405    1.76751851338382
C         2.30866618954060    3.15895195607769    0.78607074054661
C         1.62134133858580    0.33128658736237    2.69840848116789
C         1.75177403725595    1.72673580031500    2.53380960134259
C         0.10251655832571   -1.59426856348141    2.38279373517522
C         0.26381900335578   -0.20578206372552    2.70392746197156
C        -1.22208065388925   -2.15154767894532    2.21995690629899
C        -0.28034192896470   -3.61655130230378    0.55228706591834
C        -1.32831810021527   -3.35168758308213    1.46038607712619
C        -0.20382287328141   -2.68440991686732   -1.71030458308750
C        -0.81468137605457   -3.60296700049151   -0.80393496911652
C        -0.27960406073022   -0.41167123605993   -2.58343619886625
C        -0.99576074718535   -1.61633818382545   -2.25126460183700
C        -0.26251355326879    2.01644254557564   -2.54819498619739
C        -1.01156464216083    0.82975425350586   -2.61143785774049
C         0.29172270895030    3.71139684897234   -1.06931196999841
C        -0.75572212871639    3.19343506796912   -1.89802789205393
C         0.99651991979429    3.47101602224656    1.21235160525046
C         0.64282223015584    2.54311908769162    2.25526910804008
C         0.01972561763190    3.92718017120665    0.31126011918865
C        -0.89184219212516    0.64852111013185    2.64848948599520
C        -0.67973357821541    2.06872825581555    2.41390562264639
C        -2.40408168998079   -1.31911005906175    2.32138318731510
C        -2.22033372826919    0.11153652691440    2.42716220989658
C        -3.63603403905294   -1.81615707982892    1.76349141927173
C        -2.50888014459043   -3.69358946273252    0.73651657422345
C        -2.17551852152809   -3.68994436425339   -0.70744399050268
C        -3.64837303438691   -2.98201829535797    0.91056535428508
C        -2.44031584698884   -1.62298863864046   -2.03403434343763
C        -3.02499620912675   -2.75145983430107   -1.36760245047618
C        -4.10698314642754   -2.57362301047321   -0.44417111596521
C        -2.41750307432061    0.87991466628161   -2.23978250255136
C        -3.13738896505158   -0.35167924567550   -1.95626493116250
C        -2.07133124451690    3.23253683066227   -1.48385066068844
C        -2.92586921058012    2.10129773445201   -1.74843234063996
C        -1.31257005802254    3.81189033910180    0.76091717304177
C        -1.65503306021586    2.88433736120897    1.83727913127799
C        -2.34826933541599    3.72982187797431   -0.17570164263845
C        -3.24619287114006    0.99946815563529    1.91455486497351
C        -3.87692164612739    2.07407633548419   -0.65725979878720
C        -2.94623781402377    2.34221331011975    1.58443754022686
C        -3.40228836908628    2.91517992453013    0.37251236917732
C        -4.50074439534121   -0.91646067493295    1.10891525833069
C        -4.66971255808171   -1.34393823312072   -0.29422960533940
C        -4.28581097133114   -0.25714955546501   -1.12044109055239
C        -4.29119539150178    0.45214279242715    1.11236510031902
C        -4.42661724672685    0.88980441533840   -0.26974971417969
