76
C76 Isomer 7985 Symmetry C1
C        -4.54515214260444    1.85509815005468   -1.20906737485988
C        -3.46682776995288    2.51146134483669   -1.88280452525942
C        -2.78203574087749    3.33500789152874   -0.93911735341330
C        -4.36807763404290    2.06499705272872    0.17169446005850
C        -3.34721298588744    3.04931669584554    0.35804294608184
C        -4.23754460420266    0.79095554888480    0.83023018017331
C        -4.41838618849052    0.44365714726735   -1.44413487877151
C        -4.33900205522908   -0.22871604073924   -0.19666207774598
C        -2.70481083397188    1.53993954027566   -2.57112760883199
C        -3.35175740258862    0.24550401749826   -2.34768200483339
C        -1.29265474813525    1.62172299759130   -2.64116409888416
C        -1.39986957456335    3.53468293004400   -1.08561077111956
C        -0.62579187952471    2.73297671191684   -2.02220340716401
C        -0.75869213991525    3.96077182228440    0.09026058901018
C        -2.52433249010226    2.96792440643471    1.49164747627110
C        -1.30685949631982    3.67271023962298    1.37210196394365
C        -3.33876398217087    0.61810129986607    1.89211038786103
C        -2.56281012624686    1.77533581638764    2.32776461094900
C        -2.88265475568139   -0.72846003303808    2.16921819920642
C        -3.60923495987155   -1.41323690491213   -0.10145220167003
C        -3.13125539669157   -1.77388409154738    1.21011770230757
C        -2.59975554452229   -0.91895493805302   -2.27354791226290
C        -2.89279487159470   -1.88579305044532   -1.25311125779233
C        -0.56342676035928    0.40972018594196   -2.92150829466753
C        -1.26925817040651   -0.85270679917029   -2.84227189909712
C         0.85689228019419    0.42880319675462   -2.88096950133817
C         0.79548997868680    2.73695937309107   -1.94525858501060
C         1.53875338139669    1.64133706968787   -2.51185702373840
C         0.66332810919959    3.94611873125680    0.17786259935458
C         1.44741904906723    3.52729594226796   -0.91987675221272
C        -0.18652940421487    3.40888944228664    2.21900704248766
C         1.03787883213101    3.64013069058338    1.50618709464545
C        -1.43751476060797    1.53430669570270    3.11852900207678
C        -0.24675174429789    2.34131968655074    3.07134566508596
C        -1.77463854963113   -0.90866192395822    3.06608656897081
C        -1.02058312245268    0.21231412133387    3.44260180252527
C        -1.05260318740168   -2.12421778373503    3.09536560038440
C        -2.42491945337473   -2.98762095836129    1.29522796601979
C        -1.51021422155560   -3.20483918866832    2.34204771399917
C        -2.03984965711621   -3.03106659581171   -1.12496874646875
C        -1.90500901993591   -3.65827856008270    0.12179008278269
C        -0.55936672496729   -2.03560371381882   -2.85557488992746
C        -0.97732006461052   -3.17818405847031   -2.06417492570225
C         1.57857865832732   -0.82866756394314   -2.82322056963826
C         0.86641683053655   -2.01910565509596   -2.91283015131206
C         2.83897573017731   -0.90264362659396   -2.12690412132132
C         2.93823476156933    1.57263671631015   -2.27758207814342
C         3.56809455815623    0.27332450644060   -2.01623276681476
C         2.79679740071486    3.31889497610028   -0.60059787978120
C         3.60221424916451    2.51345681547337   -1.46950630717155
C         2.21543725846676    2.90165563131047    1.76483494570841
C         3.17702640292009    2.99489057739172    0.75053183840484
C         0.90152110178036    1.47763935653798    3.21954592280612
C         0.40795586537515    0.17416265586056    3.47905133587036
C         2.11334047583506    1.68645855400746    2.55725344046757
C         0.39364458579974   -2.15481828720160    3.04032419406007
C         1.13398367994696   -0.97688621053319    3.08659879598608
C        -0.37456209964134   -3.93994945128264    1.82971618462809
C        -0.64391424279202   -4.28498808384626    0.49445057296882
C         0.79443389908111   -3.23881470838118    2.18886764083026
C         0.17808849505950   -3.89388569784825   -1.72672056425536
C         1.32079693801397   -3.17809683461721   -2.22515200983628
C         0.44023425105837   -4.28788192838721   -0.38448360793823
C         3.03037185227667   -1.90716998796280   -1.10739959165682
C         1.84477584958886   -3.04005857582060    1.25235663226061
C         2.23848688891782   -3.05077726593405   -1.17779188454814
C         1.69203621191270   -3.68930944149891    0.00512768474045
C         2.89102554787297    0.51347064504966    2.17353371249924
C         2.33655116586366   -0.82004124794405    2.30009632724368
C         3.44818785280781   -1.46097950709566    0.19987617956533
C         2.65078447380067   -1.83646019329338    1.34488074580824
C         4.49330675661423    0.41884828328627   -0.96495532435199
C         4.57327463350448    1.81515472783188   -0.67013276025715
C         4.18955947781872    1.98706582978494    0.67284569226041
C         4.19403560714344   -0.28872735290767    0.25266590593182
C         3.94380541577267    0.70046823708830    1.26885830156242
