70
C70 Isomer 6681 Symmetry C1
C         4.11233687198621   -1.57879424304372   -0.92485743830157
C         4.25638062524981   -0.31079330205304   -1.44798470322995
C         4.61727422231692    0.58949004164592   -0.35947209863218
C         4.18078214833330   -1.44744116424217    0.54988295120660
C         4.31347218124233   -0.07742604493809    0.86602412665713
C         3.16089031632467   -2.20887214062494    1.08530363855210
C         3.00603538120743   -2.36523024258602   -1.25985158535725
C         2.67986230319871   -3.02580833863654   -0.01779511025114
C         1.91371008566640   -1.84828562594038   -2.03112375306868
C         3.18280619472659    0.28270309285949   -2.17029063914605
C         1.98738803427178   -0.44330999366422   -2.41507603971126
C         4.05692236004110    1.82877131530309   -0.64735355240318
C         3.13553048868497    1.66084511251497   -1.76048114147061
C         3.64122037747984    2.58357718898884    0.45151276305470
C         3.36461607166035    0.50110136173676    1.78537819525489
C         3.23222756624428    1.89056209414112    1.66051942134870
C         2.16954578412138   -1.68016978273594    1.99148378143659
C         2.23229095696660   -0.28467609214558    2.29570245866924
C         0.95076637402280   -2.43365486686735    2.14316189151342
C         1.52152272162008   -3.67496283741454    0.10268214600305
C         0.79826058087998   -3.61830194706092    1.35090871590158
C         0.64600479927143   -2.50668572484885   -1.88285995423216
C         0.57262839855757   -3.63363907286033   -0.99845998045588
C        -0.58543311750021   -1.81892602187464   -2.16501519964121
C         0.76636751628382    0.29935253320926   -2.53634230461195
C        -0.47280125747130   -0.43341705198557   -2.56479309853910
C         1.94055626865144    2.38634825748090   -1.80552325254638
C         0.74701834031201    1.73031436176075   -2.27486627661056
C         2.69048196445656    3.57643025713263    0.20172346383664
C         1.81359553829717    3.48920404359286   -0.90174042847081
C         2.07420418227594    2.56832900120458    2.17562923575654
C         1.85557662887014    3.71097992069467    1.37977949756006
C         1.00862289559681    0.38701112382509    2.70733876602108
C         0.97136583167665    1.83271362108320    2.68952262691961
C        -0.25390105656892   -1.76881730081169    2.59000721447930
C        -0.23702405832241   -0.33449290343319    2.78500930956880
C        -1.50542600206924   -2.40182620089557    2.34610546895098
C        -0.46160945896631   -4.12472548804079    1.01059199940298
C        -0.62475832742005   -4.07190419857260   -0.46504402938462
C        -1.59901838759312   -3.58278469223987    1.56260651578945
C        -1.84498779720873   -2.29086576522879   -1.63408279301735
C        -1.84541727722971   -3.41937236220744   -0.75352990105847
C        -2.55161707756508   -3.33219430791579    0.47847280871923
C        -2.96912355239633   -1.39085399501888   -1.49683227280686
C        -1.65681419498858    0.30295397558337   -2.66772358746501
C        -2.91896906115352   -0.20182438137413   -2.24802640847375
C        -0.49251105579730    2.41070580509373   -2.07402928389686
C        -1.66183592269574    1.73826106621716   -2.47765347463303
C         0.51087256942146    3.93035708799675   -0.47049139557179
C         0.56764056213496    4.08642747710956    0.96715647736458
C        -0.64577198265924    3.45744718811619   -1.07489843015356
C        -0.27250134599712    2.49705172207681    2.60729581074113
C        -0.48221962272276    3.60619576166924    1.72171327158627
C        -1.50320888435347    0.38447380985199    2.72909097939221
C        -1.49840638966702    1.78013609687667    2.64445566506360
C        -2.65712042805634   -1.62185054716204    1.98341355955830
C        -3.25207957678708   -2.17617542694806    0.79696718100557
C        -3.69799327887961   -1.33029008170494   -0.24331387264896
C        -2.70294863322684   -0.25199484487696    2.21921914673643
C        -4.18605719266494   -0.09515408380003    0.23269711385395
C        -3.67791794515455    0.44756466914399    1.46220355915841
C        -3.72455115345145    0.93108742580868   -1.90372009509201
C        -2.92823120289005    2.13444872207305   -2.04012124368726
C        -4.34281577426384    0.99090048844497   -0.66627411640607
C        -1.88922090867615    3.52412798894660   -0.30272079620551
C        -1.76320164024193    3.48306918763605    1.11034420805652
C        -2.47996326546156    2.50659937798478    1.87631919504201
C        -3.57044734171474    1.87705492449910    1.30424454579648
C        -3.04875060285149    2.92408568152354   -0.84300748847303
C        -3.95812236738478    2.23783928992727   -0.00311196430410
