80
C80 Isomer 9017 Symmetry C1
C         5.10361564678985   -1.58252729376710   -0.00309663352375
C         5.19712210516864   -0.16145673950845   -0.12817102747328
C         4.62881197436798    0.42991683552749    1.02924120190494
C         4.37630305527606   -1.87961175737017    1.19427312746622
C         4.06356071678565   -0.64717641813197    1.82469765643941
C         3.28616542749997   -2.74846618189492    0.85694167384251
C         4.30195263062079   -2.02716057112016   -1.08336981317864
C         3.24470378750026   -2.83319831368506   -0.57330438311903
C         4.65762069485978    0.21332748621645   -1.40838333758257
C         3.97962912749758   -0.93580479354216   -1.96413436318520
C         4.04875570438882    1.43892349627528   -1.49564214732337
C         3.95777162182908    1.66225725043469    0.94947951106509
C         3.89691220615698    2.26185038121816   -0.33653110166034
C         2.86990020574650    1.92008288866879    1.87662980122617
C         2.82341070260821   -0.47684976930331    2.48745045149573
C         2.26019018150378    0.84033825251584    2.61266074860095
C         2.09013865781992   -2.69449280327842    1.58824630784436
C         1.95888013037483   -1.62679288598798    2.54159713679556
C         0.91556972892841   -3.24907343170689    0.97986203836473
C         2.01202733919777   -2.84459964391498   -1.22048302917296
C         0.91764828036171   -3.36603674693285   -0.44393215048761
C         2.68288499710432   -0.82051395542631   -2.49360242490136
C         1.75133177169359   -1.89946452573019   -2.26828212271057
C         2.86100174656895    1.60984374377747   -2.30260343262125
C         2.12578043519315    0.50451758956470   -2.74964151557033
C         2.85317221599380    3.18149634059900   -0.64144108411536
C         2.19985253362755    2.78735828903924   -1.86146223475646
C         2.08181385878017    3.05116640295706    1.64750001233486
C         2.09702459991015    3.71384760712796    0.37255738177121
C         0.75473772039923    3.21782180334304    2.16392930711355
C         0.89414190645324    0.99425206645669    3.06232061785472
C         0.09570578406477    2.16931687926643    2.81208036289773
C         0.68359336190519   -1.44819038463442    3.06559188214496
C         0.17600244093603   -0.16195061184230    3.37964372143418
C        -0.35652399222232   -3.17415597686540    1.64998334074955
C        -0.40378531980079   -2.31474729345246    2.75564985864502
C        -1.59939990005633   -3.46899274313238    0.96298806862107
C        -0.29672821045439   -3.46638056600119   -1.10985989657467
C        -1.54750833973348   -3.65056940415275   -0.43585677495142
C         0.41556348897015   -1.75532046316609   -2.72431817129760
C        -0.51332767523733   -2.73777533725177   -2.31604874815766
C         0.72355043413646    0.70654512250285   -2.99551511088066
C        -0.09095156988281   -0.47411571997082   -3.17087783557459
C         0.83689920240434    3.00775594927683   -2.06236690346478
C         0.09902913845240    1.97385054267529   -2.74081621535506
C         0.79521335761764    4.21874240732008    0.08267575499534
C         0.04337230986284    4.10847411175467    1.29885898140263
C         0.17710447771264    3.93156782619605   -1.15849270629158
C        -1.33635944995936    4.08093753867614    1.26624739250560
C        -1.35763660643267    2.08690476879431    2.70430045007180
C        -2.04519544163149    3.05973987412088    1.97644076088830
C        -1.26168748071544   -0.22930096286183    3.35148608280426
C        -1.60404458857837   -1.59484413679409    3.08384305880079
C        -2.04349260856901    0.82858247196778    2.89641280740372
C        -2.82160002122151   -2.94306008755439    1.47537558690831
C        -2.79117582531440   -1.90999494099039    2.49090208853801
C        -3.87046200061477   -2.60051475348394    0.60848914172528
C        -2.57717586388108   -3.18804853338698   -1.31562613784640
C        -1.92340540436923   -2.56922952515142   -2.44123678121119
C        -3.74147762578919   -2.62279786147844   -0.79481780572251
C        -1.47562679375859   -0.33373515475927   -3.28459932696911
C        -2.39857497547609   -1.37512097738482   -2.94211125723465
C        -1.34248568933080    2.06517274704785   -2.72306168833039
C        -2.11085032800444    0.92020450640572   -3.00317967202781
C        -1.23427491097533    3.99122089497023   -1.17076349761795
C        -1.95807282204140    4.24956128047220   -0.00007509204939
C        -1.99812700643249    3.05990042075621   -1.97420892612004
C        -3.19742467329553    2.68840310743744    1.15643541869431
C        -3.14070898716834    3.42935931998523   -0.02395686173379
C        -3.20332621855058    2.75325588858389   -1.27419479922951
C        -3.28447605134197    0.51362708521060    2.19839960978425
C        -3.67806895748198   -0.83596885420537    2.11738603005535
C        -4.38955453658825   -1.29404353268504    0.99083854859872
C        -3.74895229092641    1.38741862704476    1.15800169408101
C        -4.21502179230651   -1.34440930784678   -1.29627962261729
C        -3.56053598916445   -0.75887133795414   -2.35487037561052
C        -3.36170983883748    0.66225805322337   -2.37889306066596
C        -3.81290776595753    1.48922826479081   -1.32650185597462
C        -4.56223255591064   -0.51036086557640   -0.15378174931533
C        -4.25159559905638    0.86669704168231   -0.09502594166367
