80
C80 Isomer 30017 Symmetry C1
C        -4.78750081372800   -0.59808870382380   -1.00334743962964
C        -4.67655937389365   -0.52128126270685    0.39490635241040
C        -4.62585456194752    0.88825500371514    0.73271762586210
C        -4.57694164894459    0.73155729424849   -1.55966151170498
C        -4.57510927281737    1.65502006035506   -0.50131436473773
C        -3.50597065776645    0.64337906434890   -2.46867638612566
C        -4.02727792003128   -1.51126734206903   -1.75199591071972
C        -3.18366251969011   -0.75542130531162   -2.63810727414580
C        -3.51325851391124   -2.60461814608684   -1.06336965837440
C        -3.88941358825169   -1.48538867549581    1.10488396104929
C        -3.48145686225445   -2.60321444727791    0.36391263313783
C        -3.01486088126807   -1.04690063697857    2.18254528409358
C        -3.83501253440384    1.27694198284468    1.78746006500378
C        -3.03289454254194    0.31275835074479    2.50310802449090
C        -3.09814242636946    2.51791885804727    1.73629068774063
C        -3.70703543796637    2.73119554719191   -0.61455687565393
C        -3.06914034952324    3.24893993875935    0.56155424314725
C        -2.47966011995911    1.62317405282050   -2.48274606348435
C        -2.71888743668463    2.74084297745526   -1.65536082567041
C        -1.11451372554067    1.23856422627808   -2.81796407663506
C        -1.87537895063530   -1.15748049997789   -2.89667848439322
C        -0.84145577589637   -0.14918629806017   -3.09086811896182
C        -2.31086288736643   -3.18757438600232   -1.52543070906782
C        -1.52419396086402   -2.49889725188317   -2.46379116384445
C        -2.33331726871194   -3.37764147199054    0.75808585468498
C        -1.67615798036626   -3.84338550077988   -0.39895758737883
C        -1.84315287292976   -1.80524953480019    2.56954634257016
C        -1.59605994965826   -3.06938954912242    1.92785609543734
C        -0.72548793719233   -1.11300264724933    3.16332961929875
C        -1.85292959392708    0.99738825024393    2.94311617270362
C        -1.88476624009594    2.33902467087488    2.48342620855038
C        -0.65199195188335    0.32061604913882    3.17903724055225
C        -0.69545017230178    3.02876569878454    2.20745032916116
C        -1.82133164873581    3.82998500036230    0.17500722718513
C        -1.60541684237394    3.49948203184398   -1.19056141323414
C        -0.72878253820820    3.90038551479909    1.05711870932118
C        -0.02875757508291    2.13156877993690   -2.52559376009616
C        -0.31413849264466    3.29717909538321   -1.71693554223013
C         1.34935848801476    1.71046218690919   -2.64951258410606
C         0.51566534070273   -0.57388949076941   -3.19108133190574
C         1.60585555316755    0.35586741221401   -3.04961672775981
C        -0.16665566446333   -2.85688972549383   -2.50835652752055
C         0.78942043454488   -1.96221072473651   -3.00121295102795
C        -0.29870355684973   -4.14779785463542   -0.40563666897600
C         0.44622648693483   -3.74773624025967   -1.54042139972592
C        -0.31278918927992   -3.66561287433846    1.99418458463670
C         0.36731101338442   -4.17819011982277    0.82807148360471
C         0.51171548486034   -1.77535658158055    3.27682614355413
C         0.66514547505952   -3.08088575007315    2.81233207641693
C         1.75970803537177   -1.08094797408388    3.02698804446075
C         0.58434605905590    1.04221893809491    3.01783584734447
C         0.54601014244602    2.39938758277604    2.59244367240411
C         1.81211575174646    0.28599452395979    2.84503662247119
C         1.75487148192320    2.95397290989638    2.07789174713572
C         0.47684079510012    4.21167000150939    0.41737849167662
C         0.69436263612487    3.91250474405588   -0.95987651624602
C         1.69323129005969    3.94920891991500    1.08871530479396
C         2.40362884648807    2.46862004127446   -1.99284490409515
C         2.06974948248660    3.53727065759956   -1.12751183285563
C         2.72102329295669    3.70805135764190    0.11328580792696
C         3.62668951415086    1.82378027807272   -1.64622328778567
C         2.90852336602050   -0.18590416806993   -2.81434221238207
C         3.87731015856332    0.54539645398616   -2.13913841861416
C         2.04019637343352   -2.41162961843440   -2.45969456547633
C         1.80906741198604   -3.41009012218269   -1.44504714095733
C         3.07823242119639   -1.55632238014311   -2.35639102937145
C         1.76078155266834   -3.81592406657491    0.91339389514623
C         1.95405876634085   -3.18904219237999    2.16187748950893
C         2.62404231970611   -1.97139870573630    2.28262001803185
C         2.49124194138725   -3.33149183766204   -0.19768144720275
C         4.41724223318774   -0.29398221861931   -1.05512520687772
C         3.88902786837166   -1.57312651839275   -1.15582921945916
C         3.45264075785454   -1.50029396561933    1.23425903413520
C         3.45323881158232   -2.26680825134340    0.00578327751084
C         2.95231006962537    0.79675203241549    2.10167638848388
C         2.93660220500910    2.16114299197128    1.82765900470588
C         3.55517148702173    2.68983800223180    0.62868286899150
C         4.11450012396793    1.82757546638335   -0.27632877590846
C         3.74835839705683   -0.09426685814797    1.26928409679581
C         4.36311236740216    0.46712894963168    0.12221133820515
