68
C68 Isomer 6330 Symmetry D2
C        -3.10479436655139   -1.89999223748320   -1.93452099131426
C        -1.90328130031029   -1.64824390943158   -2.60518979866524
C        -1.82802537109252   -0.21149193669696   -2.80242173846099
C        -3.77352683590661   -0.64728629902595   -1.67892950542264
C        -2.99724257300119    0.39590764375418   -2.20774393802482
C        -4.17849205813954   -0.62414986939251   -0.32302342559446
C        -3.10967639351979   -2.63497893749610   -0.71424583531930
C        -3.63866131571038   -1.78757260622927    0.33299785985145
C        -2.04206404819768   -3.44877509067960   -0.46797905589138
C        -0.75343879510685   -2.44022660828274   -2.34383143741014
C        -0.95624615812556   -3.51010696923448   -1.42366742082234
C         0.54348529789558   -1.83276229869066   -2.45908103783182
C        -0.60739251123628    0.43094426702521   -2.83827940316722
C         0.59067210300320   -0.42218845679074   -2.83822751168557
C        -0.56099641739569    1.84049252427802   -2.45551832653594
C        -2.89967440835749    1.64405188000849   -1.54541494562273
C        -1.69621666485853    2.41517923709869   -1.77598033108986
C        -4.17978006695928    0.62095063746440    0.31350569351190
C        -3.63994749121054    1.78496180807051   -0.34149712021521
C        -3.77754946682357    0.64453258598259    1.67021932058033
C        -2.90088672005234   -1.64584276296690    1.53839381289273
C        -3.00112885108057   -0.39779266602272    2.20051445845441
C        -1.45314745143708   -3.48648172317691    0.86389046833767
C        -1.69702327782991   -2.41559652622034    1.77126780752924
C         0.15147877190318   -3.99492290050040   -0.71742631816650
C        -0.16933153122613   -3.99692333970544    0.70579410226001
C         1.67739576687873   -2.40912370372497   -1.77885843263907
C         1.43469395938442   -3.48259921413482   -0.87423072441454
C         2.88041118206381   -1.63864117115100   -1.54401570056627
C         1.81122647760885    0.22007075089893   -2.79851554463831
C         2.97936311570780   -0.38885094985679   -2.20306620892281
C         0.73570718143344    2.44771714884928   -2.33626627145094
C         1.88604457966227    1.65635869145798   -2.59744042688501
C         0.93676313605615    3.51522381114816   -1.41291353792247
C        -1.45536469880180    3.48638444013174   -0.86814628843408
C        -0.17237151564887    3.99825026555027   -0.70756817239461
C        -3.11391496414795    2.63289888609207    0.70681287028008
C        -3.11063816882580    1.89798326640629    1.92712092875948
C        -2.04675370669407    3.44794448251040    0.46261423351611
C        -1.83370744528620    0.21088853466905    2.79749114979165
C        -1.91019830192062    1.64754451579479    2.60019582168744
C        -0.56374393516031   -1.83966447720012    2.45300148745555
C        -0.61242240443766   -0.43017598045778    2.83574715758674
C         0.93785599579825   -3.51269243262260    1.41328483263482
C         2.02356403781926   -3.44766509359684    0.45774639531142
C         0.73388681470221   -2.44539608520228    2.33621242712052
C         3.61828858951311   -1.78258017241301   -0.33900121607498
C         3.09022544403400   -2.63324022653155    0.70606184168401
C         4.15682119012078   -0.62025785573828    0.32003829512160
C         3.75455966588768    0.65300227712299   -1.67009855228470
C         3.08624181684118    1.90632836103102   -1.92379568161853
C         4.15679607915554    0.62640240946357   -0.31340791605814
C         2.02055071283367    3.45128480606167   -0.45521042098090
C         3.08865265667898    2.63810921666993   -0.70155845137526
C         3.61555345483172    1.78808913688124    0.34470403056575
C         0.14564183128212    3.99647413353199    0.71631159406638
C        -0.96289708307555    3.51042376001353    1.42042053974331
C        -0.76070684859321    2.44088757430665    2.34112310384581
C         1.42923264770627    3.48567203738605    0.87572362445220
C         0.58462329031284    0.42431527654462    2.83805512279858
C         2.87557615547813    1.64331634244019    1.54830609482420
C         0.53666757660358    1.83481101344877    2.45890658821799
C         1.67127031643491    2.41250335814451    1.78083620622572
C         1.88282359127267   -1.65278136901313    2.59964097627647
C         3.08459990266916   -1.90143840826344    1.92821644665143
C         3.75202771800312   -0.64736199443138    1.67590521893912
C         1.80598230607092   -0.21665552958259    2.80057975360022
C         2.97455978107372    0.39355472170930    2.20743142332670
