78
C78 Isomer 4299 Symmetry C1
C         5.64889515895644    1.11769625244242   -0.76068908549491
C         5.73044689749523   -0.26221295165529   -0.39306138961029
C         5.36016342923681   -0.36217994794798    0.98366985957668
C         5.13752397460813    1.85131119892235    0.35878955213821
C         4.87037852936024    0.93328600045881    1.41986865315371
C         4.07804963351028    2.67513416525131   -0.11516188381541
C         4.67206563668929    1.21643121358967   -1.78432467444496
C         3.71315734535204    2.21666679937286   -1.44239187482108
C         5.00027316542622   -1.03150329563275   -1.36027340177737
C         4.21763497377083   -0.09552007745943   -2.14981680602633
C         4.40843459335992   -2.20446812352357   -0.92083648392205
C         4.69272074418648   -1.50362481128258    1.41182425262681
C         4.47462582314898   -2.53158709369226    0.46711708817879
C         3.50150636609846   -1.41430716803311    2.25615083382646
C         3.65828747171211    1.01547514591691    2.17709935476382
C         2.91936820651781   -0.18415270503721    2.58027737822329
C         3.05998504292109    2.95411884332624    0.77404341958496
C         2.88774362990005    2.17243906665892    1.97529685538041
C         1.77050473317469    3.23048682857404    0.26275842114917
C         2.36533383423336    2.04090594738098   -1.78472365222051
C         1.39633514571153    2.77085137454357   -1.01234106378262
C         2.84967525353138   -0.31436923619090   -2.39583319532429
C         1.91251625133238    0.79551913896684   -2.36698657332450
C         3.08679241646073   -2.54534988682560   -1.39023227453916
C         2.30475558378178   -1.62376784057332   -2.11106237287021
C         3.23391503036653   -3.17431607449535    0.81506697589112
C         2.65117779698500   -2.52025374840061    1.92796522061170
C         2.44957118427975   -3.30163253734679   -0.33764307544792
C         1.25551864276477   -2.46423329514876    2.05048533127636
C         1.47647203375405   -0.15380324749020    2.83505482143450
C         0.66320700131075   -1.32243545402676    2.67993983323592
C         1.50137938042807    2.20213766133006    2.29984169620663
C         0.84309144475942    3.02059861599785    1.34281077819494
C         0.77884509355504    1.09889877318747    2.77943451233510
C        -0.50418994403354    2.96164242334601    1.11761577882786
C         0.01387956916831    2.59339263005636   -1.26212250718732
C        -0.91012236168556    3.05405130421379   -0.26152455076684
C         0.51460225864657    0.55829511784341   -2.48817663667988
C        -0.44037949645083    1.59104917048362   -2.15892766356302
C         0.88164196881250   -1.82194026339625   -2.14464838140898
C        -0.01077073058981   -0.78269283543425   -2.54351245417893
C         1.06993369509979   -3.33454896365574   -0.21266196263477
C         0.46811030822048   -3.14884936626241    1.06882249958199
C         0.33206516591519   -2.86897265525954   -1.34221844864892
C        -0.94188210962748   -3.10172994408688    1.16021591023136
C        -0.77127139098644   -1.26462438572302    2.76645661094837
C        -1.56353052104262   -2.32428502723053    2.19357785161623
C        -0.65884078570482    1.17705056741305    2.73096834949824
C        -1.32721484698631    2.22188531167508    2.02470410497484
C        -1.41663580348344   -0.00687466735165    2.99772454256611
C        -2.73919799993517    2.20831651196099    1.76858184318608
C        -2.24477713980827    2.98094255738109   -0.52757536935936
C        -3.21737297460025    2.78316983275878    0.53836652377147
C        -1.85449113332647    1.40403080753560   -2.33971370126691
C        -2.71538616180071    2.34754294637295   -1.72079461038389
C        -1.43797261395717   -1.00247879511514   -2.54118151034769
C        -2.38650281710924    0.08892259312304   -2.60451389833705
C        -1.03617256222452   -3.00744058530767   -1.24613964539953
C        -1.67561569851329   -3.35062685080594   -0.01462617716113
C        -1.92218134031520   -2.21691008145082   -2.02061550304565
C        -3.05115748307576   -3.00709254675029   -0.14395029682841
C        -3.22052900783816   -2.35902033048871   -1.43163945144712
C        -2.96832125060423   -2.19947625218048    2.13585467040431
C        -3.74698732821569   -2.55463879196525    0.95550281123781
C        -2.82383106067354    0.08324585030237    2.94004017956074
C        -3.52139541719687    1.20768983041023    2.34919580561212
C        -3.58751607037160   -1.06450461532267    2.67812507017101
C        -4.80179943905474   -1.57892860091120    0.77623908128716
C        -4.72658940369439    0.71626938388633    1.70717166847478
C        -4.73248323135754   -0.68931097338124    1.87100050100450
C        -4.38872749316183    2.34345037427391   -0.05910704751391
C        -4.08057282509089    2.07640265438502   -1.47770261039215
C        -5.13397243226783    1.23978658259636    0.46160741021927
C        -3.75213190789040   -0.17566355360676   -2.30633090467986
C        -4.15479685112306   -1.37705398175053   -1.60548146027260
C        -5.05387276501697   -1.03505246620576   -0.50785157784951
C        -4.60050182756704    0.84212076773134   -1.78709636840804
C        -5.33889018816076    0.33321978473557   -0.61977550577973
