54
C54 Isomer 499 Symmetry C1
C         3.28075481823771   -1.46336729458872    1.11810448785934
C         2.42860589549341   -2.50157490971808    0.91752514459212
C         2.24942078563431   -2.67205081162899   -0.53473991704770
C         3.77508250395708   -1.03471066091831   -0.21730386142423
C         2.89387523314865   -1.59572027027711   -1.20287145450417
C         3.96411947574911    0.32370234310646   -0.13965297573681
C         2.82442569091779   -0.30192599925858    1.83600249411182
C         3.39305749437586    0.79341773597422    1.14736003106719
C         1.48145288469458   -0.23311365292770    2.33484446785425
C         1.14327400900927   -2.54325049515000    1.53736736262834
C         0.65164944092616   -1.42339767662332    2.27207429053480
C         0.92710318030274   -2.99482011089381   -0.74405725648468
C         0.30376828384535   -3.16144323784786    0.57329604248809
C         0.17224794526420   -2.33308727120415   -1.77044434415057
C         2.09157114775975   -0.73456045665073   -2.03995674462654
C         0.69703889213380   -1.07918033598028   -2.29670772063706
C         3.44828453145082    1.14846634207920   -1.14574100766851
C         2.45640101407738    0.64623129719354   -2.04404253237060
C         2.68918761018309    1.98803377856707    0.90933006867364
C         2.85861188098907    2.28837316251588   -0.47585167056537
C         0.84779005757451    1.08741835911938    2.32001024810935
C         1.42762315954733    2.20003785803954    1.55581310066128
C        -0.52145163201470    1.15259763269796    2.59378405746720
C        -0.79560116495468   -1.32261834188105    2.37131709793662
C        -1.33927080655132   -0.04937059595383    2.67630644303988
C        -1.06787354233892   -3.09983183255413    0.69065504885157
C        -1.65837901360336   -2.21857620328954    1.68241716596020
C        -1.21541443874962   -2.56929512403525   -1.69517403827041
C        -1.82540636196828   -3.09626091972485   -0.48740726088727
C        -2.10964511814763   -1.59492747452530   -2.18398109362652
C        -0.25992638804929   -0.03182151685081   -2.60475098612895
C        -1.65568593411011   -0.31972124271007   -2.52292760550632
C         1.44092486455198    1.67021108090311   -2.16837252520283
C         1.74825256606904    2.71169224496635   -1.21891562098340
C         0.10285611847623    1.36146521945066   -2.46174858757701
C         0.57325318953519    3.12060222114926    0.91501287968133
C         0.73213919818382    3.34931843888548   -0.51163906944183
C        -1.36257491358400    2.22094729008026    2.09912561659035
C        -0.84074232217165    3.14042644910492    1.18269788414923
C        -2.63814975332520    0.28249612132295    2.26659665911849
C        -2.63791214353112    1.67205577344051    1.83357260518541
C        -2.92547089122219   -1.80579241125146    1.13848240985070
C        -3.01827801531861   -2.33870294326224   -0.19637776001752
C        -3.23153181025351   -1.46836087873027   -1.25572488588866
C        -3.37955521332796   -0.50066066382974    1.35227906341177
C        -2.61756507704092    0.63097836731789   -1.96649148540129
C        -3.24378291689619    1.72274833796810    0.56447879678272
C        -3.50727921531384   -0.08614193566855   -1.05850907847076
C        -3.70998140810017    0.38141380656596    0.23552777268093
C        -0.88218808671385    2.31517108004447   -2.01989399328909
C        -0.54470603149345    3.31395324358603   -1.09224446191842
C        -1.54476017675025    3.33136244153713   -0.03432632539445
C        -2.23434870191924    1.90872919445907   -1.68369029941050
C        -2.62529079463818    2.52043544785930   -0.41943667665510
