80
C80 Isomer 20916 Symmetry C1
C         4.97932172653256   -0.42507193455836    1.03281774085426
C         5.11407114762588    0.51006950040183    0.03184298723410
C         4.65411189937234    1.79908712514213    0.54768362529564
C         4.35023320562575    0.23705748570716    2.17160727098259
C         4.07414370646883    1.59720747983819    1.83047190727731
C         3.32744171319532   -0.59111180306727    2.60270610977621
C         4.31108435726543   -1.66199309905891    0.78964276509767
C         3.37570846343981   -1.83909615080411    1.85094502325801
C         3.95814116588592   -2.01712731329477   -0.54132761860963
C         4.52751280251329    0.28952566270242   -1.25653548883863
C         4.01662438429931   -0.99689410392499   -1.57868796682671
C         3.91219526625076    2.39840070656168   -0.47580698810419
C         3.81361436040531    1.47973640377933   -1.60073467510641
C         2.79245290405888    3.13539029910620   -0.12286744161949
C         2.79317077928226    2.13362123006603    2.13449206084067
C         2.27814882711935    3.07243805622009    1.20845195095939
C         2.06603944185241   -0.07726010217398    2.99753675663710
C         1.80693323723015    1.32087806509215    2.81774326469508
C         0.99534681901160   -1.03670385641044    3.08772232295849
C         2.24096455220529   -2.64455581828715    1.71418453018212
C         1.02480149355275   -2.32404890721970    2.43291042273822
C         2.94373202213589   -2.98937802462443   -0.62308487399582
C         2.17089085535484   -3.36647455744399    0.50775863818048
C         2.05732800263101   -3.09382291946884   -1.75245709115074
C         2.98636904552876   -1.00143856128742   -2.55058983817908
C         2.03676067459256   -2.07338949275901   -2.67307128065590
C         2.62808565263017    1.43717518821815   -2.36253149253278
C         2.31086228080747    0.18893045186636   -2.92466941793009
C         1.67460249509493    3.22779198286249   -1.01843581842734
C         1.53173396467995    2.34953870322245   -2.10403510677171
C         0.87921672865008    3.37534437451251    1.13189848244587
C         0.54402541120199    3.58239467675382   -0.23617166981635
C         0.43334870934271    1.77152044860722    2.84716767692315
C        -0.06669782078808    2.81956019152891    1.98856586374096
C        -0.24594180704601   -0.51428988122515    3.43185361419679
C        -0.51568177448035    0.87692694219974    3.32512729085608
C        -1.46226833846208   -1.21637295989412    3.23579250081791
C        -0.19640646200423   -2.97954670299721    2.10015561872737
C        -1.46461508213922   -2.45602230539570    2.57835155604445
C         0.90097064560720   -3.84706974526809    0.06727249438522
C         0.81613598866263   -3.66719635026949   -1.33950778406924
C        -0.22844056701976   -3.79607365530377    0.89608643898698
C        -0.41223350847098   -3.27981695474653   -1.92118246576327
C         0.77057964628003   -1.54799553730384   -3.12149289465172
C         0.95621476817108   -0.13998792445513   -3.26059386834800
C        -0.46052998386913   -2.10599610264909   -2.75897260675875
C         0.18723377507568    2.03659379719553   -2.51154525153125
C        -0.10205528831287    0.73968672735526   -3.08166736900423
C        -0.75360543091660    3.43462844720204   -0.69467425398035
C        -0.89994585902210    2.76172649814719   -1.95368126072989
C        -1.46336038151197    2.91934426541321    1.61495540003113
C        -1.79720280577807    3.40237716240305    0.29941980061624
C        -1.92089428645315    1.03460009112407    3.08941912406387
C        -2.51777326024647   -0.25174753285018    3.10984897078382
C        -2.41838986755341    2.08768115189854    2.29367012105743
C        -3.66485014378568   -0.53948572946163    2.33389454298036
C        -2.69041107701543   -2.80052851399978    1.93816492314067
C        -3.74907267253444   -1.81650744833854    1.74673543550020
C        -1.44360316580946   -3.96938635741682    0.20081882563086
C        -1.54512744574812   -3.59979465016698   -1.17706224265446
C        -2.67450915815788   -3.62440529802306    0.80949713177710
C        -4.21557538076403   -1.94205467935898    0.40743620163490
C        -2.78388713589037   -2.88205409295914   -1.35492050468047
C        -3.53104448635728   -3.03926284710769   -0.17633035628945
C        -1.62809375971353   -1.24861729281035   -2.74218269391435
C        -1.42141471357314    0.14979319310837   -2.99918572793644
C        -2.83254663580741   -1.66000975119276   -2.07365163878766
C        -2.21284617616823    2.36202330858540   -2.29635706645911
C        -2.48303177608123    1.01787940282819   -2.76005947568989
C        -3.11190305488057    3.24128628687184   -0.19644747376362
C        -3.29598187537293    2.80692870797005   -1.54957778633118
C        -3.70688300830086    1.86899452622116    1.72426246073049
C        -4.27848717627140    0.52978296930529    1.65706530039524
C        -4.08269351102542    2.56466930907791    0.57760408828954
C        -4.53493512622429   -0.82637910607370   -0.39454277081921
C        -3.86259317109832   -0.70402399115272   -1.68561633813641
C        -3.73065814010510    0.59000737549457   -2.21990551482701
C        -4.28894330093494    1.73328519731974   -1.55615724005759
C        -4.83209732633986    0.34878836884798    0.35014884737716
C        -4.79492097760576    1.61732029404557   -0.28540873435274
