78
C78 Isomer 20004 Symmetry C1
C         4.59225790199401   -1.97078509092293    0.26004500064952
C         3.87165888072022   -2.65814770617589    1.20910755683415
C         2.96089291696674   -3.57092863274327    0.51201140678707
C         4.03114308403072   -2.31719459704185   -1.05756481699764
C         2.98044298712570   -3.23961953166768   -0.87724230982211
C         3.83999195423672   -1.12237794150114   -1.75567663845862
C         4.73270230344810   -0.57337536349513    0.34871777748184
C         4.52284691399596   -0.09204160895579   -0.99775844573787
C         4.12245475702186    0.13879865192518    1.43463556465918
C         3.11112353443009   -1.94655384757652    2.18750346265948
C         3.15708393110070   -0.53555206772826    2.28486375921750
C         1.75584213416839   -3.58253080316483    1.20452803676750
C         1.85907232892655   -2.61873223747406    2.27898323789848
C         0.54147423665500   -3.74012520223803    0.50625252573490
C         1.75978401119578   -3.03117249642662   -1.55679294133799
C         0.58647586305191   -3.57038038029762   -0.91478536905490
C         2.60614444119188   -0.83579683487912   -2.40859717760359
C         1.60574926836097   -1.86638739900867   -2.39490070060757
C         2.20909669365937    0.55694298866391   -2.55612106502367
C         4.18504297704500    1.21209537120321   -1.20855150683816
C         3.05257341305386    1.55530971856768   -2.04028276609632
C         3.93304793978190    1.51465622481060    1.20665594640301
C         4.17741250362711    2.06577864806604   -0.07374917238434
C         2.83294602983529    2.23866894824909    1.79980723031419
C         1.95616993429898    0.15066140254158    2.74106847202051
C         1.82005463271203    1.58095078051588    2.51300297266473
C         0.71532219032888   -1.99079088211453    2.72803733247083
C         0.77329049309789   -0.59080970692469    3.05838368263049
C        -0.65730347539277   -3.46606099115395    1.23056314440120
C        -0.52565419780080   -2.66542313877843    2.41724297285637
C        -1.91570193516436   -3.48282693477751    0.53032403145335
C        -0.63092390098583   -3.35578576252637   -1.55257113344404
C        -1.88000393672717   -3.42067838391956   -0.87870352032613
C         0.29838907092392   -1.53270200241244   -2.88336733652843
C        -0.74287659929651   -2.43945920692631   -2.63867998383689
C         0.82728406880001    0.90545216578428   -2.80727312401773
C        -0.06020803896745   -0.15807993386833   -3.17488306444361
C         0.27939380422491    2.15094773487230   -2.34927728999798
C         2.49972209467148    2.76349891912843   -1.49818229871896
C         3.21892829377407    3.09362744477442   -0.32076423289746
C         2.50305874057262    3.30476497024332    0.87936571135885
C         1.11468510225199    3.03526919937789   -1.58655098107176
C         1.20382265091901    3.72873510679836    0.76378935065333
C         0.53421647374861    3.73429093793027   -0.51096075555076
C         0.50827259962176    2.21073793678228    2.57348285763495
C         0.26105686058166    3.32990539435569    1.75198813306113
C        -0.49136140952839    0.06520954689109    3.32127064661530
C        -0.63871963923360    1.47809683680785    3.03908943485221
C        -1.66743189957861   -2.09553921248343    2.97176930457657
C        -1.64769195370934   -0.71807297711625    3.42590689438557
C        -3.06121954199513   -2.92662830364860    1.14133716177297
C        -2.93154377719045   -2.37881414066358    2.42905646927201
C        -3.99446512078258   -2.09855710313608    0.41595909615601
C        -2.83737337153001   -2.65901385768619   -1.62732931449431
C        -2.12582889356417   -2.09350072343506   -2.73596369494111
C        -3.88346936073003   -1.93637997857372   -0.97943874214807
C        -1.41188105432761    0.15033302154693   -3.37174186319990
C        -2.46371722380876   -0.84124968188894   -3.21603433654734
C        -1.14773355442565    2.32406772305292   -2.24361692532033
C        -1.94538552780504    1.39881684819176   -2.92570096369969
C        -0.86624642992536    3.65983893549936   -0.25223934008444
C        -1.02599436131001    3.54820392745562    1.16520981553390
C        -1.75162059799376    3.01798317488264   -1.12081799769931
C        -1.92748654816791    1.95636503793158    2.72850103558940
C        -2.11690643792569    2.91664025791989    1.68780185507519
C        -2.96197185166636   -0.19488324126573    3.13696220929195
C        -3.74307728672817   -1.19180271264737    2.51242489212415
C        -4.36015394891046   -0.98494831711057    1.26519667072601
C        -3.07618362511141    1.10635060584941    2.66524521217739
C        -3.01620809742362    2.55310707316074   -0.56094740613871
C        -3.18097350228874    2.49722211231551    0.83408459136698
C        -4.43540956228863    0.34002464885608    0.73156291349239
C        -3.83281560888013    1.38804143926285    1.48427155097302
C        -4.25299142581563   -0.66949803835054   -1.52722871111642
C        -3.61201067012369   -0.21015992837823   -2.69812299777620
C        -3.29872594571768    1.18546616041466   -2.54072573465219
C        -4.42862983969260    0.47810972626790   -0.66806087791366
C        -3.77302786363757    1.60439728018663   -1.29480438406537
