78
C78 Isomer 23972 Symmetry C1
C        -0.44641110701029    3.70127988194932    2.24926152616286
C         0.56856055904585    3.85757916101527    1.29407234174100
C         1.73148690575025    3.14162440356501    1.77986999699147
C         0.00352486209985    2.71389275812969    3.20143910128445
C         1.34033829942178    2.38433369218634    2.93308489997924
C        -0.97641042577430    1.71483518415033    3.31348632035300
C        -1.76944486030693    3.36875631147600    1.88930571202674
C        -2.12805659098452    2.12494951347003    2.54362906277395
C        -2.12510967878562    3.56401809283478    0.56751330269135
C         0.26419703201159    3.81991600576523   -0.09548378118851
C        -1.10729478107835    3.78886541474737   -0.42605658769287
C         1.21813690310454    3.26183487375995   -1.02164233549059
C         2.69510052584561    2.66480705162089    0.89866883280551
C         2.51860263557345    2.85231491537374   -0.52984220315817
C         3.44072815242030    1.54706397123395    1.37027731471587
C         1.76028265577441    1.04961948369653    3.10978575247983
C         2.93561019329091    0.71762363629206    2.41065367548990
C        -0.60422241965625    0.36274446167507    3.41082839316742
C         0.79898146915685    0.02285364941088    3.39981480007123
C        -1.61458787343473   -0.58902398491263    3.01318209043440
C        -2.96425300261128    1.19190408909625    1.92115047708075
C        -2.75805742057919   -0.21280508756839    2.21327939198072
C        -3.15730834313115    2.75160699401535    0.01275128239030
C        -3.63413947067927    1.61181483733433    0.70277970711758
C        -1.57656202645777    3.16150624750088   -1.62626676044087
C        -2.90489202755828    2.68856473974699   -1.39870828293518
C         0.70870903418545    2.66549004436796   -2.22679500441075
C        -0.69631198931403    2.46117715844568   -2.45515750426031
C         1.55213825351506    1.83236674440636   -2.98155893515223
C         3.35897378346227    2.09179765210484   -1.36536544746380
C         2.89151113132983    1.68764473028217   -2.62857201759073
C         4.18551367556538    0.71554444735933    0.47355631523806
C         4.18740359078517    0.99809032504343   -0.87227216618460
C         3.28286801553638   -0.64051212508077    2.12830751414648
C         4.10030009106879   -0.64654577769292    0.94942924435811
C         1.18581660820280   -1.34115831480461    3.16808272408745
C         2.41098901761106   -1.68257160839297    2.46000759272341
C        -1.23000921594039   -1.92917619757492    3.07033627870165
C         0.15958322364052   -2.29571670577899    3.20671421143059
C        -1.88311776204175   -2.93522792992143    2.29172900963951
C        -3.37074909049144   -1.21100340640520    1.37072156668632
C        -2.85109283936285   -2.57058283724632    1.33401739685648
C        -4.23971899433963    0.60996907462970   -0.09197072083042
C        -4.11681196659924   -0.78409316666527    0.25397133287970
C        -3.39650552208393    1.63978700772680   -2.14734956437400
C        -4.25374373119776    0.72386045525881   -1.49732684967349
C        -1.16360581236519    1.23845733020568   -3.09575586022743
C        -2.50136187270730    0.88645512078404   -2.98526010341569
C         1.10072802536560    0.54587790243101   -3.47311096575235
C        -0.21994613911421    0.16757040584435   -3.37953207931388
C         3.30391563686639    0.32123324058905   -2.89045840243557
C         4.10301254634419   -0.10278351452763   -1.82015788433926
C         2.16925706611350   -0.40077324491510   -3.30890818645101
C         3.98880438539794   -1.68342896751947    0.04526170644406
C         3.91166252325229   -1.40881730338979   -1.36290757279988
C         2.43189075189638   -2.84278546750988    1.59118290201783
C         3.10251304081109   -2.76140293450809    0.35379174686724
C         0.32237489034509   -3.55256903746896    2.57194897349082
C        -0.92710723237321   -3.94440265906256    2.01290851375066
C         1.34057779468046   -3.73118577002557    1.60459563188043
C        -0.67749650705170   -4.35862848373093    0.67541401105180
C         0.72624313592646   -4.20001133166334    0.39427806487350
C        -2.77554242885806   -3.25944441228935    0.09553337907471
C        -1.59523538356760   -3.99105898089789   -0.27787205217936
C        -4.05293626288237   -1.51691630476087   -0.98394674324635
C        -4.00423724663299   -0.58234125942229   -2.04966212577080
C        -2.88437650460656   -0.51020787771620   -2.89209063495840
C        -3.23737210100215   -2.62433184851271   -1.08698203557693
C        -0.53195231777871   -1.22782952721601   -3.12819203012190
C        -1.15966643254875   -3.49233946425479   -1.56461409071168
C        -1.90355754760891   -1.54647846193703   -2.87067369987807
C        -2.19789692973524   -2.67508144196479   -2.08452863597835
C         1.88610446169330   -1.68718830644597   -2.78555264280115
C         2.84713266553017   -2.21024070328896   -1.88489236304846
C         2.43375676259402   -3.11728133463298   -0.85369270582527
C         1.15563694194369   -3.69418931982678   -0.85298146383510
C         0.50950092976594   -2.11761905417793   -2.70217820041464
C         0.18763368132728   -3.23487685581520   -1.83730345800834
