70
C70 Isomer 5437 Symmetry C1
C        -4.65842268040919    0.80120686820156   -0.17440977096063
C        -4.55491118907179   -0.36871389834674    0.56422044841831
C        -4.11062505105509   -1.40783203225461   -0.36099102592101
C        -4.03745683665746    0.56336916833312   -1.50892336499407
C        -3.63621298189067   -0.77979919990965   -1.55886043243158
C        -3.11760976218771    1.60178126266275   -1.75181580470617
C        -4.10594899073268    1.95421005787931    0.35274429754751
C        -3.31963603476990    2.56777080744786   -0.71409877687225
C        -3.27063951311227    1.89924610146762    1.51340922534001
C        -3.70565268733559   -0.44697892085802    1.70791891500537
C        -2.94269520424515    0.66855562680318    2.16132326778263
C        -3.30069501446714   -2.29111890087456    0.32895697510960
C        -3.05520631538830   -1.72128792916512    1.63313629416428
C        -2.27418673015189   -2.97229399583862   -0.37489311905208
C        -2.34783018686556   -1.13021853467950   -2.06697405642227
C        -1.81090667684332   -2.38970940111192   -1.62059679085265
C        -1.78555770053017    1.31016297963881   -2.21856443377425
C        -1.45922743890164   -0.07286408069194   -2.48612779285996
C        -0.73109703350569    2.23283378108024   -1.90789155561654
C        -2.21458124974600    3.15474234463296   -0.14004275702041
C        -2.20894567088444    2.81215941194689    1.26653027619975
C        -0.99065914835780    3.20327090087454   -0.86539383681549
C        -0.99839750904851    2.74184510327769    1.94114420647781
C        -1.57522503707689    0.45383821133960    2.65977393031242
C        -0.62721037863857    1.54184002143355    2.65995404096075
C        -1.84819426193626   -1.97944969305477    2.27011465205347
C        -1.06122369547809   -0.88736445372435    2.80829779643881
C        -1.38747470194634   -3.65043202518751    0.45054746395499
C        -1.22327372922640   -3.18162821163791    1.81744191285208
C        -0.09741490857152   -4.07910955705904   -0.01645129194115
C        -0.50050118714043   -2.69989652150891   -1.99564313331336
C         0.35613155259059   -3.58976814631881   -1.23547582003278
C        -0.08671557705528   -0.38385077655995   -2.75554316198383
C         0.31156800282934   -1.73395629653523   -2.63669121745837
C         0.64936040812192    1.93548352354277   -2.20820173720593
C         0.93795609153077    0.63615071481438   -2.74170888711788
C         1.71760075408894    2.71742353981038   -1.59851088475531
C         0.04293452175766    3.70366356257134   -0.09847508129369
C        -0.00392815963766    3.55618429740710    1.34273179109308
C         1.40342544060886    3.58841089573097   -0.52330929768851
C         1.30719223121464    3.44857144843401    1.76872626120052
C         2.20010762349426    3.62612037577771    0.63556318074765
C         0.78102634716392    1.32027469920901    2.88989656084132
C         1.72765696059931    2.32587086809564    2.51232277271388
C         0.34642722398281   -1.11992362623585    3.01691513451606
C         1.27890275590035   -0.02100604079480    3.02326018593257
C         0.08550180301941   -3.43335562876895    2.18803575512542
C         0.80305778327925   -4.04248189492475    1.07392290501121
C         0.88183699651264   -2.41357815277117    2.74706833076148
C         2.06629947904449   -3.46035612018171    0.98414527043483
C         2.17308284510710   -2.57553223429910    2.13470952052838
C         1.70669473656266   -3.14715295260014   -1.37135881457268
C         1.67409951695121   -2.10249007116915   -2.36698300392595
C         2.59108727257691   -3.02312806890767   -0.27077377411336
C         2.29390829296109    0.20174237024010   -2.75932895535334
C         2.65256051196041   -1.16633688701772   -2.44002601335449
C         3.04058203039755    2.19242602085984   -1.54009450718185
C         3.30623580368618    0.99076693623981   -2.21242901122540
C         3.30693314727936    2.77866770728733    0.81451603156957
C         3.05061276175343    2.00655223302008    2.02622197957306
C         3.81726104723763    2.15868597166529   -0.31293287266446
C         2.63270294340829   -0.27608949138773    2.68117749160921
C         3.02154832764253   -1.51392743963938    2.08490903948042
C         3.47881596128702    0.70682819295439    2.08521888929263
C         3.57830815033220   -1.95341497407634   -0.28045816814858
C         3.72397295436121   -1.17120309861436   -1.46192485268645
C         4.17952318119264    0.15118565414992   -1.39979671011886
C         4.39985124797765    0.83397720182814   -0.18908686632086
C         3.86750540706701   -1.27424930249506    0.93446623340095
C         4.22199112738414    0.10267969854314    0.98946654430642
