76
C76 Isomer 4004 Symmetry C1
C         5.06495104321387   -1.51018589371743   -0.97460894469756
C         4.92357223331249   -0.23587747968654   -1.58610640253727
C         4.81851254629943    0.77528862536008   -0.58436519853783
C         4.84886310992942   -1.32189800673393    0.41873033276810
C         4.71209733509285    0.07908107333485    0.68639174430652
C         3.78763667223094   -2.15914901232615    0.83916843246504
C         3.99160241759766   -2.32797264787484   -1.45752238652016
C         3.28593809600855   -2.84524802013036   -0.34420531663819
C         3.89390541881505   -0.33422792742354   -2.58542703040536
C         3.23978536067339   -1.63360671657715   -2.45130107555052
C         3.10756907094197    0.76521737951218   -2.80807713396735
C         4.03283687556676    1.92709364733135   -0.83680298944590
C         3.23567558526837    1.96353951405593   -2.02057477188944
C         3.50858153577338    2.58943580041500    0.29099016771207
C         3.82282495088934    0.54487334797045    1.68438656750358
C         3.49030648614169    1.91613555079307    1.56780451557403
C         2.87545981616848   -1.71123940509727    1.82801288428515
C         2.84737538530388   -0.34460791567826    2.29787380072501
C         1.68162274645668   -2.42771457193058    1.87180328908586
C         1.92684476808829   -3.14008637616113   -0.48175200713991
C         1.25660611383069   -3.23696572754853    0.75793331162062
C         1.83044024840850   -1.75596230745902   -2.51026619809266
C         1.16723370099620   -2.66715781212171   -1.62065021901025
C         1.71637185185414    0.58355385017662   -3.13565204427391
C         1.04068915054826   -0.63539290692590   -2.97695062930830
C         1.96341474948668    2.60066747512251   -2.02057902015640
C         1.06015112894973    1.78216109547578   -2.78922317149279
C         2.32766261427023    3.40724489481736    0.21324903487893
C         1.47379580939107    3.34406233210369   -0.92381823144614
C         2.40117864465435    2.42001111521237    2.29469743376645
C         1.73316781120218    3.41294771388152    1.49182193288887
C         1.59695056707391    0.17179554882691    2.80540313767666
C         1.41639865579632    1.57251629512218    2.83123036248506
C         0.49867203283590   -1.94065676915403    2.49053846881362
C         0.35980999915724   -0.59687609282523    2.83764654247815
C        -0.12443745209327   -3.36260928759014    0.79348995310067
C        -0.60559818025170   -2.64621916163922    1.94427373683390
C        -0.25928263156974   -2.67705091367364   -1.56148165578181
C        -0.86597842825305   -3.28673656101030   -0.40933022419373
C        -0.39337210689871   -0.60029608871770   -2.83574534445784
C        -1.07923099337846   -1.73494141689790   -2.29223900725453
C        -0.31455877168825    1.83553974187697   -2.64670810491860
C        -1.09331061597492    0.64746267612451   -2.86294374104942
C         0.05138025350618    3.41137727453639   -0.74624904622076
C        -0.79892584751725    2.86470623311578   -1.77650323244640
C         0.35643361816319    3.24710132891928    1.65880090449245
C         0.12014033944156    2.15041214581183    2.55746484810408
C        -0.51226403079446    3.40537986535791    0.56472911630789
C        -0.97500690845123   -0.00980456912239    2.71861913786646
C        -1.05562771313702    1.40172071780831    2.48202354947682
C        -1.89867112931405   -2.16317103502980    2.00283901438128
C        -2.13136608712402   -0.79184359239078    2.38495960377815
C        -2.22999470538499   -3.18053669816421   -0.22271377237178
C        -2.76565624752404   -2.80543447273855    1.07245426605058
C        -2.51798761921568   -1.69581775357027   -2.13386017907645
C        -3.08179291117500   -2.62451312747721   -1.21837017524037
C        -2.51908311534035    0.71037965169430   -2.67911078811867
C        -3.28630764697024   -0.49132763300459   -2.43621553814977
C        -2.15813769738446    2.89473968116639   -1.59240061594375
C        -3.03521237631018    1.96954059397272   -2.26626615563349
C        -1.85651692822253    2.98554372569307    0.80678877872802
C        -2.17649586212098    1.97087651445768    1.76438440111384
C        -2.71865456553552    3.16103316084725   -0.29300039280795
C        -3.38978982070854   -0.17694507054669    1.98804342876370
C        -3.40926878881797    1.23762665152794    1.66016779721022
C        -4.03517885523152   -2.30603780371886    0.89367684982377
C        -4.30935872910258   -2.34529658135202   -0.54863085417241
C        -4.38921453757965   -1.01958332784017    1.38944363742343
C        -4.60767992584672   -0.34407815781878   -1.88419532610682
C        -5.05392503410353   -1.25134324781445   -0.87418561266181
C        -5.27874387190987   -0.49626437597045    0.38635129309286
C        -4.27061158834395    2.04547601707218   -1.57671262550805
C        -4.00077781088153    2.64600563263298   -0.25677970807844
C        -4.40192969897491    1.73612496007180    0.74509544685323
C        -5.03895811804001    0.92977691184300   -1.39486183295738
C        -5.28355139216798    0.82522772141762    0.06709898182507
