64
C64 Isomer 2878 Symmetry C1
C         3.92695004556314   -1.64830677319577    0.01340324182662
C         4.14936281282271   -0.64608348591409    0.93199595460680
C         3.25024071472046   -0.87699003043365    2.07515355631630
C         2.94226442756745   -2.56533714022089    0.59372732339912
C         2.45961253586528   -2.03826918395470    1.81876346826262
C         2.03049406755502   -2.91705517848662   -0.39573986519631
C         3.49106988968524   -1.34024147590529   -1.31238717252739
C         2.34050312131563   -2.15049164711012   -1.58922664414642
C         3.46726944393592   -0.00686428306921   -1.72149362987402
C         4.07340607090308    0.72447492019146    0.55421657371826
C         3.83397410913859    1.03831401022507   -0.79246657877538
C         2.65974375264322    0.34075601690706    2.39543895774565
C         3.26577807680292    1.36961419667575    1.56096993237087
C         1.28469859946284    0.39856924657984    2.76908291508218
C         1.07339535962014   -2.03306164186101    2.09998479761787
C         0.55442493284080   -0.85350405864744    2.77015984364632
C         0.70004897619094   -3.21282328192929   -0.02895565055061
C         0.19303958606892   -2.80848667290951    1.25663635695191
C        -0.17852945856478   -3.23632266912810   -1.13497482133696
C         1.28355447163197   -1.68729251441565   -2.40146772526356
C         0.07278002059495   -2.38878892616680   -2.25942758042360
C         2.37435366965917    0.47512027173973   -2.53368891059835
C         1.25553071133244   -0.31654072311801   -2.86841872400418
C         3.03834214001624    2.19324044094345   -1.11000804686304
C         2.22097264112243    1.87034979390297   -2.25172395898933
C         2.51559402810167    2.47511995506705    1.25040097246475
C         2.47803892733906    2.97290931126047   -0.10455322615543
C         0.58381722883722    1.64126740243626    2.59275034783665
C         1.22309538893621    2.66741487507767    1.84622780037587
C        -0.86174481083302    1.67406356411881    2.66487276312742
C        -0.82547193975354   -0.77954167025434    2.94329984388462
C        -1.51417379503496    0.46755263075061    3.00198890582804
C        -1.24128404627179   -2.67734835319465    1.41769635045684
C        -1.71971061121240   -1.76564170824811    2.37431058425705
C        -1.56585791935622   -3.25187181554696   -0.92622520581722
C        -2.12644726447869   -2.94838336561482    0.31790600026275
C        -1.18996662919479   -1.81754201734137   -2.68501435252799
C        -2.20576880750535   -2.45234001008496   -1.95228751870668
C        -0.03336619418765    0.31983784142264   -3.09680908088829
C        -1.27079431102266   -0.43674772935618   -2.98708164482702
C         0.99319894116887    2.47344682049218   -2.43087573870885
C        -0.11696300771723    1.71346484346470   -2.92397271826403
C         1.19897467970368    3.59557473382467   -0.28613866584471
C         0.47001902693185    3.48835478708537    0.95823207141543
C         0.50178560028070    3.43113060352304   -1.47494838648290
C        -1.60248697360295    2.59893612527262    1.88380634024074
C        -0.91745240598434    3.43691412788628    0.95419720740352
C        -2.86842049157266    2.24184463748178    1.28568935740973
C        -2.85115707377167    0.22496184846773    2.57895028231898
C        -2.98532830192434   -1.14117918785988    2.21295043519657
C        -3.49251384363366    1.04551942897748    1.61287037923072
C        -3.30317435185980   -2.12820318109090    0.05354730766353
C        -3.26574825231349   -1.74996144600550   -1.34922738483894
C        -3.70951485185102   -1.19942952639881    0.98900861987598
C        -4.02347596273643    0.17084392938266    0.58891087585109
C        -2.47502558583650    0.21140944570109   -2.57830671991229
C        -3.43964300491399   -0.41989521001464   -1.72218569301829
C        -3.88047529246182    0.54379937689869   -0.73998089082816
C        -1.31413607003230    2.34296148508901   -2.43324195974683
C        -0.93286920966823    3.34546894648434   -1.47529445002494
C        -1.64529089692582    3.44648131964465   -0.28623168930985
C        -2.84299480601180    2.67792179464016   -0.08518150871363
C        -2.46468571138362    1.60429923687054   -2.24066346752434
C        -3.28886211674123    1.81360693899148   -1.07894975595524
