80
C80 Isomer 18497 Symmetry C1
C         5.19826612808267   -0.22019877213846    0.84457814330990
C         4.85081091512252   -1.54299984091395    1.01343301516904
C         3.92476868999769   -1.62483684819926    2.14695462456265
C         4.48684814618677    0.55669214793729    1.86320565554104
C         3.60572118492082   -0.30685424162046    2.57765020096238
C         4.00842638366529    1.71751656351249    1.27733750279373
C         5.02992183911978    0.43637036841151   -0.41311718266448
C         4.43333956259839    1.72490567362921   -0.12283204649700
C         4.53992394318223   -0.29815815086347   -1.49854182885375
C         4.28565088462380   -2.28706991072053   -0.06714537102113
C         4.14530553744671   -1.67118979955623   -1.31727445856418
C         2.90034263711882   -2.49562331022434    1.80797368538234
C         3.15797397690552   -2.98922822685433    0.46265993102093
C         1.57092968311071   -2.23682030375968    2.23494801037943
C         2.25397879531134    0.06877788941936    2.78484395999469
C         1.23439373921634   -0.95465583450901    2.76340108639252
C         2.74003859338426    2.22186417908010    1.65908773468270
C         1.86478142528859    1.41409109725248    2.46538699004189
C         2.15740800588862    3.16716231111771    0.75282471271593
C         3.62857964649438    2.33712393435386   -1.04879865805463
C         2.55141559886131    3.16883927131473   -0.60894550281611
C         3.55750775772073    0.30162581292313   -2.38237238747812
C         3.17658844115955    1.62243259947164   -2.22032819497188
C         2.92725665702000   -1.87052823217510   -2.05554422566859
C         2.54837392590486   -0.64468183119686   -2.71132164937615
C         2.06077843188232   -3.30026576909707   -0.31776358660821
C         1.92592413921599   -2.72773919084726   -1.62956642342964
C         0.57068774891581   -3.07577566207838    1.65446681207216
C         0.87345899965481   -3.66551246956032    0.39300414932254
C        -0.78805848737695   -2.89974715612695    2.05141978251926
C        -0.15980965160649   -0.60512853718946    2.85417826134508
C        -1.14014590162750   -1.64145022832354    2.66615394575858
C         0.47072061296310    1.75994097801363    2.57701957593424
C        -0.55014736683407    0.77358104740613    2.85042261137652
C         0.85772109241120    3.58565213280859    1.00744868236214
C         0.05691732849728    2.98135257050748    2.02863297862132
C        -0.02763493626105    3.97077344926516   -0.03763803096323
C         1.53234810404556    3.10115164130711   -1.59150553326363
C         1.83702925308377    2.01797902239701   -2.48558556636147
C         0.21336802329901    3.46314918229173   -1.33074257278741
C         1.19226635157274   -0.28484938302236   -2.90545442392241
C         0.81973901066082    1.10122249422166   -2.82662589249788
C         0.60019580693200   -2.55063939139231   -2.18213762015213
C         0.17836925229426   -1.28522680615667   -2.73985939740887
C        -0.17750175897459   -4.07417261361245   -0.42869351303423
C        -0.35164114093722   -3.44322417771750   -1.72883245138384
C        -1.77772035995155   -3.63987008956017    1.36017767573102
C        -1.43852586478579   -4.24309488270504    0.12553721867721
C        -3.12155398557474   -3.14176427391938    1.20971608937754
C        -2.49477983394207   -1.26230125971221    2.63468843972239
C        -3.48262260200164   -2.00812737452130    1.89161607474461
C        -1.94052845959020    1.13889734294607    2.70451392364919
C        -2.88513842046042    0.09838577164657    2.64915882813778
C        -1.31308476044229    3.28323641338712    1.75524565258902
C        -1.34452613551008    3.95702020232185    0.49305030610594
C        -2.34528289497063    2.41361494184944    2.14195527933479
C        -2.39600438298264    3.75179321167152   -0.38006637094554
C        -0.84614182348654    2.76611135065601   -2.03386300322153
C        -0.55958746847112    1.47268610771140   -2.63813347929239
C        -2.14157223164147    3.07228574023571   -1.64432782731443
C        -1.20444200988750   -0.92728731136924   -2.73015585444175
C        -1.57936496951288    0.47631842277593   -2.69497441484595
C        -1.74694901456892   -3.20391360316031   -1.91403142541402
C        -2.43127750347221   -3.86016970680312   -0.86115170810996
C        -3.50335135519093   -3.26272259455570   -0.19246029090760
C        -2.18712489164414   -1.93459370805017   -2.37786782506099
C        -4.11900391889024   -2.18735062599375   -0.82348304925333
C        -3.46698452067042   -1.54219200874591   -1.92411015212637
C        -4.41371492673921   -1.06999462068159    1.31829500690640
C        -4.12026489755451    0.21683989987930    1.90233103028843
C        -4.73669711526228   -1.16049989333278   -0.03013202037947
C        -3.55984359442111    2.51876588767309    1.39733333134577
C        -3.56627456522485    3.20858154058206    0.16487106674050
C        -4.42025361939691    1.37079453792128    1.22534963228336
C        -3.21381931658559    2.14548193745216   -1.85870192299185
C        -2.93949568342343    0.83672773359791   -2.33807468692503
C        -3.84581493720544   -0.16216038673041   -1.91504395937460
C        -4.74219132083964    0.04121405219025   -0.81682033701234
C        -4.17009185456968    2.34737608229113   -0.83411565355197
C        -4.78710777127144    1.27528348426618   -0.17973110894686
