62
C62 Isomer 1099 Symmetry C1
C         4.52247295048348   -0.90589849312140    0.00493846710314
C         4.31705748686474    0.44968895972966    0.26910682817062
C         3.55093769532666    0.60880475423319    1.49231056783600
C         3.79290532225267   -1.66562283691657    0.99076816497407
C         3.27369374744801   -0.72602510342341    1.94616811717823
C         2.90196712069460   -2.53568977009128    0.33304735621409
C         3.93797440544671   -1.18717242256029   -1.28831356619903
C         3.04866058310615   -2.27319326699602   -1.10021704911785
C         3.83840680469851    1.06009066777473   -0.95692954121023
C         3.47867141930490    0.01621655433458   -1.89905978534270
C         3.02319946222068    2.13432158979941   -0.83050309349329
C         2.58097347599910    1.62781428373333    1.58612660559671
C         2.57015250087804    2.55314814344891    0.49268631737419
C         1.30090883691195    1.38520574258914    2.26211086348056
C         2.02479104995032   -0.98464046937751    2.48139276943272
C         1.09768224954673    0.08016950101401    2.73498475398238
C         1.60182164146249   -2.80532246047285    0.87316228054682
C         1.26541895278295   -2.11932328126128    2.05236256437206
C         0.50390654476203   -3.16229036199648   -0.01195515223398
C         1.90802821798041   -2.29224858562646   -1.87014527114500
C         0.72278083647855   -2.92545469028625   -1.38270501290569
C         2.20798289903399    0.07354103254962   -2.54720402575541
C         1.52004337990268   -1.15556696970066   -2.66734049752383
C         1.92465269760074    2.35315918176669   -1.76678695072049
C         1.37357795799025    1.26301935808819   -2.49993087535453
C         1.43368796193484    3.30751981724255    0.27386388351409
C         1.08557800805196    3.27665087330450   -1.14940179329083
C         0.09980813601389    2.16458284774764    1.97319861068948
C         0.23543049690541    3.19078882223151    1.01032209177255
C        -1.24105610376106    1.62637058842448    2.18208541719615
C        -0.21506236488037   -0.50185374628079    2.79502395430367
C        -0.11216570245023   -1.84432611856465    2.35620204189779
C        -1.38837811082148    0.24766238363552    2.61006464412139
C        -0.86718407555346   -3.15713982882391    0.45550639521164
C        -1.17604570698850   -2.49216632349865    1.70536970687947
C        -1.89857125982533   -3.15180735759543   -0.51996060189861
C        -0.33367153139809   -2.42325596588978   -2.20034180242823
C         0.11250647949079   -1.20279071964483   -2.83602078443492
C        -1.62228580457786   -2.60343788271207   -1.81966236931302
C        -0.07076438599392    1.20648721631471   -2.64807797741543
C        -0.72367121722915   -0.07580663304708   -2.85393412436084
C        -0.29789915191589    3.24662929933234   -1.27130554886343
C        -0.82275212095506    3.45416705535897    0.06974272230588
C        -0.89709059492775    2.26845258117240   -2.11756610290186
C        -2.33661080854107    2.17988472395453    1.48132943097828
C        -2.09123881834720    3.04848688954429    0.35345230659429
C        -3.50317324240571    1.40271946461000    1.13190530470955
C        -2.54204907748588   -0.50993694096574    2.31652143440548
C        -2.44296606003155   -1.88202835517538    1.91673893009710
C        -3.65217333036715    0.08497030599124    1.59742355505160
C        -3.20482827627815   -2.69730354465117   -0.21678823996881
C        -3.50931081690677   -2.12378147794028    0.99970415619757
C        -4.23508538305499   -0.87983742289035    0.76331902629706
C        -2.60697944103784   -1.59534294029747   -2.16318991387794
C        -2.14529517547515   -0.29135424427001   -2.57570223708935
C        -3.66529598136383   -1.76682064844735   -1.27293378484901
C        -4.30387944904149   -0.66258766333448   -0.65615676123979
C        -2.27747204067676    2.04767363332260   -1.86595992590537
C        -2.89732444144462    2.61291251709057   -0.73632505998256
C        -3.84226838407791    1.66584721154396   -0.22115953289021
C        -2.93271629091844    0.77932765698728   -2.13100274965228
C        -3.99141417279155    0.60671286898930   -1.16035913712011
