80
C80 Isomer 18223 Symmetry C1
C         5.24977437523135    0.28312721077341    0.36199041829374
C         4.98481148805148   -0.69676829394706    1.30170801847783
C         4.21354255886682   -0.07820612390763    2.38621259104272
C         4.70717010001026    1.53767210628845    0.86378373799000
C         3.98476374820094    1.27642509386934    2.07946304907070
C         4.04678636613284    2.16027084554190   -0.19267375145747
C         4.80968112032139    0.12471964285779   -0.99604208152823
C         4.09243293029129    1.30595709118799   -1.36642195430653
C         4.28758319267992   -1.10257466118806   -1.39021776165063
C         4.33987187916528   -1.90934503583008    0.93568417227135
C         4.11116237964379   -2.15349717863704   -0.42080295958171
C         3.13317655549831   -0.91941348253285    2.67033356332168
C         3.24192688240816   -2.10473435685918    1.85643164303487
C         1.86511238008091   -0.38158444004896    2.98790080016857
C         2.70126109757120    1.84167569763331    2.29261943810862
C         1.66433659767303    1.03642341956108    2.89385545367684
C         2.92599408905051    2.97833419146339    0.08550212288148
C         2.31978616780617    2.90303638839142    1.39627923380697
C         2.10596046317581    3.24569343958246   -1.02076907763784
C         2.97457483371880    1.25407320608867   -2.22398072417285
C         2.07642280861656    2.33377583786884   -2.12510883448324
C         3.15334460843319   -1.15346771888861   -2.28397742128983
C         2.45017166757727   -0.00896310566877   -2.69542644365060
C         2.94503287020377   -2.89284762771139   -0.78612216467115
C         2.43873738869549   -2.35974987543265   -2.00935008115186
C         2.09420613933697   -2.81029032618042    1.51267819702948
C         2.02816596658347   -3.36296141935160    0.17774493819970
C         0.75126823842776   -1.27186705246972    2.92111273151955
C         0.87213352946937   -2.50798916254398    2.21250733929961
C        -0.55131075934670   -0.75001503453011    3.25198795297761
C         0.30951839059006    1.52811157825583    2.94249656372752
C        -0.81328782168421    0.65972438405257    3.20578977167403
C         1.02045421855858    3.39394497719961    1.52025002351893
C         0.06085627972022    2.78082212170091    2.36795614495573
C         0.78948914767371    3.76061604860295   -0.86582589949477
C         0.29622243173493    3.93738008481446    0.40582293087318
C         0.73717298935149    2.24221468798108   -2.58677905197542
C        -0.06432348238750    3.18479735566592   -1.87486584355458
C         1.04820021939623   -0.13117750733418   -3.07078420751867
C         0.19317673205027    1.02541612626104   -3.05203647886766
C         1.11140007574013   -2.52822827643169   -2.40531004541843
C         0.43101974372254   -1.42510087779128   -3.03831745499313
C         0.78042086698565   -3.75851889299237   -0.32446339983135
C         0.36477587510046   -3.45311292554812   -1.64255211622643
C        -0.32359738549573   -3.18409543401798    1.78218660307851
C        -0.37958794804651   -3.79584621152893    0.51033383075683
C        -1.63198513646906   -1.64508085419850    3.16475444913292
C        -1.55543402398648   -2.80399361777868    2.31376431932959
C        -2.94278516652662   -1.16250034156398    3.09446998361213
C        -2.16490044092102    1.13000108525111    2.95988034196034
C        -3.21897703030045    0.19435254143577    2.91822377833805
C        -1.25217409297674    3.12036479676442    1.88288252575891
C        -1.10234805268532    3.76760762030978    0.63252849233688
C        -2.37225460708485    2.34144421046223    2.19381360272255
C        -1.43810571764607    3.03132096913479   -1.68736249668754
C        -1.99353665018646    3.48580656491623   -0.42689674867945
C        -1.24437686754647    0.93604179374471   -3.03186766856153
C        -2.07179146745770    1.95507889161030   -2.41703750239812
C        -0.97367229950546   -1.50176436888828   -3.10681242572159
C        -1.79154347139147   -0.35332810944214   -3.15957485904452
C        -1.06422438513713   -3.43492740032900   -1.63206628205128
C        -1.54553572274105   -3.68127948598050   -0.30631688766059
C        -1.72849982951582   -2.52616687772807   -2.41412941494527
C        -2.77479684607991   -2.88986275289133    1.56063225547186
C        -3.65499660933779   -1.92221383868404    2.08608874250242
C        -2.74824183762483   -3.11177380367027    0.16217736474812
C        -4.27985162908506    0.25997223400660    1.91695760613215
C        -4.40202283562495   -1.04887651322266    1.29134546944809
C        -3.45870892920970    2.46285558748288    1.29681156953796
C        -3.24125452691963    2.99461094696346   -0.01047903530231
C        -4.42848108379179    1.39143258519962    1.16084134691939
C        -3.39808451463250    1.63178527949102   -2.05785990678284
C        -4.00376714369186    2.22100894860335   -0.92941200325260
C        -4.75035873656470    1.23597314099938   -0.21391064551692
C        -3.07448744761263   -0.69938731915157   -2.59721217037538
C        -2.98406974725608   -1.99071040115610   -1.98275085402501
C        -3.52770665176212   -2.23564122868880   -0.70246718780336
C        -4.38407576410853   -1.20221911305548   -0.13354467551270
C        -3.88134838111848    0.26672898328533   -2.07789999184695
C        -4.61939435008697   -0.01551666750137   -0.87037460807709
