80
C80 Isomer 14388 Symmetry C1
C         4.76877516978138   -1.97453932713556    0.20920462581760
C         4.02878759959804   -2.34267623446602    1.30682120539660
C         3.01825345891948   -3.31699036613507    0.88226728584258
C         4.18746348759937   -2.70842801791322   -0.94630292653006
C         3.00046083275700   -3.39429682996859   -0.53148633206789
C         4.12832365641585   -1.83179065341202   -1.99130126306809
C         4.88985524968045   -0.59816902098807   -0.13517891201867
C         4.68676678380563   -0.55082510076738   -1.56356269813180
C         4.29080063245592    0.40253933324140    0.67285703174995
C         3.38252743959713   -1.37308795135560    2.12120415846583
C         3.52665730500687    0.00110942659311    1.84262695245205
C         1.85999852930736   -3.04565211190365    1.59777130107817
C         2.07135385771346   -1.87402527469669    2.41861534347604
C         0.62109914805073   -3.22510413039248    0.97261821735147
C         1.76285020564903   -3.18630732922435   -1.21908832151940
C         0.56773033936967   -3.32245315658666   -0.44904732169187
C         2.89803215549721   -1.58421575230834   -2.69255247118473
C         1.70510173513939   -2.25954155680011   -2.33620389020705
C         3.92066308039748    0.43628731735107   -2.14418726988048
C         2.86118925659949   -0.19046766578575   -2.92823552229212
C         3.90156600253952    1.63607255640603    0.00386022961011
C         3.67430764308307    1.64163506035961   -1.43033664404833
C         3.22170471352287    2.59518001919446    0.74931968952189
C         2.48838522292752    0.85898571573371    2.37053993611973
C         2.57869119940091    2.21981835617945    1.99830154425377
C         0.99361568591354   -1.04972805683053    2.71727357741355
C         1.21298334705666    0.36333383672700    2.81465917191943
C        -0.49969511803944   -2.69733156864482    1.67301879966385
C        -0.32595656122780   -1.57716894969667    2.52118221263796
C        -1.77350880556137   -3.04982277327868    1.15342767245646
C        -0.69800665896690   -3.04156813011713   -1.05117942254579
C        -1.87374174952162   -3.27113030061245   -0.26220542625198
C         0.45954492823608   -1.61065735405224   -2.65716406910311
C        -0.76129702232271   -2.18459339488865   -2.17387700552886
C         1.65795873613609    0.48386807198686   -3.14177242172316
C         0.42591532826825   -0.25056691849674   -3.11611711520209
C         2.66397193651310    2.44094438638381   -1.96370510777911
C         1.66724133971581    1.86142381509924   -2.83533125776028
C         2.38836325129111    3.60219555018673    0.13991166873605
C         2.02626963848530    3.46604387711400   -1.20190538134793
C         1.49504690443248    3.06760523671409    2.20861396786205
C         1.35478133418175    3.93512486346860    1.05050134500545
C         0.04217276173996    1.21054819304286    2.84472960697534
C         0.22314421083336    2.57394687291620    2.54786328725480
C        -1.46465424610970   -0.73490601041979    2.73415447054444
C        -1.29265532405841    0.69466152027574    2.71414062005529
C        -2.87882157373547   -2.54724357561243    1.85412133947380
C        -2.71971684670507   -1.28582685303090    2.51505245820157
C        -4.15994977439676   -2.54952072208686    1.25423353270030
C        -3.11682767559366   -3.05085258505015   -0.88048508706905
C        -4.28289119681310   -2.83330013803957   -0.09324517406560
C        -2.02486623253964   -1.59661761030236   -2.53469540471025
C        -3.19087833266189   -2.16432905936419   -2.00872320803651
C        -0.80305491507140    0.48636801031752   -3.09041906372710
C        -2.04607462654906   -0.22205928662370   -2.98135478581247
C         0.45960361077013    2.52847661615491   -2.60336232554909
C         0.65348902839566    3.54174449183485   -1.58970984535681
C        -0.76809645464684    1.88635100784420   -2.78500670120075
C         0.00688776515821    3.96734140634028    0.69109207161666
C        -0.72876014858755    3.23252996628899    1.70416865203928
C        -0.37820604501634    3.77417354918796   -0.66649360241483
C        -2.34757593537375    1.47847588470101    2.14465076040061
C        -1.96258129985223    2.67902231461499    1.44450333764005
C        -3.86922784526139   -0.46764280789946    2.18412489490960
C        -4.80092355235358   -1.25664560262869    1.50389990066725
C        -3.63414088930808    0.89939143784208    1.83555294913047
C        -5.08773786825728   -1.77605148419961   -0.71148584546785
C        -4.42648276249737   -1.40474516382717   -1.89506375267515
C        -5.39606980073401   -0.80504751180322    0.29067878488774
C        -3.22640825976859    0.52126876086744   -2.83332894872496
C        -4.42126549249833   -0.05370783087639   -2.27235959918153
C        -1.89530133207095    2.49492652378965   -2.13837914600418
C        -1.68259674482248    3.24996545800615   -0.93726651629314
C        -2.56673029306749    2.97181421418430    0.16057370912172
C        -3.12750045479268    1.87686219280306   -2.34387016767602
C        -4.41787424203086    1.42087312094844    0.78719226990891
C        -5.24874010207416    0.55812902958510   -0.02649085003973
C        -4.99336389175955    0.88929461189100   -1.38248133240244
C        -3.81208190936252    2.40324019488633   -0.09641933978878
C        -4.16507252793232    2.06806136715974   -1.41594710627938
