72
C72 Isomer 1457 Symmetry C1
C         5.15006239801089   -1.49070683220735   -0.88374125095627
C         5.24234377420459   -0.13606904921709   -1.35145089298626
C         5.47014045361705    0.66226854810371   -0.20063083134857
C         4.96481442966359   -1.44971766993268    0.56323073599172
C         5.20595133795678   -0.16734057924292    1.01398713143423
C         3.69891681554376   -2.06508552280026    0.88874320410139
C         3.98184010964733   -2.05244746195965   -1.41735755130639
C         3.15755562661572   -2.53656626196306   -0.34674101816984
C         4.09242895347365    0.13945332024279   -2.17545027441487
C         3.35203516037175   -1.10257755775456   -2.29244347621001
C         3.32043227494934    1.32208126198525   -2.00687392795892
C         4.75315015542866    1.82603460486119   -0.04763176387858
C         3.73664887757298    2.21378855598743   -0.96722675201798
C         4.23509471733298    0.51345684537447    1.82661456319204
C         4.12609566793391    1.81423473793440    1.28944203162771
C         2.79376241752878   -1.46308696555855    1.79236885645452
C         3.02259977798273   -0.12081731825627    2.26396613858619
C         1.44276758954641   -1.94116289483019    1.74375876690794
C         1.78207413029249   -2.64113635493700   -0.54522656284438
C         0.95752532918823   -2.65328957549971    0.61997768012835
C         1.97150593744711   -1.13421631409537   -2.45363528815705
C         1.20193711941117   -2.13545955780275   -1.74427796778242
C         1.90932599762237    1.30170929755001   -2.35182698112993
C         1.26510785867523    0.08464295786332   -2.72908866467276
C         1.02092604497508    2.31216193331155   -1.85183386227729
C         2.70251812648580    2.79504612098653   -0.17448482677386
C         2.90356077223780    2.46900711168969    1.21323310576697
C         1.41013867260173    2.95059916857739   -0.63916013939777
C         1.85159673418585    0.69711142060814    2.49909393379663
C         1.79158368500999    2.01307772567080    1.96442133374292
C         0.46194114264918   -1.31048017008014    2.57134608565569
C         0.58988996375999    0.08409955759280    2.83166960248399
C        -0.81370152223086   -1.90937189021714    2.58974790135384
C        -0.43070408076364   -2.91605428239662    0.42411366914330
C        -1.26849781249559   -2.76456775103926    1.53677139512781
C        -0.19377982889293   -2.19490734147902   -1.90734120358428
C        -0.98685037597539   -2.83923146303284   -0.89744917884760
C        -0.14535846652892    0.01114974138884   -2.96196129232653
C        -0.80705343190822   -1.26393366471491   -2.81987532695083
C        -0.36649095634821    2.31669157327249   -2.20249872321163
C        -0.92998971377329    1.20404442448421   -2.91740886996972
C        -1.23218289990486    3.14057104461112   -1.45286655373914
C         0.42087640355826    3.23233248636276    0.36296689154756
C         0.53725030022977    2.62037539126972    1.64682988038976
C        -0.84073542575088    3.55085507027603   -0.13806906630968
C        -0.60622342950530    0.88488378525032    2.94220509845506
C        -0.64509136104078    2.17703441695016    2.32099603369116
C        -1.91907761651372   -1.16650628296291    3.04440735041784
C        -1.85654727200364    0.22196503037231    3.10937848694838
C        -2.69214550998408   -2.56806514680966    1.38220915740194
C        -3.10137218651431   -1.56779214057557    2.29403409059407
C        -2.39905532682982   -2.80004974403428   -1.02522939341919
C        -3.25805308828220   -2.55021402750489    0.12581481044669
C        -2.20065474859316   -1.33774710509965   -2.98106534293426
C        -2.97694608405739   -2.17932424906491   -2.12725609031213
C        -2.34700282913134    1.09567079595847   -2.99238615915981
C        -2.94882384831324   -0.14702715617842   -3.14910835334247
C        -2.66201024535019    2.90496214800933   -1.40241273129066
C        -3.21593228962211    1.87892877951645   -2.12657058711464
C        -1.95684230873439    3.45845493916226    0.71567986523561
C        -1.89460930194127    2.69350405211061    1.88195393419572
C        -3.11151622538157    3.06761359721600   -0.06664023439827
C        -3.09400058914196    0.68974878580622    2.49014410811772
C        -3.80075012382073   -0.43153761850302    1.87983379848800
C        -3.11339909162572    1.89961479315595    1.88062313518227
C        -3.81216936034927    2.06165950517056    0.60859869635130
C        -4.21370000866441   -1.53280105502039   -0.22720901934887
C        -4.13572112081484   -1.42523939156952   -1.64844038562059
C        -4.12682523937707   -0.19815867877501   -2.26909473098277
C        -4.19636293659047    1.00464065124831   -1.52161894221972
C        -4.35972782382462   -0.35077237364029    0.56296614225986
C        -4.35749427513057    0.94798726882429   -0.10054339785226
