80
C80 Isomer 1932 Symmetry C1
C         4.98231980901040    2.24912264593481    0.36175727382225
C         5.30967229388842    1.31303171083869   -0.63915123518721
C         5.09718230151283    0.00938331231993   -0.12466139685932
C         4.51278828195067    1.51049501109948    1.53552912476619
C         4.60713759708545    0.11615942520884    1.24065778430451
C         3.23189745639909    1.99309011042259    1.88351850156757
C         3.87755671784069    3.00751368395662   -0.12393305877273
C         2.86599370892863    2.97379437070334    0.86541598574353
C         4.39033747386237    1.48136746460523   -1.76865959734520
C         3.50385592289584    2.53900373114587   -1.45472063861708
C         4.30081983147917   -0.71673667964169   -1.07283046522467
C         3.81980390418027    0.22078900639304   -2.07459456552739
C         3.47626207330672   -1.73138887889292   -0.63526894904590
C         3.60139458965653   -0.75617822722197    1.65965472110525
C         3.33367478273054   -1.89459017462638    0.79917331838641
C         2.22489830237711    1.13416511534108    2.38017468601594
C         2.47069223135183   -0.26906987530107    2.41872442585245
C         0.85634276730891    1.57977751673656    2.32743004172503
C         1.53563184786820    3.07656526211033    0.49394761625073
C         0.54780685980194    2.64999289730642    1.43949439224406
C         2.14189457744853    2.42178088178533   -1.78874006462630
C         1.17864826673915    2.99161447256720   -0.89244717979121
C         2.48646325853686    0.10584113318240   -2.50451216820698
C         1.65689930200602    1.27507735131399   -2.50867085304004
C         2.37203871437150   -2.14132811478384   -1.47589968893465
C         1.85358049899769   -1.18784607495641   -2.39314253099235
C         1.56635967622456   -3.23944225548741   -1.03159450724062
C         2.41714418173560   -2.80274977468958    1.24439687792777
C         1.69040132061796   -3.66163854745805    0.32671924221113
C         1.37641163601868   -1.14460698007469    2.71421980696494
C         1.55573012558359   -2.50174101477697    2.36004756249317
C        -0.22413005667138    0.73669754831981    2.71562785723784
C         0.03052578075230   -0.66556487692537    2.89581412610598
C        -1.57009194220108    1.23017506784667    2.63873252465447
C        -0.77990218736611    2.98481625626085    1.15435738108280
C        -1.81086110987507    2.49587375052379    2.01049053715476
C        -0.18225894924463    2.94379556970292   -1.21520227599742
C        -1.10429811586158    3.34098769546657   -0.20282187968572
C         0.25668734079719    1.14988643688285   -2.76961313077620
C        -0.65128832202355    2.14789778811453   -2.31112232268499
C         0.51772895600553   -1.31920132768580   -2.88331246135638
C        -0.26114825439511   -0.13308721368204   -3.17099441729247
C         0.32561386647236   -3.45650432526795   -1.65454633112944
C        -0.16067657055967   -2.52105116239206   -2.61866381481366
C        -0.81768109022501   -3.96913480394542   -0.93998698591916
C         0.57563404280768   -4.13486923106816    1.01392682174155
C         0.46050021073450   -3.36382656930067    2.24819628456932
C        -0.70864638235750   -4.20188127314608    0.42678904870652
C        -1.08409258095752   -1.55640491931473    2.73205989901987
C        -0.85113428773370   -2.90003741943545    2.35512569219031
C        -1.62641871198822   -3.51181582020173    1.29083628695063
C        -2.68168428604833    0.31688030755011    2.74223426194586
C        -2.40718055449443   -1.06646044194266    2.49627759253546
C        -3.99767867400805    0.79072513176292    2.49163869943910
C        -3.13661513964141    2.92422263251486    1.72575211813068
C        -4.23194546173829    2.12758368247887    2.08912366167502
C        -2.44843173075174    3.47150651175537   -0.55183389077939
C        -3.42593796774295    3.51005441255987    0.44629356138529
C        -2.07332701200824    2.00918351274838   -2.48175483351462
C        -2.97043243481062    2.75727203854205   -1.69416562326451
C        -1.64901872412633   -0.25772128980749   -3.30700111551334
C        -2.56099226077688    0.79258548495343   -2.99091803207813
C        -1.58903212648689   -2.56957436659413   -2.58853557818492
C        -1.99878448018837   -3.34856810384856   -1.44863969216711
C        -2.31874780148137   -1.48043485523371   -2.98416152974702
C        -2.75206220631880   -2.86640112877623    0.80199196993433
C        -3.27509325025808   -1.81124842940775    1.62517467946763
C        -3.02198994513049   -2.86155820292322   -0.62257919545116
C        -4.89786683478613   -0.02371428422979    1.73960420527349
C        -4.44936867882108   -1.19746808747493    1.15586716266796
C        -5.17165536037379    2.11061438311197    0.94608824751776
C        -4.61256298131091    2.88350001691132   -0.08426856498102
C        -4.28992260326681    2.29979229071070   -1.34974892329355
C        -5.51334174798435    0.78986584281581    0.69648364746154
C        -3.77939438235020    0.23025677966078   -2.47900350662231
C        -3.56244305820424   -1.17383766961752   -2.35223244879156
C        -3.91023560498105   -1.84766172716880   -1.15597710281058
C        -4.73015039842258   -1.13556943582653   -0.27255225845688
C        -4.64620800991573    0.93958811378149   -1.61369081244226
C        -5.24759823139701    0.16958720518009   -0.56419400106362
