76
C76 Isomer 16865 Symmetry C1
C        -1.24906568255501   -4.50643406159245   -0.22619210433850
C        -2.39164104664994   -3.98139142387317   -0.78710749914275
C        -3.15879046186959   -3.39029711914108    0.29895867913405
C        -1.22025909602993   -4.17382992525410    1.20457943087254
C        -2.33048862817061   -3.36057954074578    1.47842918168463
C         0.09818768743059   -3.77326106532682    1.50111364581973
C         0.00565220620571   -4.20378242916401   -0.78644268022685
C         0.89028791897593   -3.94781493281044    0.31606784720874
C         0.08786768314059   -3.36197157364427   -1.93432058381297
C        -2.30581534531072   -3.01536933842780   -1.84864772839922
C        -1.06728728138311   -2.62494169343366   -2.41063907913351
C        -3.69275015902457   -2.20952835769555   -0.16664614816420
C        -3.25929175681542   -2.01671810211505   -1.54386366324654
C        -3.81061583495719   -1.08811482960084    0.70961545736460
C        -2.14391723751137   -2.14334211040904    2.20825453778001
C        -3.00130807079447   -1.02366594921101    1.91534497083957
C         0.34769926855422   -2.67270876179254    2.34260886534509
C        -0.82423404080244   -1.92275977652519    2.76445645204158
C         1.66005762123633   -2.07431141213776    2.28936149134879
C         2.09183350333444   -3.25970345418541    0.15884095396935
C         2.58285463784185   -2.46104651656776    1.24976857248376
C         1.35076922907888   -2.80019105338364   -2.12927660348574
C         2.40693301973768   -2.91250141318940   -1.17551549670945
C         1.53060674080238   -1.58807411945283   -2.86148685308482
C        -0.90389980456722   -1.25493032688356   -2.87968592316915
C         0.42915035768680   -0.74745205229250   -3.12924144900213
C        -3.17267451203339   -0.73393341048439   -2.07066299218617
C        -1.98352418315491   -0.30852197738724   -2.76568417831804
C        -4.19508453279393    0.06822551091974    0.06267740765940
C        -3.98332698991862    0.20162017061800   -1.37343856416557
C        -4.03556571073294    1.37279733618707    0.65702192788113
C        -2.69762314514759    0.29097610953496    2.41329539241077
C        -3.21238415049478    1.50800739974161    1.80008072449649
C        -0.59430316134474   -0.65191154993331    3.29125077766455
C        -1.52507337212993    0.40712270150670    3.17508855777423
C         1.85081412408677   -0.79409130861892    2.92315534309541
C         0.72507600716434   -0.09899465105046    3.38447786751134
C         2.95127519753521    0.03086956362531    2.58470818659022
C         3.68771177438190   -1.62068904637639    0.94852733453324
C         3.92041638043783   -0.46063533423907    1.69350194732640
C         3.36431542879435   -1.89557157941617   -1.45768631104375
C         2.83580658781009   -1.09416850911503   -2.53750532692551
C         4.06710967262860   -1.31633349714533   -0.42594485179803
C         3.07638793979182    0.25721234500138   -2.55766546950463
C         0.69176371724244    0.67228947775348   -3.18581065647168
C         2.00567721421083    1.12736791425062   -2.92904848270937
C        -1.73822941709808    1.11905707019329   -2.87149668724143
C        -0.39107564930153    1.60733057504013   -3.01365179437472
C        -3.82215674664694    1.54309543353200   -1.63604146677822
C        -3.96660604917565    2.29918135122455   -0.39540072898922
C        -2.70404190472219    2.02760854979913   -2.35431791513262
C        -3.04323996767062    3.34960421238972   -0.42163683560151
C        -2.32626380142795    3.25229972814447   -1.68597483673724
C        -2.45009155542849    2.71042344071788    1.86331978404440
C        -2.33508061201043    3.60538252455967    0.75484825477350
C        -0.76311625051812    1.62818074338197    3.22231014035837
C         0.62508791972397    1.31638163954459    3.28910793619829
C        -1.17870492199741    2.73673583256731    2.53397201520683
C         2.78638990479702    1.43173921756375    2.30955356601997
C         1.57965713244124    2.08136463785061    2.57172211013101
C         4.32498486157666    0.61467390900923    0.81325567990847
C         4.39784982255314    0.09708667030627   -0.49976737741459
C         3.87319848406062    0.88012835983279   -1.52134586653410
C         3.57051171942987    1.75237358670532    1.13807806502651
C         2.23875101607041    2.33404085772365   -2.20148547156201
C         3.26114067645309    2.13901019190883   -1.21318097699194
C         3.01358539396523    2.56845283710355    0.11595250761724
C        -0.08654663491207    2.89421348397623   -2.51133497064647
C        -1.01822743127198    3.64809300713292   -1.73348717240318
C         1.19606494027666    3.17899757821379   -1.95274986785180
C        -0.96216549572388    4.04758412612047    0.67761002123117
C        -0.22646840161736    3.51348873919601    1.77874024287436
C         1.12717680253891    3.13835460033205    1.68390797781244
C         1.81513380948887    3.32895546877513    0.42310129847433
C        -0.33422491325019    4.13380070097157   -0.55136932260813
C         1.04237755548001    3.79144459966621   -0.66191121660675
