76
C76 Isomer 11594 Symmetry C1
C         4.57712926780421   -1.70813674923740    0.69147078879912
C         4.99080628206902   -0.81625074407654   -0.28434567681502
C         4.88862017799710    0.53101322363562    0.25909220521431
C         4.07486886104274   -0.91607891489018    1.81594501061593
C         4.23109755825370    0.46842150802553    1.51961481373988
C         2.83140930364041   -1.41810428078514    2.18805233504051
C         3.61776622149974   -2.71218629477262    0.39696386950144
C         2.59899084961361   -2.62545326235439    1.41601966362060
C         3.18394155598082   -2.86247874971965   -0.92117529981823
C         4.37311314194183   -0.81055677729179   -1.57892913810576
C         3.51074991605431   -1.85110979550214   -1.90016207278354
C         4.37987900965464    1.35562908868931   -0.75959310241580
C         3.96665907293793    0.53603804175127   -1.88885580225921
C         3.59097571597674    2.41781585330310   -0.36373076589859
C         3.16897173404265    1.36043998633739    1.83097120997049
C         3.07025816039794    2.47330163479951    0.97045422946738
C         1.74250718271344   -0.55218542423771    2.53842852468987
C         1.93152800547294    0.86624310490630    2.42397651774984
C         0.43567867011490   -1.12578366669489    2.54575761997470
C         1.30847940997288   -3.05238827683637    1.19261677426535
C         0.27343345775207   -2.45173578307680    2.00201175784411
C         1.83646352289114   -3.26524371773170   -1.15764650963885
C         0.94454842829312   -3.54318270103721   -0.11048905484571
C         2.31161981093560   -1.56919784163438   -2.63499415448838
C         1.32532796742457   -2.54266883387100   -2.27605666133123
C         2.76244375715073    0.82887636747462   -2.55521795131178
C         1.90278353424488   -0.27105666362199   -2.96403150793254
C         2.58871814639670    2.92573417859332   -1.24232886107972
C         2.15760136666988    2.12875458468662   -2.32427949063822
C         1.88542920471248    3.24291554290989    0.91622567975251
C         1.63337987969738    3.62026107190197   -0.44057232979042
C         0.76933164539692    1.70150824111353    2.45709724602901
C         0.81834591574947    2.98873416511405    1.78983023888588
C        -0.72648016833081   -0.29931334655934    2.69391941692164
C        -0.52548708494728    1.12020401522655    2.72166569388893
C        -2.04888513441535   -0.83807173203492    2.46290714475049
C        -0.99072659444346   -2.96115645293939    1.81183985707658
C        -2.16391794120507   -2.21010121434091    2.15805302009045
C        -0.42522162512492   -3.71121808224726   -0.44971856132724
C        -1.30949211559017   -3.77385155475302    0.65302847256210
C        -0.04934098843004   -2.36036843076091   -2.47150382950859
C        -0.92228599452111   -3.21320625659651   -1.70525688730033
C         0.48713341168817   -0.07451898932841   -3.21034006423531
C        -0.49496155753419   -1.11804467389785   -3.02260663190004
C         0.82299389424315    2.32488593408709   -2.73301396927420
C         0.02496920759227    1.24714177049245   -3.21774742299055
C         0.32182068763732    3.87584277168405   -0.89077984637221
C        -0.05237422548848    3.26137328793280   -2.11128631215407
C        -0.37592084703622    3.65672466077842    1.44681063864556
C        -0.66093405022752    4.06781876201118    0.09619776681450
C        -1.68452420726470    1.92354671165173    2.55658562536030
C        -1.57859109962843    3.21492604877227    2.00805714757415
C        -3.14605550396549    0.00334609229995    2.02466257612016
C        -2.94581695616797    1.37570155203415    2.12142379985055
C        -4.10278142532938   -0.47529002686059    1.02865153535069
C        -3.24367030743372   -2.72273968253010    1.40895322372094
C        -2.69356141606814   -3.68445439455045    0.45735151890637
C        -4.13046517435979   -1.85983243887713    0.72165770405260
C        -2.30542599042542   -3.00176337759176   -1.84923349567049
C        -3.19925117982927   -3.36977246580930   -0.80296729731539
C        -4.17052743528876   -2.30692449278933   -0.63591615975452
C        -1.90020609285976   -0.79476377117586   -2.92250061303131
C        -2.77502077955743   -1.77289953738439   -2.42343729372799
C        -3.96201580152131   -1.38468585830208   -1.67547276644698
C        -1.34891121083907    1.58278049541874   -2.99676949013910
C        -1.40442447226337    2.82506666839203   -2.30852059840713
C        -2.32818908901422    0.59094544891240   -2.85230230075322
C        -2.05311116848076    3.78934419988325   -0.17074536684250
C        -2.64195998084517    3.40119308963936    1.04824377545610
C        -3.51033674808482    2.29518033501989    1.15040210535448
C        -2.42565022658173    3.10403614303344   -1.36845957203130
C        -4.40336255639653    0.39433367192355   -0.04726787771766
C        -4.19704417502505   -0.04872339491108   -1.39801055454841
C        -3.46048297074789    0.96232174232743   -2.08862206516039
C        -4.04203019227358    1.77040620868787   -0.01681505780273
C        -3.46632944811097    2.14569244816183   -1.28623709409288
