76
C76 Isomer 469 Symmetry C1
C         5.65264210170117    0.91886947700167   -0.58042305954563
C         5.82406824031870    0.17609562124559    0.60673139928068
C         5.29506933322976   -1.12092610948016    0.37283466523626
C         4.95562534705783    0.08448559814608   -1.55382573020817
C         4.73180369706215   -1.19144490473218   -0.97197150795017
C         3.82030688217814    0.78920739916465   -2.03687878303518
C         4.78579311281273    2.01043853702067   -0.30111900003393
C         3.76762609212823    2.04447580324164   -1.31152209954889
C         4.96839307799757    0.77859114380141    1.63795828280997
C         4.35765164938166    1.93394311187620    1.08010922831696
C         4.43488329952467   -1.42996711988057    1.47387358377949
C         4.11641543032191   -0.20523656700426    2.20046873747445
C         3.41035482460744   -2.29373470332993    1.23465973192716
C         3.50138124064316   -1.85759788873959   -1.19692198148826
C         3.05713359011720   -2.65952059624073   -0.11358812127050
C         2.59833793281022    0.14143690729848   -2.32047983016071
C         2.44663516754869   -1.24804377370791   -2.01116079046414
C         1.41107568415491    0.96223675468349   -2.41625133731691
C         2.54954497199585    2.60750634636344   -1.01118200575248
C         1.40684740489940    2.24681629062196   -1.82050410359910
C         3.02704909191544    2.23689371149879    1.39747431159541
C         2.28823736667517    2.93188968430955    0.37179224016197
C         2.76240279282175    0.07694256434514    2.54465815339310
C         2.25827499204194    1.38545824516859    2.27631106979345
C         2.18238300768458   -2.20039924333829    1.98530336767985
C         1.77613953952518   -0.99759363043114    2.57471754838109
C         1.72920566591346   -3.10494419822865   -0.06624436622061
C         1.22457801585281   -2.94971906758668    1.26298361044237
C         1.12267621035572   -1.80544529300470   -2.03869349148819
C         0.84584092557907   -2.88371633938754   -1.14272109750839
C         0.15117682114336    0.33725120165210   -2.72783286170574
C        -0.02197106861968   -1.07295968109184   -2.54183303908902
C        -0.98879261374267    1.15516207197184   -2.76419845373917
C         0.17437218335949    2.92326899479456   -1.55937786524398
C        -0.99042902622639    2.44828498721084   -2.17843220763101
C         1.01051486326362    3.30634213794489    0.68660896019784
C         0.00656910217585    3.56260457576194   -0.30650004776189
C         0.85224537419131    1.63236698984082    2.44567908110802
C         0.35237676947071    2.79211071516456    1.84130874571135
C         0.34267229848512   -0.74855890543796    2.68652173652518
C        -0.11467424623222    0.59964504750596    2.75982099064345
C        -0.13843418548339   -2.83976429297122    1.52030240367777
C        -0.61857401856630   -1.75560416830317    2.32525038452098
C        -0.47263120561401   -3.22231042938299   -0.85822266382807
C        -0.94167937094664   -3.32460855132257    0.47793708740745
C        -1.37442909999637   -1.58621370471761   -2.41831182100611
C        -1.56467348056924   -2.74617864511435   -1.64411151717273
C        -2.32741064215334    0.65127052377296   -2.69494826393496
C        -2.55591415182213   -0.72751538646771   -2.55012219097523
C        -2.30197507015955    2.69524131081014   -1.66438085389035
C        -3.15957790390253    1.62492563102434   -2.07238442652175
C        -1.24809424380100    3.54146390516971    0.33468699455373
C        -1.03132848867135    3.01009355085818    1.65898087482590
C        -2.44578337617821    3.23394119809780   -0.36445813037190
C        -1.52628871804554    0.87814437646733    2.72975224787948
C        -1.96802710236689    2.17267616684451    2.25272353381876
C        -2.03120315452827   -1.49927961131784    2.31906744069557
C        -2.48468855848480   -0.19772626901313    2.69598121969079
C        -2.33877204078116   -3.10693161424620    0.48854234130202
C        -2.74923685644770   -2.94796634843615   -0.87923631040862
C        -2.91744326330330   -2.34737132327142    1.52125593080484
C        -3.81182163671804   -1.07025309430439   -1.99591465755712
C        -3.90271887608502   -2.23396200760725   -1.15073307715894
C        -4.34536054243109    1.28236852037325   -1.36722391403064
C        -4.73471235463668   -0.08859615755531   -1.45740162739139
C        -3.52898844003035    2.79840620122562    0.40923926172097
C        -3.28888782590942    2.35103148289028    1.75961552520179
C        -4.59279283613037    1.98738156549875   -0.14287242586799
C        -3.88270466843094    0.11592804355912    2.50918875834758
C        -4.26647226103587    1.42297734656129    2.08418240036483
C        -5.18202682747965    1.31051935311780    0.95455400773388
C        -4.26060358898674   -1.93988021875903    1.25594193556667
C        -4.76998996372123   -1.97195898091832   -0.08215388040957
C        -5.41306782031155   -0.69914718945246   -0.35635779902489
C        -4.76589077181456   -0.78227389461698    1.87464420049162
C        -5.54323380058179   -0.03234318450574    0.86183334724964
