74
C74 Isomer 12675 Symmetry C1
C         4.59648799473377   -0.48771061799005   -0.35930536093401
C         4.26835320528090   -0.59264811373921   -1.69486380178110
C         3.59868704625860   -1.87081125650939   -1.90540315872621
C         4.14149200035450   -1.71777756392308    0.30924364519310
C         3.47469464061774   -2.52382700794658   -0.64640624175220
C         3.51207069932056   -1.34689174264327    1.49771836691166
C         4.20353916442908    0.63856789361320    0.41598528897329
C         3.68898290076936    0.08213848683387    1.63820618263045
C         3.56515567787703    1.75778277362605   -0.17790322710511
C         3.49612211212442    0.43991291471886   -2.29432392254249
C         3.25224307227137    1.65075428521115   -1.58866403196535
C         2.44806748126417   -1.60964022692796   -2.65468009719195
C         2.42647926807136   -0.20846174789378   -2.99010348648289
C         1.23958431876669   -2.30631392225378   -2.42099411353601
C         2.26301773504285   -3.15296676560628   -0.30371862952034
C         1.25108902805547   -3.25532860005735   -1.33698821259387
C         2.30349047803332   -1.97364408992638    1.90656104303923
C         1.81804469500692   -3.03057261457131    1.06789645144272
C         1.35210759060715   -1.22238627079533    2.69272941613132
C         2.76509718050315    0.78571218706797    2.35513225383151
C         1.62698776936523    0.12892533204315    2.94864162498733
C         2.70068138745935    2.57555460798447    0.65792481382106
C         2.39925332378529    2.10030498638745    1.94579425399975
C         1.74376181335418    3.50292314432730    0.07333729557116
C         2.14905880617250    2.37559443347239   -2.07435572893584
C         1.50069860320945    3.41184565776347   -1.30918103437504
C         1.20645873659648    0.42256241260038   -3.22961716672842
C         1.18731609157040    1.80130790906730   -2.93855475944515
C         0.00109982559931   -1.71202983154817   -2.85550516160412
C        -0.02487747725463   -0.32449450863666   -3.24405644494286
C        -1.23632638148134   -2.35885991014414   -2.46923846118545
C         0.02322691696385   -3.82455891584670   -0.96664982474897
C        -1.21450873956815   -3.42245930993157   -1.54573666525814
C         0.54311966138664   -3.53410159240277    1.38346945979004
C        -0.21563599886100   -4.16500132595485    0.38459285261189
C        -0.03886628611248   -1.61006477175239    2.78598692413465
C        -0.36949622976282   -2.86890267148749    2.27787459749784
C        -1.08742253693147   -0.60716113820605    2.91155224572629
C         0.60355750582446    1.10557391403775    3.08333202984007
C         1.12551054134130    2.33959177881222    2.57020092598117
C        -0.76808689964234    0.79430176608543    2.97585496929205
C         0.64777991312708    3.98104805405801    0.86485493235702
C         0.28274282939574    3.30009601908249    2.09849766090091
C        -0.55993356613218    4.35295486678039    0.27485587050427
C         0.19665398400943    3.59518480401208   -1.86641330080033
C        -0.04603963862029    2.50836752383742   -2.77519936847549
C        -0.84384489965612    4.07067238389323   -1.08230780581492
C        -1.25357691313052    0.42510657826566   -3.20378362556732
C        -1.26940595840717    1.85179000004646   -2.87475801539584
C        -2.44297790764901   -1.64939178005969   -2.58501263311701
C        -2.44312045942622   -0.29278228505410   -3.00546991363043
C        -3.51718570961139   -1.81802542263228   -1.62111559150124
C        -2.24323302786046   -3.53602773439271   -0.52505416823977
C        -1.61397243604522   -3.96425784609430    0.65628489391314
C        -1.70917945111712   -3.17957193428532    1.83316178722713
C        -3.31540869312121   -2.60908617906749   -0.45632885111613
C        -2.38330951349465   -0.93106256336773    2.48177870407127
C        -2.69092820957084   -2.20544377404305    1.89572835656556
C        -3.58785437314827   -2.00043227998084    0.79942293563989
C        -3.24115753988461    0.04518927077487    1.88332057564881
C        -4.01871110953082   -0.62222057499440    0.87475389081580
C        -1.67017807454534    1.79979209991411    2.47005856023161
C        -1.13404643714427    3.07340023679266    2.13882232612999
C        -1.66464202671532    3.81787140236706    1.06208558848699
C        -2.87828771268435    1.39850565884013    1.78878177517024
C        -2.12113552709581    3.42570424331972   -1.16002336659386
C        -2.36525423826746    2.40667855898207   -2.08768158763553
C        -2.61264053931026    3.27221967816857    0.19988907359922
C        -3.33218490878620    2.11899029346179    0.61320742967256
C        -3.58338430989837    0.33471412086254   -2.40708167060867
C        -4.20999005289791   -0.60250151926442   -1.52979930162516
C        -4.38417511733648    0.05506242696359   -0.27439559338022
C        -3.46742467993278    1.57490189601562   -1.77277070600125
C        -3.96731041791426    1.42581380983997   -0.42609397148231
