70
C70 Isomer 6112 Symmetry C1
C         4.24239451481918   -1.59699377964481    0.21037418348066
C         4.65056681003201   -0.37445207585014   -0.21729060031676
C         4.48297319867839    0.55955133331214    0.92219844785440
C         3.71829192343371   -1.45853264202692    1.57852376745792
C         3.66099460122851   -0.07136690172802    1.91962594206693
C         2.60506787058260   -2.25726128439057    1.65793324526068
C         3.31618175692051   -2.36917503213295   -0.55446693676622
C         2.45121903053665   -2.98056724842748    0.39420873181784
C         2.74961261583469   -1.81840143421364   -1.74499482875662
C         4.06334545449068    0.22857181743807   -1.40110453937323
C         3.01514193392243   -0.42022442080745   -2.10503379277017
C         4.10215213050749    1.75238353835467    0.38484151775085
C         3.92043742299364    1.59145402006377   -1.07333597856219
C         2.98388626933176    2.45619058459319    0.89559541514815
C         2.42210846866642    0.51095435636648    2.31917836655140
C         2.13310064950216    1.86265694801436    1.86811804135620
C         1.44034963794439   -1.77039107871585    2.32280575919971
C         1.29261719662776   -0.36722759579731    2.61034114211466
C         0.30992288525891   -2.56320557858273    2.11596879400809
C         1.21035430574513   -3.50376337003755    0.02829174240811
C         0.19569858902052   -3.48872909507332    1.01220365775099
C         1.52416982803649   -2.38366976131193   -2.12048726217567
C         0.81783897915082   -3.33507728469231   -1.32105588209664
C         0.55176235441875   -1.66272070116674   -2.88344304598481
C         1.92353560591193    0.38833043226475   -2.63324173136962
C         0.71236639695864   -0.26981306478312   -3.08973266306871
C         2.81174588357070    2.33506937559776   -1.44890105532932
C         2.39483005389393    3.06879719282660   -0.26400495855891
C         1.81383086566270    1.78353594066924   -2.29456253057644
C         1.13220281241582    3.54065176538709   -0.17748206176205
C         0.78466170700029    2.36090509138170    1.94408171055414
C         0.40464074801271    3.37068245679687    1.03624610497997
C        -0.04975335238474    0.14962457405595    2.75513943606105
C        -0.27888494997496    1.56106925790364    2.52509685289235
C        -0.98090178538389   -2.09408943144513    2.43310773579147
C        -1.19555706963044   -0.73696643975913    2.74355757738739
C        -1.17015916493109   -3.58819348213744    0.66174958788292
C        -1.91494350790197   -2.87630791825556    1.67373030002096
C        -0.55955959980117   -3.27678493494955   -1.66173376883107
C        -0.71628542707242   -2.25336561550888   -2.66695388651832
C        -1.57253214948689   -3.49690358205501   -0.70651025912172
C        -1.92070760586067   -1.51085938762786   -2.77859459891097
C        -0.48570310313458    0.44965238752383   -3.25271892994403
C        -1.77740868150922   -0.13756469433910   -3.11236293092726
C         0.52504374590665    2.46314148752104   -2.28413654824780
C         0.21709069901415    3.41914318999721   -1.28455817992312
C        -0.59225409127188    1.81477525302594   -2.83155766883602
C        -0.95515332247448    3.61529852891591    0.68337001358611
C        -1.09240581764940    3.58155035361082   -0.76087534756321
C        -1.59756488612537    2.03041045127163    2.40515243176278
C        -1.93635955375248    3.10673992338274    1.49072658635188
C        -2.55158293304241   -0.25737954604285    2.51857142417440
C        -2.73269847894259    1.14797101962174    2.41426056235068
C        -3.16465402513274   -2.37968283841473    1.40057412693067
C        -3.51358033360716   -1.06311761199100    1.86660136657450
C        -2.84996980081118   -2.90862391093179   -0.97247781629808
C        -3.02198698065087   -1.89327757602406   -1.99986982140137
C        -3.69117295677189   -2.56391164645763    0.08535311244454
C        -4.39605682420724   -0.49661052090000    0.85412172370748
C        -3.95803422462786   -0.91123513041796   -1.52058438891812
C        -4.40850382952476   -1.36025615527804   -0.25993781699789
C        -2.67243145181465    0.84622427650844   -2.59327004366097
C        -1.92763065845691    2.05936328058319   -2.41162863688411
C        -2.21470249615005    2.94052585373225   -1.34213502280773
C        -3.75112329867436    0.49218291753096   -1.74254200793963
C        -3.18945721177805    2.81519233806864    0.89260943347473
C        -3.73357726817110    1.67750044550112    1.56942983633068
C        -4.39561333482799    0.87303235226441    0.61445499062573
C        -3.31226706938562    2.60737382460260   -0.49619791898412
C        -4.07895970110805    1.38919620322982   -0.69436020792813
