74
C74 Isomer 8714 Symmetry C1
C         5.00137818136684   -0.77341179736308   -0.31437749039940
C         4.51456011377701   -0.54767692308590   -1.61054195063641
C         3.65985353342676   -1.66782432618692   -1.95484844394161
C         4.31196810954517   -1.96180879512876    0.22855513287045
C         3.49319793615576   -2.48022858254615   -0.79267122585163
C         3.71835873793696   -1.60893535437871    1.46777430936238
C         4.89678474064499    0.24551896060962    0.62804838759805
C         4.20304451034484   -0.31365403163370    1.79034728498896
C         4.26963900142720    1.47634897168559    0.31250226378619
C         3.82039458181355    0.65205606692056   -1.93259355915846
C         3.70080713265937    1.69889772736645   -0.97761849067259
C         2.52634181103368   -1.16959644798885   -2.62995566760591
C         2.63650152953673    0.25359031573304   -2.66448860592063
C         1.27336408309037   -1.77989396942437   -2.49158866758249
C         2.20750814908729   -2.95666535597459   -0.48994484728498
C         1.23003753739688   -2.86502683233946   -1.54626353099110
C         2.35877105175760   -1.96162847376034    1.76550296008620
C         1.70032244945740   -2.85424214149728    0.84862799786853
C         1.53230559925156   -1.06179804487181    2.51429972097322
C         3.32353853059071    0.64584690261736    2.28035546198578
C         3.45242147956788    1.81898237036048    1.45253089376963
C         2.04332072770006    0.26301876747115    2.76649417273169
C         2.42448156317721    2.74803609967826    1.36209831720339
C         2.56097645888200    2.57363992384679   -1.08820965978427
C         2.10914369274347    3.31148200515129    0.06836097462398
C         1.48192178335444    1.02052019817224   -2.71189622415635
C         1.59529568694760    2.32999102878626   -2.12259584630274
C         0.07171411714710   -1.03116302395149   -2.75143589474117
C         0.18922295494293    0.38888364617874   -2.89346939472659
C        -1.21246002351975   -1.63536284077642   -2.49034135077917
C         0.00582325473919   -3.41647483017201   -1.28408627941245
C        -1.19881084894678   -2.94879124788186   -1.93735280274402
C         0.34917570043587   -3.21944355748866    1.10156685285886
C        -0.33222558371485   -3.86002255432682    0.03164932090950
C         0.10151455245261   -1.27382640187658    2.58815178592640
C        -0.43800467062430   -2.48924175266179    2.06195215959657
C        -0.79939116717290   -0.17579811450370    2.83084204520841
C         1.14698907906500    1.32565379881439    2.89621053293270
C         1.37783413867467    2.60049798788214    2.30528077956990
C        -0.26391990576481    1.11363991202559    2.96262117358342
C         0.09844054700815    3.20297442377686    2.10169161800858
C        -0.93185177065204    2.27964835823078    2.52071628293642
C         0.92530406788166    4.05854758148689   -0.01623529504874
C        -0.10246984513790    4.02157905629999    1.02040170429059
C         0.43989837913650    3.11253347728670   -2.19382451299028
C         0.22420088365079    4.11475738536673   -1.22915247978056
C        -1.00430032588003    1.18319765151342   -2.81620694907502
C        -0.83111455311111    2.56872897462765   -2.60339756792296
C        -2.41137528554575   -0.85094745230118   -2.33351095599240
C        -2.29765223985853    0.57480785714368   -2.54724189635558
C        -3.50808066461938   -1.38740189482981   -1.53857017981292
C        -2.27049462307281   -3.46620108411432   -1.20863949813180
C        -1.72963377526069   -4.01659959347863    0.04058462742775
C        -3.39001879665633   -2.65773899124563   -0.90976343948868
C        -1.85553797546992   -2.62157996618674    2.03218334140362
C        -2.47891951716091   -3.48648779582123    1.07273543584849
C        -3.61740098958115   -2.79047981175779    0.49627547625735
C        -2.19942910295842   -0.21811250713968    2.49196518331581
C        -2.71275111585280   -1.49283707779941    2.19925620578446
C        -3.82871669926259   -1.64151083420943    1.27900581746680
C        -2.20793544304930    2.23836597027598    1.92820261591769
C        -2.89553813190742    0.97081230198813    2.02309403554113
C        -1.41137800925055    4.03243204423614    0.40764232716136
C        -1.19501234002719    4.18689790101075   -0.97348238242871
C        -1.83516960249218    3.33601265517732   -1.91060866488104
C        -2.47110754173023    3.19568070582742    0.86964287131282
C        -3.31410911294636    1.41222100882611   -2.01847590991041
C        -2.99987217255547    2.73090958191540   -1.51729943598681
C        -3.39927251544085    2.80419144983878   -0.12960510012203
C        -4.30099253242379   -0.46855235480862   -0.79390711520226
C        -4.33406073081663   -0.52874826120952    0.65429546468157
C        -4.00892568615680    0.78316556941034    1.15949055453704
C        -4.25796320268334    0.88261235538216   -1.12132074699720
C        -4.20245988650397    1.67903203180010    0.09556597249374
