68
C68 Isomer 4306 Symmetry C1
C         4.60458426936499   -0.51685065909601    1.18663166856022
C         4.38985775789469   -1.48943999966841    0.22526421556748
C         3.45358184013910   -2.47129449467016    0.79519371891387
C         3.66698789001457   -0.77650142747052    2.29852966815622
C         2.91644327669662   -1.93752700844970    2.00408026833415
C         2.99549984833219    0.42481057321509    2.58588311063597
C         4.47452783295868    0.82681359324153    0.81244170805834
C         3.57091185046194    1.44783240857211    1.76967778358815
C         4.04525639777483    1.19279247154540   -0.48631648901940
C         3.93996365223654   -1.15900796633393   -1.08334994047309
C         3.71329592068622    0.20348122327942   -1.46340915603697
C         2.60204805304224   -2.90050958328431   -0.20185382743172
C         2.95560525671165   -2.16098263291034   -1.41495209273589
C         1.25245527321697   -3.20635266878051    0.09825305893046
C         1.51181492962399   -1.96994308960120    2.21986362708674
C         0.71296480261651   -2.81635874228398    1.36908578957249
C         1.59591346924685    0.43525574634723    2.81426743112430
C         0.87432849850908   -0.81236346605222    2.78761449466988
C         0.89836088022436    1.64939921058440    2.47352600465369
C         2.76890238068308    2.38189924025567    1.10803556090324
C         3.13735241614394    2.31255165895734   -0.28811788038369
C         1.42620528156462    2.57725823202155    1.50864672484943
C         2.16760931446764    2.60921981265021   -1.19894169007805
C         2.59591604430426    0.48081957158868   -2.36685093446313
C         1.90964571525287    1.71592105166528   -2.30668529429040
C         1.96762095031566   -1.90266445753341   -2.32462991235740
C         1.79132037686964   -0.57618361739203   -2.85120379210627
C         0.36062271748175   -3.26091691662890   -1.02650768698235
C         0.68666411402935   -2.52851792260971   -2.20036830456917
C        -0.98561029726849   -3.43915849718697   -0.78390287081078
C        -0.71036973980517   -2.87794730794048    1.57989701813016
C        -1.48142330082585   -3.49965490080732    0.56715894935560
C        -0.55899025582773   -0.79778043540178    2.88362196397530
C        -1.35449770281331   -1.91766961217141    2.44600021299931
C        -0.48571874808395    1.64393610091803    2.66145997097722
C        -1.17997724340715    0.45704393520458    3.02679515070087
C        -1.37876377295802    2.52305696733433    1.97295185224341
C         0.51545746662500    3.18669872445165    0.57072676214493
C         0.93546404986394    3.20627483714867   -0.77669908136682
C        -0.90428587281703    3.21863191799400    0.83376187407719
C         0.53844409226752    1.86318867922074   -2.64257163648615
C        -0.00728879206856    2.90544921206007   -1.80788208452735
C         0.40127299428673   -0.44003027075838   -3.11742082899745
C        -0.27699885090408   -1.66090882521394   -2.76849627559667
C        -0.29549041407805    0.76986090957511   -2.99302710629799
C        -1.99788643593195   -2.80793677890219   -1.59707376258391
C        -1.64155407628003   -1.69299609315685   -2.41280149420757
C        -2.87439385888340   -3.28818804970094    0.48184313115607
C        -3.17809936903061   -2.79605179056117   -0.85406108639733
C        -2.76637214259602   -1.72595019560799    2.33935528840456
C        -3.51053485535224   -2.44492928992239    1.37549832674604
C        -2.56223664875070    0.67030334363401    2.71887016574486
C        -2.68828130217818    1.94390711519534    2.04377771041259
C        -3.35015987795072   -0.40112343122656    2.38551839444628
C        -3.57461250217345    2.06544393094629    0.97458928251440
C        -1.81547199094039    3.31241152606357   -0.25551967360377
C        -1.34746270289689    2.96547931818756   -1.57637678221600
C        -3.11433285962764    2.78120469576839   -0.15348780536147
C        -1.71356097447761    0.75985687240647   -2.65784436835534
C        -2.41706668195109   -0.47618208539725   -2.35253844080079
C        -2.23688424954998    1.96464092256314   -2.14009563835790
C        -3.36692458953359    1.95485129227848   -1.31005268572948
C        -3.97011902017498   -1.62103745319456   -0.76008926980740
C        -4.32966668412363   -1.49956924494484    0.61079659725880
C        -4.28546529234905   -0.26422590347945    1.27410704627083
C        -4.27827740752183    0.88856654402601    0.50021134523380
C        -3.60771526890868   -0.45848216041024   -1.51660274487582
C        -4.01440583186800    0.76837533984971   -0.91820523908933
