76
C76 Isomer 18616 Symmetry C1
C         3.79910614454107   -2.15488311786325   -0.73991954352786
C         4.16567117294347   -0.97752802324365   -0.07549190471628
C         3.77844773970185   -1.16717816861624    1.31442312251146
C         3.09628298172129   -3.01697946526097    0.18671550747949
C         3.00121784503402   -2.38043256044871    1.44025183201653
C         1.96823408328567   -3.55809746272263   -0.44873658494810
C         3.04549877190681   -2.13941600994130   -1.93638392417724
C         1.90640953696417   -3.01142255430897   -1.77910715065953
C         2.86162142530402   -0.92207538472012   -2.56069961116248
C         3.99892679875534    0.28916516332728   -0.70143417231909
C         3.44043617408933    0.26519946597622   -2.00606382648154
C         3.71666480527635    1.44400288098815    0.13516345311873
C         3.42430150415691   -0.08435727045382    2.06278997656780
C         3.46901320494703    1.25316224001844    1.51329041588927
C         2.34449845909903   -0.17988050076453    2.99982567083359
C         1.79480821356136   -2.42882194744637    2.18258977898706
C         1.48360035466864   -1.30441396879151    3.03160679872118
C         0.80737895802328   -3.79149362156010    0.31802085176242
C         0.72619838728408   -3.26657372448104    1.66483141613716
C        -0.36551924405922   -3.90796394897924   -0.45249419728375
C         0.66269831593347   -2.68333770080019   -2.34572389541787
C        -0.44272648436685   -3.31314607155372   -1.74751110474722
C         1.57991877179057   -0.58112787821593   -3.13400470888526
C         0.45460903034335   -1.40526624666290   -3.00476993991521
C         2.63903678121219    1.35277401444797   -2.47782823426729
C         1.46355518534379    0.83114449074736   -3.13162854719623
C         3.07851875859595    2.57091281020503   -0.42537298038857
C         2.54908931945947    2.51672559903475   -1.76145054945795
C         2.20864960440053    3.41700554720987    0.31674926771280
C         2.51976946834469    2.02954541641011    2.22239653302654
C         1.86317703568433    1.14981515636121    3.16801287653450
C         1.82262589436010    3.11109454955814    1.64100447882610
C         0.55094687531034    1.38038685326102    3.50811629420787
C         0.11877622075591   -1.05603081141889    3.42193752844524
C        -0.33034272686394    0.26171705127336    3.66023759357635
C        -0.57003062332766   -3.07975237223308    2.17893705858270
C        -0.88166482292894   -1.95541567558589    3.01883012003168
C        -1.66252630984110   -3.81324224990562    0.12843031953688
C        -1.75584194015136   -3.41565200192601    1.45322917524336
C        -1.76972492868919   -2.84013681619214   -1.96500592830974
C        -2.56538253785754   -3.28117327047094   -0.85106265014494
C        -0.84733082558735   -0.78573553615432   -3.02231312441437
C        -1.98846457069561   -1.59231828346275   -2.60399717895131
C         0.22317319512318    1.47710104478912   -3.06737570176598
C        -0.95559284686614    0.64555394043865   -3.06310546012899
C         1.36521885110591    3.31363035607850   -1.85253353985468
C         1.25407836859800    3.98966980669548   -0.59952888720124
C         0.21613851930186    2.83648791531086   -2.54319554684178
C         0.01546651456332    4.40471655756771   -0.14084146042071
C         0.44921907250295    3.38347205759793    2.05888667347992
C        -0.16844268006124    2.48801324273594    2.96973412212274
C        -0.42687494558730    4.04868567545979    1.19360684533299
C        -1.61717347236960    0.69879150422052    3.26011626155973
C        -1.51824546015008    2.06274439201540    2.81981901693752
C        -2.21727142776298   -1.53976528112996    2.75569808112088
C        -2.78971861731379   -2.48129394098533    1.83399818891689
C        -2.57877850933907   -0.16966377105436    2.72404820657683
C        -3.65988917205315   -2.53106846865857   -0.44022100148958
C        -3.73887465710747   -2.05823357638406    0.93876851030981
C        -3.21227979281049   -0.95766855130911   -2.28249843271097
C        -4.05502178986629   -1.47519271897288   -1.27211806116954
C        -2.19290389803583    1.26515813536812   -2.62273532358948
C        -3.26640688268876    0.47467041502830   -2.19823057894045
C        -1.01034892878444    3.39580951898989   -2.13365893217420
C        -1.07130618253777    4.26369821378004   -1.02339514603699
C        -2.19504920154665    2.57812804289872   -2.11031947639768
C        -1.81713649535649    3.66771966669191    1.09511407609004
C        -2.35692971259280    2.55293822973967    1.80494199909869
C        -2.21929951863272    3.88578365664734   -0.23697157366982
C        -2.93767337747945    2.90040189750557   -0.92071611055303
C        -3.49673348554514    0.32419333067213    1.71839044280705
C        -4.13102673147164   -0.65634910208056    0.91723553613649
C        -4.43526789501030   -0.36746228772119   -0.42739187317404
C        -4.01685561902915    0.82549851921029   -1.02084782585795
C        -3.32330581561204    1.66565994303201    1.18935433793665
C        -3.62502021401407    1.89737304118807   -0.19741767882603
