80
C80 Isomer 15434 Symmetry C1
C         5.62558412582934    0.13795992534452    0.11962942386647
C         5.30233068998738    0.47823878365856   -1.20758681124725
C         4.81104776238620   -0.72192666467212   -1.83583397171310
C         5.09400789402990   -1.20761802581497    0.38198009476148
C         4.55992755901023   -1.70507984966085   -0.81761841497683
C         4.28465092110487   -1.15120380985154    1.55334692286564
C         5.18431910817610    0.96599193781271    1.13534284952028
C         4.47077455246087    0.13645417627228    2.12353221473961
C         4.38412568380499    2.10494569540176    0.86487851319207
C         4.38274241500036    1.52799891679296   -1.49675565386580
C         3.89366563034950    2.36545812320941   -0.45644794345463
C         3.77669032030066   -0.35019994649594   -2.71169304767084
C         3.45239768400326    1.04863218390682   -2.49981043525011
C         2.75323371089989   -1.25300459089420   -2.89730286495986
C         3.31641016795779   -2.40710157744565   -0.79264907931919
C         2.56965476708556   -2.35795851649283   -1.98736198666371
C         2.98339054489991   -1.72611925992882    1.57976506803086
C         2.55529762222202   -2.49290702971765    0.43317447576996
C         1.97377639355000   -1.09255258495162    2.39645687709216
C         3.40144263454177    0.86578961523013    2.62437697771130
C         3.45331964884422    2.15978416935007    1.96424510505837
C         2.14472532795857    0.25074425164637    2.86352015870989
C         2.30001658661947    2.85466350328351    1.82942955052318
C         2.55920456785331    2.91276285893708   -0.61940007270286
C         1.90866464484996    3.37191949015151    0.54609389396658
C         2.12769657723470    1.48383629502664   -2.59365271027694
C         1.68734666926665    2.53676413136459   -1.70563373362795
C         1.46890439875371   -0.77882024545709   -3.27566793592690
C         1.12287688895394    0.58170798374764   -3.14408445798351
C         1.19470146147875   -2.67442142266062   -2.01019715045922
C         0.52347518396131   -1.76811759536339   -2.91540322977441
C         1.19293167433424   -2.90824095977542    0.38034685186014
C         0.51223856291464   -3.09091816821030   -0.87471293771145
C         0.65862120497489   -1.63531444019000    2.42053065604964
C         0.35852617609760   -2.70314458562886    1.51992499087253
C        -0.43485717945317   -0.87837204503493    2.97802630848235
C         0.98594751739444    1.09984556379882    2.96097998731256
C         1.11183937105542    2.42860023441609    2.51521780062116
C        -0.33357258951945    0.54998568986861    3.01488716645089
C         0.51801585685118    3.55718177063987    0.60703229208774
C         0.02504826251258    3.03510838775787    1.85761441881425
C         0.29250154068287    2.84532310429350   -1.67416152858866
C        -0.29581777197418    3.45053917070178   -0.51780142894281
C        -0.26078629130642    0.87646554972725   -3.08616175103316
C        -0.63893415282837    2.15344845915741   -2.53847460286570
C        -0.82565000570461   -1.50063946730899   -2.83264627476546
C        -1.25555920889016   -0.16221560966488   -3.12082293433757
C        -0.92972094574238   -3.13243819824062   -0.97809251211087
C        -1.61312383540843   -2.39004375701091   -2.01890390102326
C        -0.96876177047997   -3.17975459994541    1.44565326305872
C        -1.63339416142221   -3.44055571877592    0.17753843379376
C        -1.72427408786840   -1.44070058309631    2.95404833478650
C        -1.92959635962674   -2.69347865607699    2.32672758008318
C        -2.89587852765139   -0.65957782519799    2.73223734486157
C        -1.48528257080608    1.34342009252274    2.69142783510610
C        -1.28018091552448    2.57104440895972    1.98722889187196
C        -2.78498069836507    0.72860000347708    2.56156597360138
C        -1.71000934357040    3.47300289026497   -0.26728504159434
C        -2.22338663393890    3.08077950511801    1.02775125293602
C        -1.98796272683255    2.45927774048345   -2.45131270332123
C        -2.52251042523671    3.27801147842584   -1.39285031968871
C        -2.63969316995373    0.13501708773501   -2.94917927140347
C        -3.01806930416312    1.49829973687878   -2.79975685776280
C        -2.95704604597138   -2.07373787729706   -1.86499339925996
C        -3.49480559762886   -0.84085663362229   -2.37965281671013
C        -3.02346147445399   -3.11144612574867    0.32673229475272
C        -3.21457350565065   -2.66260423965149    1.66305911121396
C        -3.82712745638387   -1.43370696455573    1.91924079839676
C        -3.68788970413397   -2.42862779982846   -0.68431971889385
C        -4.59097062090822   -0.47298447935659   -1.53893329399779
C        -4.61681250995770   -0.80264931767015    0.91901659086163
C        -4.58923277587161   -1.35222343894697   -0.38825656317255
C        -3.79581643550603    1.37411933924543    1.81765764282141
C        -3.54364044403053    2.60908528291520    1.12833549270920
C        -4.75161541547705    0.61481229837569    1.03381884145031
C        -3.88916157494119    2.94477861769808   -1.24628851166046
C        -4.20595859142898    1.83955623366758   -2.14295957189046
C        -4.94802313199772    0.87154349294159   -1.40458756765537
C        -4.41091060019514    2.65435906172815    0.00598862740836
C        -5.11602374938929    1.38440536830714   -0.07810789980948
