72
C72 Isomer 5899 Symmetry C1
C         4.43643875698183   -2.02591869892195    0.35734231518681
C         4.11216132407667   -1.64694043913579    1.63368205160376
C         4.45718076059119   -0.23118855401019    1.81861415685557
C         4.99567490022726   -0.82762817070319   -0.29923070654822
C         4.80454002597116    0.31325504794296    0.55353887407515
C         4.49206524893935   -0.80499351002084   -1.57058629656625
C         3.43025616125490   -2.59701176528968   -0.49870476928547
C         3.60881897221729   -1.96851524406519   -1.75780591516136
C         2.10498110173776   -2.78632436925675   -0.03243342921812
C         2.80262317316281   -1.85079161018465    2.14958163674600
C         1.81376748591976   -2.46124044801285    1.35110400010842
C         3.46202204879155    0.32730551296878    2.62145781376871
C         2.44991690131316   -0.67865376529417    2.90130867821305
C         3.02490125138490    1.61131447680461    2.30481966723351
C         4.09029343851503    1.46315131654781    0.06011906506754
C         3.32783148571018    2.16663829134943    1.02147969331489
C         3.83225145933849    0.34115063727499   -2.10783636408085
C         3.58865008153377    1.49003070145942   -1.31522506335444
C         2.53987204583374   -1.57976005319432   -2.55100879429418
C         2.78355082934974   -0.19904468456684   -2.92940617165837
C         1.01790323914072   -2.64112280960741   -0.97979489237680
C         1.21938649344008   -1.99137621869754   -2.23627444099183
C        -0.32315446705656   -2.78489351203027   -0.51955745275088
C         0.46070827972392   -2.24879152787527    1.75394444020191
C        -0.56343394040162   -2.75521243546946    0.89474632215301
C         1.12345093784165   -0.32757134103056    3.12892678904560
C         0.10956687045594   -1.26492859333487    2.72958279070985
C         1.71710446365450    2.01254129732630    2.68775618393563
C         0.78775236262830    1.08526714025244    3.20282179018112
C         2.21008258320710    3.00163488659537    0.67461257789340
C         1.27520719117134    3.00187441982296    1.74834603402241
C         2.42873014682779    2.30513921449794   -1.65880499896285
C         1.76960371318272    3.12827525744703   -0.66027666658815
C         1.72213738236390    0.57799679700186   -3.26244475258525
C         1.61761792168719    1.90366291282374   -2.74180808616443
C         0.12640020856442   -1.24783160477273   -2.81147097294532
C         0.40555607091121    0.00633461078223   -3.38064446674102
C        -1.42597755100306   -2.50247238036683   -1.40354507860617
C        -1.22325650263523   -1.51741693683060   -2.43247941876894
C        -2.74483417974723   -2.69384084953341   -0.91490235402375
C        -1.88682712383302   -2.68141439700853    1.36433473532651
C        -2.95736159895583   -2.87369445366499    0.48968288588763
C        -1.27451146867185   -0.89714826970899    2.90055037939583
C        -2.27550855388539   -1.69781428626030    2.34127398513562
C        -0.56624314935322    1.44182329351866    3.12272071341151
C        -1.60221659938998    0.46218150282633    3.10791090740844
C        -0.09818079209449    3.26967433837806    1.56577240890694
C        -1.01675153759885    2.56544762506516    2.37497958444421
C         0.42016956491068    3.52513291817768   -0.82359498292877
C        -0.50654601863486    3.62367397311870    0.25948956820579
C         0.22797225864540    2.23368831887186   -2.84956384548333
C        -0.52171290871725    1.06815579227435   -3.25681274631614
C        -0.35096213657814    3.10018132951589   -1.95664435122614
C        -2.24500386024638   -0.53525583555545   -2.69154647348811
C        -1.84861936848845    0.84337207820332   -2.87434714672780
C        -3.80923765259299   -1.90854647893907   -1.39442782426942
C        -3.54535737088229   -0.76831165833616   -2.17173163814071
C        -4.05311236146391   -2.03871135992950    0.92869107968777
C        -3.57639893148821   -1.19362759893944    1.97422169398135
C        -4.63439681303795   -1.49524062024765   -0.22115995579731
C        -2.75359911762634    1.02302814145230    2.47888325102194
C        -2.35276425584538    2.28896889409172    1.94606919456740
C        -3.76756413354312    0.22215559022558    1.88739755264364
C        -1.82072398346861    3.28857422372493   -0.19922851147934
C        -1.71697825489621    2.92655534900563   -1.58365236606136
C        -2.50029254012043    1.88835477628475   -2.11396305892754
C        -2.77390835483878    2.66380480418447    0.64961616632006
C        -4.27086613254930    0.31644972008630   -1.57502469937801
C        -4.84822950175999   -0.12871456423110   -0.30871088263975
C        -4.39038030245985    0.75728981286757    0.71460639195250
C        -3.65599727884117    1.54427968567088   -1.36261680243749
C        -3.77223839850140    1.86858435658453    0.04328099836036
