66
C66 Isomer 3381 Symmetry C1
C         3.97734782920200    0.47185932687760   -1.84929333948904
C         4.58721943322212    0.10780456197261   -0.64192585372540
C         4.29031346888737   -1.29812300632247   -0.41494529541199
C         3.27394083311717   -0.68891928655480   -2.36159504055056
C         3.43435856115811   -1.76742367500521   -1.45316933542288
C         1.98948162184813   -0.28696804419337   -2.78767538134451
C         3.09803777206254    1.57723435481611   -1.92176150418196
C         1.87222963126746    1.12736881950741   -2.59104215016426
C         2.98024708902643    2.39539931174466   -0.80444616385275
C         4.30541614905919    0.82043694092372    0.55359362195431
C         3.56506579505085    2.00684158037360    0.45852144961302
C         3.93156714961329   -1.46547060292533    0.94030177833323
C         3.93613438481151   -0.15302029614723    1.57028449968119
C         2.92593288059475   -2.38075538381083    1.23453533500527
C         2.30966666583312   -2.58184714763363   -1.16200347165351
C         2.19944779128554   -3.02856723847407    0.17836463855237
C         0.86917000288814   -1.12443541912643   -2.62903408668889
C         1.08057338405912   -2.36159865344822   -1.91502853306289
C        -0.43692809563899   -0.51144395718939   -2.69596672490380
C         0.62821310649205    1.69999211566299   -2.36253979061882
C        -0.56652378700185    0.90734918390689   -2.57985523291179
C         1.70489942672554    2.99935168161009   -0.55124280086458
C         0.59736720315297    2.80815091842503   -1.42360822013541
C         2.58244932215747    2.31605650691438    1.45751620745183
C         1.49382172296643    3.02920331105993    0.85104182797908
C         2.94140783622133    0.14168126191963    2.48870574455515
C         2.26069748722994    1.40910000210167    2.45744704891763
C         1.96732914277121   -2.09754700862171    2.27674843952314
C         1.95350240551437   -0.84454605943083    2.85319257297269
C         0.91539982740562   -3.37102385645746    0.71018732504893
C         0.71897544871950   -2.72593259079593    1.96768790594184
C        -0.07164214459864   -3.01189847110894   -1.46506771045702
C        -0.15365078817789   -3.52746196594776   -0.14387385049571
C        -1.59583079061632   -1.34503335986192   -2.45494572525097
C        -1.39427840116757   -2.59096584288052   -1.83246665277727
C        -2.88140298730966   -0.75039476891015   -2.29715518284342
C        -1.85654642350685    1.49309804894655   -2.24050815634866
C        -3.00687427453908    0.68969081101049   -2.15648449807281
C        -0.62826464578078    3.20749994050883   -0.92029917652547
C        -1.87476985821976    2.68578161420734   -1.45501285994322
C         0.19079190984155    3.01345787332732    1.38765010299649
C        -0.80473613348004    3.42819345780053    0.48102346439241
C         0.88477573447005    1.20127024962921    2.82521867514615
C         0.68817002911583   -0.19073191949037    3.06211103410293
C        -0.17183833082069    2.01610301553629    2.36429982084314
C        -0.53332739158039   -2.15224210295510    2.27989487369017
C        -0.54845579463963   -0.81250441048728    2.81588297422356
C        -1.48796669322761   -3.33160385874755    0.34026833660393
C        -2.29928395488957   -3.03810367453619   -0.80507451286655
C        -1.68167590329746   -2.62574169070698    1.54769111815526
C        -3.87833003780031   -1.37448921445368   -1.53603914627651
C        -3.53047909499236   -2.42365059275260   -0.63904197354543
C        -4.05819034420077    0.94151514721771   -1.20154241744359
C        -4.55462080068949   -0.32344224119136   -0.77768331033247
C        -2.85435896045919    2.86657536879667   -0.47262307510622
C        -2.14863707868533    3.15168036800672    0.76664447345321
C        -3.86310874676053    1.91647390959002   -0.21325568847897
C        -1.50713738845307    1.47326210349101    2.40750856120670
C        -1.69751567897094    0.05226053640523    2.62782450659573
C        -2.52876511900076    2.17468546634873    1.70248611295760
C        -3.70633543081469    1.51497083039217    1.17252610617481
C        -2.89583577078782   -1.89086929322706    1.66437447952889
C        -3.88128045870168   -1.97992883178060    0.67382673609825
C        -4.53082471066813   -0.67730929021459    0.56256047334331
C        -2.89837902302230   -0.54217220501074    2.20538399215500
C        -3.93515600327053    0.19481734136919    1.52690262455015
