74
C74 Isomer 5477 Symmetry C1
C         4.74958635547791   -1.10497489338307   -1.02618889549620
C         4.75097025179906    0.02566951866447   -0.17781900594624
C         4.10153834157446   -0.29316170739498    1.06329111708141
C         4.04717821130976   -2.14554968916578   -0.35839016566114
C         3.69486579610920   -1.66402362982517    0.95427148079609
C         2.96282999852352   -2.55157609164250   -1.17894519916874
C         3.96616698055954   -0.72732994607850   -2.18325150479135
C         2.90701325339532   -1.65152838035868   -2.31177467016433
C         4.27049115659500    1.15035329192617   -0.93688072135630
C         3.65728186189639    0.66065956076581   -2.15776257220930
C         3.61743792179646    2.12388047207911   -0.24687811732336
C         3.26243655467235    0.65651479869953    1.70510549091498
C         3.23251166400745    1.94712328105017    1.13191292995877
C         2.09273264136247    0.21515631122640    2.43523483262768
C         2.52102480124901   -2.10107824089926    1.56642134708826
C         1.85679029764073   -1.20111773320565    2.48423280967832
C         1.78393775096547   -3.05953396983387   -0.59658247721348
C         1.71718241988094   -3.06342069454320    0.84150810555740
C         0.58167716155230   -3.02770808682860   -1.36109245453044
C         1.66194768769692   -1.23516395894413   -2.78188002338131
C         0.57044812776762   -2.14593042801537   -2.50718701651391
C         2.37280254590107    1.11861431570907   -2.54455740441130
C         1.41297808100665    0.16164213931965   -3.00540948955034
C         2.57530335362605    2.88285131126633   -0.89314663610476
C         1.86055946382413    2.35642226807336   -1.98242539442899
C         2.15377234143114    2.82661042286522    1.37805165248204
C         1.89798372654289    3.55276815399552    0.15829173105039
C         0.99642010533059    1.11413697831282    2.69647133726835
C         1.07678893698567    2.46623169060168    2.22396723514940
C        -0.33176654382578    0.60063199714266    3.01797305977512
C         0.63922711910908   -1.64167235503748    3.02205793549704
C        -0.46347967889179   -0.75358507198048    3.26511534545808
C         0.50067501228923   -3.44807973171500    1.39628967063066
C         0.09696778370881   -2.87396529104667    2.62003348776053
C        -0.68100754619200   -3.40987376407496   -0.76835839980574
C        -0.67443065374217   -3.69506954090601    0.60682406562769
C        -1.94271768089961   -3.03789145723536   -1.38694170872910
C        -0.63246220159521   -1.80990110287564   -3.08258966420803
C        -1.88776676383569   -2.34528702658383   -2.62185071573428
C         0.05553013996176    0.57613134185020   -3.24074742189601
C        -0.84437538588179   -0.46020222166034   -3.56091459775196
C         0.45737113172477    2.72470606424775   -2.11787282439336
C        -0.47157517266611    1.83234405775819   -2.77875270428527
C         0.66210580120797    4.09669907608163   -0.08313092820777
C        -0.06448555239316    3.70829710903269   -1.26142929503218
C        -0.11588095503080    3.22714561143118    2.07143397779403
C        -0.23777660188677    4.13696205882595    1.00691493137656
C        -1.56117343738432    1.32440420417092    2.68572040423928
C        -1.42641737690222    2.65051846312141    2.29933249170631
C        -2.76594536229649    0.59608849925373    2.28528021934061
C        -1.69652520436277   -1.47696682456971    2.99679476601690
C        -1.34104010297049   -2.77942567801873    2.62880004670585
C        -1.82295552521947   -3.36037876796545    1.42867429777742
C        -2.80080188493538   -0.84090527428567    2.37814992716486
C        -3.07310010413514   -2.75810260215511   -0.57494733869367
C        -2.94064762262626   -2.79639564876994    0.85518172516417
C        -3.51319270681014   -1.59834010056852    1.41423632850576
C        -3.98052936754368   -1.69147718596313   -0.88036150273148
C        -4.20789399198698   -0.95845560965571    0.34271014043528
C        -2.87717709223690   -1.41879044331717   -2.98031029389902
C        -2.22202526377759   -0.23826435231005   -3.51876721338601
C        -3.87222114363784   -0.99234486992065   -2.08216515029412
C        -1.89449647628856    1.96722223084147   -2.55010252199506
C        -2.75950225985542    0.90999070145429   -2.92847619207017
C        -3.86531142139467    0.46049993361863   -2.09241017050799
C        -1.46726416211288    3.72506837678757   -0.90016782867596
C        -1.56939992180155    4.04533258976211    0.46723052539179
C        -2.32961446033076    3.23476822252340    1.33502990965936
C        -2.38019255473502    2.82533834509449   -1.48965148255227
C        -3.62738354713566    1.18721750764797    1.34175731782927
C        -4.27953088997596    0.41827170450557    0.32114456970733
C        -4.11873349156061    1.13541668715924   -0.92494791730603
C        -3.31499359229990    2.45880783453685    0.76464164133538
C        -3.43474107732418    2.36797523933114   -0.66001923414540
