78
C78 Isomer 18446 Symmetry C1
C         4.18788521140518   -1.99336901485372    1.38707356942144
C         4.24156992297037   -0.85997529811726    2.17899549814331
C         4.78659818249890    0.23157145113245    1.37123538938208
C         4.69884509368553   -1.67110645032152    0.06279506242646
C         5.08927574802617   -0.29597432765941    0.07081103324832
C         3.75679920325811   -2.14341153147637   -0.86466764726770
C         2.96189582785135   -2.70158019850591    1.25913805924350
C         2.73576217917293   -2.87653487313236   -0.13777439611908
C         1.86138601940625   -2.40165408859176    2.08391698779003
C         3.07665855342811   -0.41212468580634    2.84359045687337
C         1.91556555351638   -1.21025820914326    2.89109519882553
C         3.94170254651751    1.32966122451803    1.52703417807273
C         2.92520062113205    0.97323636154293    2.51318813522619
C         3.60448810349046    2.16640785385864    0.41563356865330
C         4.77006763171331    0.47935292032204   -1.02736364281418
C         4.19640241512512    1.79445634435317   -0.83051949086306
C         3.40222504288431   -1.37168800251254   -2.01256392934070
C         4.08075672254036   -0.12877256983358   -2.15419887304033
C         2.08014970639643   -1.52577280452416   -2.55923071523133
C         1.45351717585132   -3.04147529435607   -0.65452852014022
C         1.19958281466535   -2.49911844683487   -1.96119351575148
C         0.58946305842807   -2.88464558928023    1.62618492138548
C         0.36497303043299   -3.26324231655232    0.26548125807482
C        -0.52418708067209   -2.49816360132403    2.38432905949527
C         0.69324358393778   -0.52194035438986    3.19274054837590
C        -0.47371340521432   -1.28491353842083    3.14710066738857
C         1.69662554700809    1.60989282149609    2.53696895205281
C         0.55223673853886    0.89798146393596    3.07098467470316
C         2.34472427917092    2.83954872398348    0.43104942054696
C         1.50431481818612    2.69474796099278    1.60503376102124
C         1.66608823146539    3.16737985496176   -0.79845170553127
C         3.49366769460778    2.10420896032626   -2.00656898344930
C         3.41960167819083    0.91294693581612   -2.82794003490709
C         2.23611251116861    2.71064491781584   -2.00122494472161
C         1.45186793388720   -0.44238952263540   -3.26973107098301
C         2.11717694192279    0.79923165109312   -3.31428426871220
C         1.39322935424005    1.99455862191718   -2.92581955566954
C         0.03263039855192   -0.37918235452543   -3.46238649919173
C        -0.12209236325082   -2.55939706071371   -2.39193872172307
C        -0.68539037448227   -1.55741935088028   -3.24484668760512
C        -0.98397669396466   -3.35684539730679   -0.22581860404161
C        -1.17235907247642   -3.11628661394662   -1.60038220779708
C        -1.85510116724818   -2.69575728156981    1.95146085880226
C        -2.12475805131357   -3.17018556945846    0.64756088645964
C        -1.77547377952924   -0.71186741246367    3.16066772408824
C        -2.65799144440928   -1.66666267073574    2.56628447136427
C        -0.75413722950483    1.47550285776656    3.00080307272525
C        -1.95987692962770    0.67158604781290    3.02014838626871
C         0.25128547249806    3.26467230046556    1.59121855269122
C        -0.83580535793456    2.75816361125922    2.39972687465677
C         0.25768777864571    3.44559805404912   -0.84961399419286
C        -0.33005992755243    3.78947675488860    0.38084641948621
C         0.01189220858316    2.02384541329407   -2.83250159860003
C        -0.68975362432662    0.86980243727454   -3.34246756882537
C        -0.59707996125376    2.91686006523729   -1.87986148407665
C        -2.07097112761921    0.83127800527578   -3.15962368208504
C        -2.09894590406551   -1.58364672915332   -3.08381162684081
C        -2.41670452686446   -2.60073592522360   -2.10718832563495
C        -2.80132342931397   -0.39529998713064   -3.09754660684920
C        -3.39002770780548   -2.80652021348522    0.10117659229168
C        -3.51663380935109   -2.45900094133015   -1.29782303848742
C        -3.83272074655490   -1.25818538282747    1.97129599288776
C        -4.25255510233397   -1.94474403437923    0.81281233571886
C        -3.17214235458954    1.10222173056325    2.32456636692343
C        -4.06094744440350    0.15740507383073    1.78988232381289
C        -2.03574167314871    3.20485745443005    1.82394342276847
C        -1.71742020879876    3.79685881406721    0.54894080964044
C        -3.13991337983145    2.35157334007388    1.64288957876078
C        -2.01453678223449    2.79948017444253   -1.64878631272866
C        -2.73409479867861    1.77356253999243   -2.30093375946479
C        -2.57429242869549    3.24711029041468   -0.42129841285025
C        -3.56167344183916    2.46415215496450    0.27351130538336
C        -3.92841501582907   -0.21005079061922   -2.21859914693108
C        -4.33883279023312   -1.26131964947503   -1.40520856050330
C        -4.78199551086606   -0.95604266283523   -0.09409747327174
C        -4.64413044354696    0.32710902181072    0.47098218833935
C        -3.87176595928765    1.13027023582430   -1.70881699600023
C        -4.23561448634792    1.40704630052765   -0.36048596117694
