76
C76 Isomer 5479 Symmetry C1
C         4.74324375470810   -2.17052569288269    0.56515799790654
C         4.66095422176788   -1.11930044448879    1.52577475396471
C         3.51171633702750   -1.35243651055785    2.33207945750569
C         3.64087490163391   -3.04992295478780    0.75369859799626
C         2.86723272401413   -2.56885619310245    1.84088929835284
C         2.96137646339720   -3.20779232376896   -0.49399820433591
C         4.58503769551489   -1.57946230028529   -0.72699429729767
C         3.51727050250171   -2.23017609017211   -1.40746169774798
C         4.74228484592306    0.11660103533138    0.81215743519137
C         4.58037667030097   -0.16577266980607   -0.61913595507487
C         4.07919782070216    1.19439412852555    1.34504357204628
C         2.70485058428521   -0.27691190517244    2.75278371639368
C         3.12894973264670    1.03228947389533    2.40573545123120
C         1.29946321028156   -0.48723056931738    2.96705523256425
C         1.46707697367240   -2.69189183907779    1.84291019424471
C         0.69849882051626   -1.73945289363286    2.60562857157186
C         1.59214884626267   -3.46789887816795   -0.48062039405912
C         0.81425228824771   -3.35017125516659    0.73967439942238
C         0.93583137725579   -3.11533192998410   -1.67899626677331
C         2.66285877157090   -1.45941945088206   -2.22378192262161
C         1.41894278071021   -2.07067000569279   -2.49679050783839
C         3.69747105425529    0.62152966725398   -1.39319296303031
C         2.72549917587082   -0.02669668674880   -2.25392203006780
C         3.60553042760982    2.23597895514502    0.47509894211119
C         3.41345778841153    1.95502680212665   -0.89800744374204
C         2.20915896967869    2.11862628512221    2.30351176776880
C         2.61657689678542    2.95767997238321    1.20956140869820
C         0.45319611535832    0.66445365810850    3.08878364596606
C         0.85770627214529    1.97144868883826    2.63184930405463
C        -0.91385191935517    0.44846733171387    3.23714575623092
C        -0.71574858846236   -1.90158501475951    2.62645344327469
C        -1.48472596738421   -0.84537009808699    3.14791679181593
C        -0.60888329125856   -3.38422449311362    0.66747936453426
C        -1.37967587440280   -2.83782856080777    1.75001345178813
C        -0.47897248159990   -3.14209080037628   -1.75339529091203
C        -1.24859535636736   -3.48391430049656   -0.62622349046044
C         0.27596981403706   -1.36188585951145   -2.97490864865966
C        -0.90169974314859   -2.12283274460182   -2.63113466224108
C         1.53630132839512    0.68784043862241   -2.68521042591747
C         0.26005797193447    0.02217410772163   -2.98752825708915
C         2.40943382624566    2.70320895608190   -1.54899675276795
C         1.46434408858799    2.05253408286980   -2.43324110459491
C         1.66969487416084    3.71939082331681    0.54998811220595
C         1.70871064772490    3.71006547202112   -0.86679967915908
C        -0.12710509354460    2.82573245863013    1.99822021107726
C         0.29417084641798    3.68348918702427    0.97108048847965
C        -1.90772188297733    1.40558622618341    2.83997355381134
C        -1.53068340456709    2.48336236051176    2.02943056833440
C        -2.89046845964768   -0.69788504521276    2.89953940561294
C        -3.15221457108225    0.70913091909958    2.69404324819506
C        -2.79024618066200   -2.74473977199993    1.61674149772678
C        -3.56740292661258   -1.65592199239038    2.18944373403616
C        -2.61370253694877   -3.19928985713127   -0.77371318252469
C        -3.40541829429051   -3.04267077127663    0.38882310556437
C        -2.17247373878723   -1.55047929763629   -2.53819001142037
C        -3.09815406837162   -2.26496299264657   -1.74799905895548
C        -1.04082796931270    0.67140135476028   -2.82367851820561
C        -2.25428123018518   -0.11095568270063   -2.68022767811813
C         0.19181517409097    2.69966181697792   -2.28550746553336
C         0.34593842991008    3.72080698152410   -1.33267469311719
C        -0.51780339441527    3.77076788288204   -0.21697013123408
C        -1.04300923723143    2.01746498315942   -2.37145568306506
C        -2.40810493711198    2.79890310385451    0.92791515025364
C        -1.78870584968958    3.19773293634464   -0.30847694935225
C        -2.10947392770764    2.49976894143392   -1.52721714229961
C        -4.07104066859847    1.10985049835231    1.74770154821102
C        -3.66086308903593    2.16111862690707    0.84488102042180
C        -4.59787738945598   -1.24871946927532    1.24478653749737
C        -4.46715671708778   -2.10865278901263    0.12417583907556
C        -4.25887047924000   -1.60858406017848   -1.18823526626910
C        -4.82624652474314    0.11110434823000    1.00638478764367
C        -3.40697658032738    0.49929231197057   -2.16343208610978
C        -3.30715232225656    1.78511100721858   -1.55295395311827
C        -4.16299121969169    1.80870121228370   -0.42412075123847
C        -4.42585452317316   -0.24697860329473   -1.42282912638016
C        -4.86849258582666    0.55979576177858   -0.34450967144917
