68
C68 Isomer 4474 Symmetry C1
C         4.37230904491247    1.17016894563347   -0.16307392447918
C         4.34245943648346   -0.00464419086723   -0.89918327059160
C         4.10413423646761   -1.09990080991839    0.04679873386957
C         3.98513729336345    0.84530410949338    1.23103174298321
C         3.73218582996781   -0.53515922509365    1.31181802539405
C         2.99057566002329    1.76587368648656    1.61652638001164
C         3.59157305354719    2.24429798932932   -0.58910819454874
C         2.84346674971921    2.72227068963133    0.56603562722026
C         2.68482031297298    2.10600660587428   -1.67643415110838
C         3.43897663552084   -0.17506242584180   -1.98370413956843
C         2.54630108527449    0.86599459042857   -2.37069148690544
C         3.29323675036133   -2.03187694292087   -0.56412726232609
C         2.91078610373129   -1.50308094080557   -1.86321886893875
C         2.37024261415746   -2.78458056248074    0.21890579077917
C         2.57814982016381   -1.03332638930175    1.99367433033235
C         2.03532934974440   -2.28999027640652    1.54826131572794
C         1.83598970307208    1.32635394717931    2.31786241049135
C         1.70841242857717   -0.07351059635827    2.63854088464840
C         0.63875869861087    2.12581896753830    2.15594635162595
C         1.57103708919607    3.09515751984396    0.13353179319315
C         1.49009133081549    2.79706023978997   -1.27105951186817
C         0.43880097361131    2.91644201052346    0.95793845165290
C         0.25971689020797    2.56898138823079   -1.85695436069652
C         1.23689216513132    0.50851022148690   -2.87957722578121
C         0.19426959202237    1.49856706067812   -2.82763059418784
C         1.70379121506544   -1.88063170294718   -2.43538525624449
C         0.84934438898976   -0.87547574773273   -3.02857826993672
C         1.44037283773402   -3.49865358409620   -0.52692059548893
C         1.13973634086059   -3.08337801824438   -1.89617249871358
C         0.21117237652434   -3.96220112304207    0.05488995316564
C         0.78782028938187   -2.69946477095582    2.06347609982675
C        -0.12927483919982   -3.52828699476343    1.32216081414735
C         0.45009086772101   -0.52911672303744    3.16463903022888
C         0.02776519715233   -1.85892528911866    2.91263944572605
C        -0.50483971768518    1.71005584637986    2.82566127268798
C        -0.56640114982832    0.41402440682852    3.42383299978731
C        -1.81990895475096    2.07361096890882    2.36980276582633
C        -0.84286052542053    3.02931812658232    0.33939232407287
C        -0.90970004728295    2.99554827429375   -1.10880454244414
C        -2.00777609241960    2.67017517745327    1.11415555634169
C        -2.15340365346430    2.77525210013119   -1.72602016246844
C        -1.10128788426664    1.15274437781006   -3.25407629515909
C        -2.21091204703880    1.90434512159170   -2.84752821894928
C        -0.53900108211079   -1.22601898628154   -3.21594770434192
C        -1.49945816702372   -0.22317816695887   -3.36017852479879
C        -0.18824686854609   -3.39373160070276   -2.13955731537255
C        -0.79588926082416   -3.93370789229248   -0.93816072011481
C        -1.06786459664805   -2.44625814663444   -2.70670196313606
C        -2.01590810891668   -3.28211079282382   -0.74302601821412
C        -2.25452029079967   -2.44707242949605   -1.90929450854377
C        -1.46608983554477   -3.07516496542036    1.58507352200934
C        -1.36370189340311   -2.17409535711552    2.69124448596732
C        -2.40465305423324   -2.82929518042024    0.54731065576768
C        -1.93991909334103    0.02800727890890    3.41934455665466
C        -2.70699715517369    1.04423045172910    2.81466102582454
C        -2.34563171316280   -1.22992437181047    2.87739455910436
C        -3.30556985063710   -1.69053963011678    0.63289961125107
C        -3.62325874862109    0.41899982569358    1.91255005257190
C        -3.34593780393080   -1.00041217951450    1.86114260583071
C        -3.22405066572389    2.32415881997114    0.43002803696362
C        -3.30770368237209    2.48336613294456   -0.93729099581520
C        -3.93841040707763    1.08733851589438    0.76473212421353
C        -3.31721058431917    0.96196627564904   -2.66221213009968
C        -2.83675692399054   -0.35550639760596   -2.84675861237923
C        -3.11898797380620   -1.34767316069266   -1.86001953584283
C        -3.72398681143732   -0.98714790205494   -0.58103379897602
C        -3.96775985748441    1.29368641296339   -1.49903843124506
C        -4.16586702059992    0.34946738799278   -0.44943424661448
