76
C76 Isomer 15303 Symmetry C1
C         4.77256640380463   -0.66125953242963   -0.36274481287221
C         4.33575919109186   -0.36109118899561   -1.63989998650379
C         3.59980910202582   -1.52494586977279   -2.12564338235725
C         4.35632596377972   -2.01485972476751   -0.03250477659638
C         3.54735214889100   -2.50946519892073   -1.10075485437541
C         3.82009164788042   -1.94041442855051    1.26310744541156
C         4.43657922590833    0.22100355127783    0.70903246716144
C         3.84822872623121   -0.57168758003898    1.74323338463057
C         3.93466046352567    1.51323026954952    0.42111887593779
C         3.56219233800384    0.80753726080926   -1.88955050951752
C         3.43063874600931    1.82089830488581   -0.90669012964772
C         2.42102876318190   -1.05889373837270   -2.69955462030327
C         2.42324108255309    0.38745516245190   -2.64798502709208
C         1.20308362788938   -1.76042261403484   -2.56386958912531
C         2.30682954336900   -3.15977020037931   -0.83853119302859
C         1.15545816409288   -2.89323886581490   -1.68221090335401
C         2.70559943502468   -2.70015422583060    1.56201164079565
C         2.03758619092771   -3.43805108949685    0.52708564759578
C         1.69612569142981   -2.21274248696244    2.45693783961516
C         2.78234340872823   -0.07169802468616    2.54075126146334
C         1.61553691436616   -0.87328336493263    2.86783010626022
C         3.26975379941409    2.10581499944926    1.51922951133634
C         2.62812911441996    1.31037524064743    2.52381088125775
C         2.45698540039624    3.22563341201957    1.30603375922040
C         2.31500545916067    2.71786562232379   -1.07150859405158
C         1.95941049414442    3.54016641667086    0.03207804365075
C         1.23870486712187    1.12000892583267   -2.67934641791269
C         1.26826942674897    2.40114503421467   -2.02157680804561
C         0.02034470804527   -1.02094799797101   -2.89566896592552
C         0.00820817800853    0.42426667126758   -2.96222987847642
C        -1.19531606907832   -1.68306286044377   -2.71695825681683
C        -0.13744929522690   -3.37734904556063   -1.28273916746876
C        -1.27001288801508   -2.88754224352744   -1.95177615679413
C         0.71094640664381   -3.66617270732695    0.97275493437102
C         0.51351374068311   -2.93801277490770    2.18139137407143
C        -0.35266982259569   -3.84331100348018    0.06973039319092
C        -0.74568592604649   -2.46161937847385    2.55335801055278
C         0.30287568244101   -0.27717180256249    3.04795092338149
C        -0.88538883776745   -1.08167049683738    2.94148795822543
C         1.35397928017044    1.91792568797449    2.85043929330293
C         1.33066417792196    3.16829933180090    2.22143226580248
C         0.16564011705945    1.15904489745667    2.97181981101313
C         0.59853417072571    3.98720186321870    0.23204237538289
C         0.18513608026181    3.63663941029879    1.57489687906010
C         0.02855367957517    3.04219951682430   -1.92506099846274
C        -0.30749920067849    3.84752759585736   -0.77922791338495
C        -1.23798477783570    1.11221928427136   -2.85151657409851
C        -1.17869983221373    2.44716410903629   -2.38514467972437
C        -2.44639095791293   -1.00934986922978   -2.63971450461187
C        -2.49610237276741    0.39609832646678   -2.69853706852757
C        -2.59698972859936   -2.95827475596800   -1.41429962074457
C        -3.33272539461600   -1.79505467616904   -1.83162003365294
C        -1.62861066614682   -3.78933139833654    0.64638087363163
C        -1.80372382926135   -3.16881562176568    1.93685962374754
C        -2.80038387932132   -3.48034387712169   -0.13753340086259
C        -3.07871914157634   -2.60656633595388    1.97635629228331
C        -3.74370621135320   -2.84152468790360    0.70067585695105
C        -2.17567525475515   -0.45432610112577    2.77709348157647
C        -3.26670129321597   -1.27119470073854    2.35607216648238
C        -1.07790503112566    1.77601927425183    2.56420900766784
C        -1.05449922508177    3.01030084935861    1.81247686817772
C        -2.26515152143566    0.96502687839431    2.52348146878408
C        -1.68820422684725    3.66593805180462   -0.47561103605593
C        -2.26020906804180    2.98785787555317   -1.60754369444271
C        -2.07413756029022    3.27675584170021    0.82860707169575
C        -3.60136682317301    0.99837476077598   -2.05528479759350
C        -3.45348378299479    2.31181124923736   -1.48136864861274
C        -4.28596536852389   -1.16413398440656   -0.99688940664593
C        -4.42731579774461   -1.67929430693159    0.33504652118935
C        -4.28989078852455   -0.76533227240263    1.46170695627257
C        -4.44630675581448    0.23519060248539   -1.17212850805596
C        -3.40169361538808    1.47001451151669    1.84572789951199
C        -3.28707092227769    2.57120930933742    0.94624508053421
C        -4.08015280219963    2.30973630600281   -0.20740303916893
C        -4.38844764618810    0.57948607443611    1.26384185451773
C        -4.72345524702224    1.05393855367061   -0.04271815080408
