78
C78 Isomer 5249 Symmetry C1
C         5.43864314612794    0.70522129033875   -0.83877074158099
C         5.29473541442613    0.53988033287381    0.57789084268928
C         4.85462867768423   -0.79094522108043    0.85808087385898
C         5.01133744099021   -0.47201479003192   -1.47385561738666
C         4.77721973776211   -1.44753526213471   -0.44056467394179
C         3.92973740702634   -0.14177516268497   -2.35602013581673
C         4.56990976785401    1.78491166435860   -1.25098580369849
C         3.65185153996108    1.27157880578182   -2.21133955029745
C         4.55311446176984    1.65350137974177    1.05505691555688
C         4.06274345453200    2.42198068100230   -0.10767214614668
C         3.67718453387399    1.42682998194565    2.09437130372574
C         3.82863018808778   -1.02251139441786    1.81570964990944
C         3.34694740013940    0.10333383139873    2.52679743313546
C         2.87699187185914   -2.10715317372304    1.64101767703506
C         3.77637789430618   -2.35456064633339   -0.65362111774571
C         2.97687712637650   -2.83731141985829    0.44332158650538
C         2.85473313994067   -1.03354382901405   -2.52164476303161
C         2.90131113003456   -2.25522850860468   -1.80248936886545
C         1.55921044015155   -0.52125003881080   -2.87428412313340
C         2.33480977600280    1.74544693335985   -2.24393012203663
C         1.31679494539919    0.88596668366736   -2.80679457327337
C         2.75676265403457    2.94422150042468   -0.12853880208678
C         1.93087020595056    2.74608233830618   -1.29176118499776
C         2.50312251130605    2.24625315131604    2.21719056646980
C         2.09103321078578    3.07157802882798    1.15014631457394
C         2.00922092213615    0.16492620654809    3.03158813098318
C         1.53250615667924    1.51140657490427    2.93739324138977
C         1.58057346328786   -2.09284274089182    2.30839780612075
C         1.09481613899891   -0.89092862555806    2.96821355004423
C         0.59596437395056   -2.97891802285582    1.85825354514602
C         1.82831464914376   -3.43388497630520   -0.15300685613650
C         1.71240347484629   -2.97147793422324   -1.50478074691201
C         0.69053673701951   -3.60585690055815    0.58027694134729
C         0.43591670012982   -1.41783249496149   -2.81400978515452
C         0.45871300028285   -2.61830372505424   -2.02832585166459
C        -0.82052956363566   -0.90182217773998   -3.11562365243628
C        -0.01200531076641    1.39451020707492   -2.90519453762360
C        -1.02633861766112    0.49430611837368   -3.28399783685603
C         0.54804730010715    3.13726138431803   -1.25561250043643
C        -0.39973638150159    2.58650073244501   -2.19775021955744
C         0.74927585131175    3.43712602132471    1.16120796360573
C         0.03984811875164    3.67385625250707   -0.06329331256222
C         0.15932288433585    1.80356397170160    2.87126439905661
C        -0.18624482827492    2.92958796864542    2.10303437443993
C        -0.31420634942489   -0.59241695701970    3.09627057809032
C        -0.80585943677722    0.76473270502096    3.04552164634380
C        -0.79508311991761   -2.76554690493262    2.09203997071164
C        -1.25304396213814   -1.63552968072516    2.79531902367216
C        -0.59444048051578   -3.56057266911998   -0.04943168685041
C        -0.75124851363013   -3.03607971944279   -1.33789067651703
C        -1.53940943933771   -3.23182308714264    0.96653276599413
C        -2.04593548954696   -1.49990162664495   -2.67580549385604
C        -2.04436161989149   -2.46769222276659   -1.65787006827209
C        -2.41524107181298    0.75391906877031   -3.09670074580914
C        -3.06030945551915   -0.49636872682173   -2.77098019882650
C        -1.77688079202562    2.80856497591579   -1.98567783386912
C        -2.79913848535769    1.91709026192451   -2.45975052808234
C        -1.34739256960007    3.62161874818672    0.24684459298551
C        -1.49934008212351    3.07440315973569    1.56184398356963
C        -2.25707939733799    3.29084258762244   -0.72932975671127
C        -2.17995497903341    1.05730208448608    2.71330353347372
C        -2.53788448285550    2.20032914082634    1.88488920674674
C        -2.61603969392074   -1.36109384930334    2.66414018830704
C        -3.10408755206945   -0.00773085591512    2.73948208220671
C        -2.83378935040871   -2.78044341856786    0.67281377720770
C        -3.14073513073499   -2.46388566718171   -0.70923931453797
C        -3.44783843759126   -2.06857585212448    1.73502519954939
C        -4.14641212996601   -0.53529319054646   -1.92963138572479
C        -4.23300850551651   -1.58186797522185   -0.94184921020218
C        -3.88851093433277    1.88075598293594   -1.51615092344712
C        -3.47456011397525    2.63144599869388   -0.36477629468046
C        -3.66398214560591    2.13649029894491    0.95447683277269
C        -4.62762723151984    0.71036954357059   -1.34335763472516
C        -4.33448337662993    0.06043189150330    2.06660465294724
C        -4.56029232881430   -1.23415811581790    1.46310112014361
C        -4.95651614249634   -1.02909470808100    0.15034932723493
C        -4.59265441287928    1.07275696827672    1.08852457192645
C        -5.10583593221713    0.41388681461756   -0.05798639398613
