80
C80 Isomer 16497 Symmetry C1
C        -5.11204243309101    1.32149205330864   -0.27486212263035
C        -5.01591101949547    0.19627002175972   -1.09098238275885
C        -4.05251178452136    0.49676085804145   -2.14642945064041
C        -4.16028999718355    2.33306342267475   -0.77822850508001
C        -3.46652664477407    1.76769675295457   -1.87146940209738
C        -3.42544479869417    2.81706711202137    0.32593577542868
C        -4.91824402095482    1.19592595047773    1.11030458486018
C        -3.93022495345674    2.18757236218361    1.49931203105061
C        -4.54020965933848   -0.04681120282981    1.67942479952513
C        -4.69050398288331   -1.07684415117934   -0.54798196135628
C        -4.49635215697215   -1.21680985670439    0.86361297129311
C        -3.23644286589750   -0.61317788261294   -2.32394985362867
C        -3.70691069825929   -1.64810783471376   -1.43074363148630
C        -1.84450197879056   -0.47773165649094   -2.60087494160338
C        -2.06250492832027    1.91152028173259   -1.98906622952262
C        -1.27610367017872    0.83273399833950   -2.53801540753591
C        -2.03383691028474    3.03382300562218    0.21364098473911
C        -1.40586738263834    2.75988774209521   -1.04752175076970
C        -1.20083945238053    2.83326862981331    1.35978747771323
C        -3.02884863625541    1.58812769775802    2.38552067676341
C        -3.41950024361841    0.21637738627211    2.55965041824332
C        -1.66480525480461    1.94610841842632    2.38770632877161
C        -2.43347897622703   -0.73278561519384    2.85707745795283
C        -3.57269639704815   -2.20950839369346    1.26099733801662
C        -2.63941507613029   -2.02875062249646    2.34067867983458
C        -2.81849623460834   -2.64029449270673   -1.03358393622796
C        -2.92864479518747   -3.05633222351828    0.31727283433404
C        -1.00231217076410   -1.61618132407828   -2.44483000847224
C        -1.53544211564910   -2.74573523422993   -1.70924427618401
C         0.41170550167761   -1.47618747226167   -2.64285081565201
C         0.13675692479524    0.97274721031496   -2.60573189672650
C         0.97723362601416   -0.16966301757400   -2.80401396743181
C        -0.01353944176134    2.94593750022257   -1.16083076704639
C         0.70596224293829    2.20927918803147   -2.14731382101980
C         0.18496709303018    3.12122907101037    1.24512849383200
C         0.69430828058527    3.50365674773009   -0.04129448388372
C         1.08305600286217    2.61992742053857    2.23347625052583
C        -0.71978655427209    1.05091108139459    2.97465645712864
C        -1.07943272061951   -0.32540024833063    3.16131334614364
C         0.65046412576442    1.46607716033739    2.98036919160524
C        -0.04267040823580   -1.31705091699251    3.16263631636359
C        -1.54588530242893   -2.92953303205069    2.18124074666129
C        -1.78935275619256   -3.62931795832652    0.96096924257507
C        -0.23755947972260   -2.62125825128225    2.58250642123414
C        -0.61957537490850   -3.64462169358803   -1.16969316835151
C        -0.72614779670620   -4.04231298849677    0.21048767572351
C         1.28824537176459   -2.57924679279721   -2.29824933789655
C         0.76468682838902   -3.60421941321489   -1.48438741339441
C         2.68695178678354   -2.38165889384595   -2.20237928023658
C         2.41788412425514    0.00949395385804   -2.70467498913732
C         3.25292906760494   -1.06872490217108   -2.37831660823666
C         2.10088680914787    2.39748151704794   -2.20536002220121
C         2.96895056660928    1.27237198492117   -2.42400629274323
C         2.06767301705356    3.75934790741637   -0.18290035567627
C         2.73622235955189    3.30909487005486   -1.35687299627472
C         2.47510169873038    2.81912356888755    2.02854150484210
C         2.93763649523970    3.50859047235110    0.90795222619084
C         3.43309543504846    1.75861837491640    2.29750089775536
C         1.61067478874169    0.50802906058280    3.31754062659585
C         1.28400170472053   -0.87148066524189    3.29015867067370
C         2.98122680361127    0.62513327897271    2.90972387479699
C         2.41023923454972   -1.59328465326263    2.79054425614483
C         3.45415835615406   -0.65997724228499    2.49869260839021
C         0.87501791510557   -3.29881540854360    1.93404094400781
C         0.58580858768974   -4.04378579662745    0.77690872222025
C         1.49742402631881   -4.06236397558505   -0.32708670979802
C         2.22654304353342   -2.78194551950627    2.05423142712676
C         3.45393205192252   -3.04975705055421   -1.23103421313926
C         2.81055126153368   -3.69676297623668   -0.15003701570892
C         3.20371679303556   -3.03727270520227    1.07190761060872
C         4.32075083012279   -0.90409585987506   -1.43896665636833
C         4.29213088750502   -0.78515498556324    1.37205101977039
C         4.37556153442157   -2.09414972989084   -0.67861357400387
C         4.19589637121127   -2.04106067118450    0.71687811977471
C         4.12405480612622    1.43851200005180   -1.58530071171734
C         4.00606253863483    2.71199649855102   -0.97002324921730
C         4.12969772938775    2.81211294291963    0.40337870382860
C         4.37140501121567    1.66376235220038    1.20532257230775
C         4.61104738555130    0.33845117772945   -0.83598117435922
C         4.66124005431684    0.40659227741674    0.61662309486076
