78
C78 Isomer 10587 Symmetry C1
C         5.05588241433050    1.55770336947019    0.41897995961155
C         5.23358117903657    0.22029517026079    0.63295187901008
C         5.26302190133359   -0.47392618296083   -0.67101436842424
C         4.91559111111500    1.73128275484913   -1.04642778177830
C         4.81894714373685    0.43687524118720   -1.66133515807760
C         3.92447716554334    2.64722432322900   -1.24403324214108
C         3.97339927383518    2.23297161162876    1.07087669696515
C         3.44833061643467    3.09978815394069    0.06862672644755
C         3.06269881719622    1.51062473482084    1.89825469080262
C         4.40114761268741   -0.52289835421795    1.51932137776601
C         3.28068895666385    0.09247729919136    2.14777010134535
C         4.69149098054228   -1.72866830675515   -0.48766497320309
C         4.27623948755088   -1.82152786726117    0.90758666925910
C         3.80366215079428   -2.18899257241856   -1.47140773361507
C         3.65581586433529    0.10975951790302   -2.44385693578277
C         3.26769746044963   -1.24583322460850   -2.40894917808165
C         2.76863383330875    2.36985548041906   -2.05096157853144
C         2.58353776404656    1.09104209975151   -2.62885853776159
C         2.09415858344391    3.32423955061346   -0.04216689823928
C         1.67207620955285    2.99658164547411   -1.39371582101291
C         1.70417528840165    1.98227032530593    1.95455839233248
C         1.23809715679216    2.93648202661274    1.00293839709787
C         0.68580425875105    1.18660846365974    2.59441132946408
C         2.15337037764286   -0.75968464819303    2.49560903146401
C         0.83874103639805   -0.21930093943338    2.78322160040461
C         3.20848846060716   -2.60927736867509    1.22836688554128
C         2.21444025056311   -2.11657030633811    2.13585306346181
C         2.76254616195426   -3.10025338611014   -1.11632573575440
C         2.52926754863403   -3.38818218056581    0.22095638338764
C         1.91504297497790   -1.64444329152577   -2.67746897274229
C         1.61804531864945   -2.83093409152500   -1.95471369583300
C         1.21395403917201    0.67642775418519   -2.84266777656057
C         0.89480076441079   -0.72227096257011   -2.93565949810674
C         0.35810320180052    2.63910390169219   -1.64091316897899
C         0.11918717018488    1.53908762552052   -2.51123162689562
C        -0.14802048624392    3.07888439763828    0.69006893246583
C        -0.62698247576445    2.98883587598474   -0.65365655552661
C        -0.61273960239794    1.70409260876753    2.61314396658076
C        -1.02808119350848    2.72516587878334    1.70089353537833
C        -1.76827146126088    0.92119692481217    2.88721962929738
C        -0.35034022010993   -1.03953231101524    2.80309819655891
C        -1.68155960140220   -0.47680427677205    2.85627926094412
C         1.01792374037713   -2.84332778220369    1.87462531783077
C         1.19137660061824   -3.57919676733766    0.66346906783618
C        -0.23873449458510   -2.37108298822391    2.27911149826365
C         0.30958117385306   -3.14898824857616   -1.57950196262265
C         0.11395399261147   -3.66520091127755   -0.24364787170295
C        -0.45598725133784   -1.18577486967293   -2.83224601118071
C        -0.75964353795750   -2.42956782393909   -2.19921199536614
C        -1.24007116852532    1.13689101057037   -2.66813175011308
C        -1.50487008343667   -0.22589552569744   -2.99705069345393
C        -1.99036653989352    2.73091071113674   -0.91976890027579
C        -2.29483473488780    1.94416998147671   -2.09311340036559
C        -2.41808650133534    2.63678714433324    1.47231184127429
C        -2.90916772525820    1.61225684380388    2.35576291998294
C        -2.94380271829245    2.78305573129029    0.16972529168160
C        -4.07078057092209    0.93849895961855    2.03159876749682
C        -2.85896269098487   -1.18463363735957    2.34262323877797
C        -4.03779592734796   -0.50241637281569    1.96670481795479
C        -1.33326623127668   -2.95614080643720    1.61717923059758
C        -1.14894601538115   -3.53740060984962    0.33422856702559
C        -2.63880497354944   -2.39169517418583    1.65149334122199
C        -2.10927077790557   -2.67115290021210   -1.73208825783723
C        -2.29849382564383   -3.22228296097739   -0.44820693196236
C        -3.29774869474626   -2.67490944007351    0.41586768202649
C        -2.83712414854191   -0.68464052633605   -2.94588601364229
C        -3.16032784055652   -1.88428571896089   -2.21448506446503
C        -3.63774097102160    1.51836020034872   -2.27284744601686
C        -3.88889956142527    0.21492866994394   -2.78788791068799
C        -4.26014294117974    2.27482108108902   -0.02541288922826
C        -4.85022361587762    1.42759106494434    0.96270289701046
C        -4.63515325632626    1.77512704713081   -1.29201594469211
C        -4.85193782143080   -0.89548611431579    0.83064309226785
C        -4.37316931723209   -1.90251782398542   -0.06495812142457
C        -4.37493536274568   -1.64869347370907   -1.47344245863247
C        -4.90693149782052   -0.42390655424832   -1.95779499603150
C        -5.44066902128665    0.28368839783265    0.29399284773847
C        -5.40909318293736    0.54133372212004   -1.08629926782522
