62
C62 Isomer 1958 Symmetry C1
C         4.26220545630940   -0.66617081651234    0.34084182409475
C         4.08066010124499   -1.09913159227785   -0.97145253689582
C         3.34003004245036   -2.34171067206752   -0.92789002338539
C         3.50763926298060   -1.57657101785326    1.21035147909234
C         2.94189907910138   -2.60597227189322    0.41891446490062
C         2.70476890721935   -0.79604333107865    2.06205450846589
C         3.97381664659053    0.66478368512275    0.71698690655679
C         3.10396308821959    0.58594117862651    1.87808039468016
C         3.63875987087497    1.58756545146945   -0.28361106865306
C         3.43516120067285   -0.24450364749329   -1.92141878609928
C         3.28249154550319    1.09367328555792   -1.60145976923458
C         2.34726883846675   -2.27607193344549   -1.92724758315729
C         2.30444450166073   -0.94467687426295   -2.48826461139399
C         1.17199346054390   -2.95530899575128   -1.70028142931685
C         1.63262157618781   -3.05746408372930    0.70748347245488
C         0.88082858571161   -3.50909738184862   -0.40643513009150
C         1.35140764574024   -1.14354297819610    2.31834046245435
C         0.88499462877049   -2.39693753440153    1.76988030270652
C         0.39582537984326   -0.08256085053244    2.59085437546440
C         2.18773139214514    1.57447524041778    2.11706736764643
C         0.84693541953261    1.24969766369448    2.53193441794288
C         2.74851723623862    2.66147438454355    0.02032114156996
C         2.10904205484487    2.72811200954261    1.25934895565749
C         2.10643918095637    1.78230907041664   -2.04300232960505
C         1.94066131090541    2.89966345584694   -1.15516099018857
C         1.06065470932937   -0.32223766401069   -2.73238928765744
C         0.97328933129134    1.11686566604282   -2.57065208333641
C        -0.05271755902511   -2.46708566907308   -2.25380778043118
C        -0.15480705157788   -1.12444999226899   -2.67585192697238
C        -0.52686408518682   -3.68425783854939   -0.33852241035139
C        -1.10542884747033   -3.13768590478567   -1.54481742458430
C        -0.48605526509194   -2.64871184174650    1.85057068036964
C        -1.17339538279802   -3.47047609997102    0.88321271370544
C        -1.02592714583817   -0.28869457337860    2.46463049652836
C        -1.42888113907501   -1.63947130450511    2.29608233615462
C        -1.92906824128440    0.77181804589650    2.06752423070946
C        -0.01731910785996    2.31308623695271    2.13881475147714
C         0.77828307063666    3.23453477981885    1.35854460159609
C        -1.39879905489584    2.11134101205758    1.90176096538044
C         0.73046909411487    3.51772127001362   -1.06548171165127
C         0.19455541532227    3.85186142748701    0.24757461042498
C        -0.32143142280885    1.77046834173876   -2.48840212781042
C        -0.35995400173384    3.06761775474134   -1.89879926137152
C        -1.45417446090727   -0.48324729699296   -2.55896911569585
C        -1.53661054326727    0.96924025977862   -2.49845060429498
C        -2.36716627632123   -2.58223891729988   -1.53314475652466
C        -2.53798667922259   -1.26036937518957   -2.08029524832967
C        -2.53342523487458   -3.07513500869252    0.86377013834893
C        -2.69397374994576   -1.96036716324464    1.78544505625669
C        -3.15236244373766   -2.70626018372883   -0.33272269096895
C        -3.13627795519574    0.40740350705650    1.34719829341387
C        -3.56289142380364   -0.64792750094501   -1.25977604417753
C        -3.47938535075343   -0.95206864348906    1.17152713613002
C        -3.83324457041686   -1.45708468834725   -0.12598046478109
C        -2.70806346470507    1.52462928572004   -1.90751281276111
C        -3.54347104675334    1.25619391288671    0.26641671688061
C        -3.55472519834835    0.70433515026053   -1.08359108246345
C        -2.01764961524697    3.02812155220716    0.98898089140349
C        -1.19546957136900    3.83856868674293    0.14689856900155
C        -1.53151150594450    3.53365545011640   -1.24641116500463
C        -3.06239369346656    2.54907292973310    0.15713432606840
C        -2.67192694448352    2.77330295307281   -1.24374433034759
