58
C58 Isomer 135 Symmetry C1
C         4.23911868740593   -1.10740318127967   -1.35625796663713
C         4.57045419316222   -0.69308331812931   -0.05662241760902
C         4.25031853069714    0.69340565508700    0.09826367735041
C         3.60319270367139    0.02210326097710   -2.00130063613922
C         3.61293912817293    1.14961528067622   -1.11293004282116
C         2.33919099393558   -0.39545654890186   -2.47844973273682
C         3.22985326900639   -2.12716857085585   -1.23159351111141
C         2.11666257265709   -1.76488499778119   -2.04207098718966
C         3.75533705630461   -1.43609165612087    0.89675189736575
C         2.96546239935520   -2.37968026476584    0.15946330325640
C         3.51947813927525    0.81077046423114    1.32189095978283
C         3.12020059803694   -0.52898230834431    1.77274282953648
C         2.59643935954771    1.80888294508123    1.41905113159616
C         2.48495483470563    2.00869359786426   -1.05064879178752
C         2.22128052272294    2.57069776639194    0.24131592751235
C         1.23353114915971    0.46962468466997   -2.50856353432108
C         1.32044061260987    1.76031668002564   -1.87822527548338
C        -0.04694539127590   -0.17474551703212   -2.71526334730625
C         0.83492149734581   -2.21251169667034   -1.71601888091542
C        -0.29264406182662   -1.51546604103883   -2.30193587772264
C         1.65673806292275   -2.63685151094326    0.57016351450281
C         0.66458924219105   -2.88561795669513   -0.46162752810378
C         1.79423707357095   -0.75967610679760    2.21392934312772
C         1.17585370185352   -1.98436462525869    1.77472916058151
C         1.39938768266716    1.64028080884679    2.23200598798486
C         0.92128872925317    0.35229353665024    2.56574464824366
C         0.97954647346316    3.13627506522162    0.53178699843241
C         0.49864614622549    2.62954650923805    1.81327270216244
C         0.06664081751137    2.43827339409375   -1.59323756593621
C        -0.09968242194039    3.13281178182386   -0.35442617321700
C        -1.15424382367744    0.69808270917128   -2.83458328407180
C        -1.11863864559701    1.97425428788558   -2.16518160095560
C        -2.45897128614822    0.21467880793881   -2.80346112581317
C        -1.63837178837007   -1.93751131371753   -1.96188222977839
C        -2.74509267060713   -1.08310653523722   -2.30473358916411
C        -0.64494482761092   -3.13412291635667   -0.04910016514177
C        -1.80757008398202   -2.76219849428318   -0.83144504710676
C        -0.16622693334039   -2.17398025908815    2.10853764458273
C        -0.97411827228542   -3.01361147137932    1.31246618217099
C        -0.51941505007352    0.18807702675281    2.67749636445884
C        -1.01745966328159   -1.12084653360967    2.62443773590249
C        -0.87859647539129    2.43773073277376    1.72390432847651
C        -1.29675706636411    2.89645256615269    0.42374059142743
C        -1.44954696446390    1.25919058455757    2.28312099649812
C        -2.42725781543147    2.16915609008728   -1.56127069667897
C        -3.28894271680866    1.19104450417882   -2.09796654680004
C        -2.48800850082751    2.44696955409676   -0.15360273800819
C        -3.88088093052964   -0.96052687159997   -1.46000388581642
C        -4.17251271053251    0.47361111120823   -1.28877858817821
C        -2.89985254615106   -2.54109007855766    0.09198127659546
C        -2.34122257216869   -2.56331863375913    1.39372335029779
C        -2.36735181518589   -1.41333599975235    2.21953009664100
C        -3.88858673010969   -1.57244139411390   -0.18567299175616
C        -2.74710082087187    0.97448937521916    1.84152290079980
C        -3.33267727891893    1.64323768565271    0.68086117785477
C        -4.23377455045573    0.73379054525927    0.08885367383807
C        -3.25312078713111   -0.37438960568680    1.86790550340196
C        -4.13018897607227   -0.54889260405714    0.78666085392553
