80
C80 Isomer 17057 Symmetry C1
C         5.39879666291101    1.02550294455872   -0.28570072101802
C         4.95159185226654    0.73219314328562   -1.58301285614379
C         4.68905541336068   -0.69724917935415   -1.62869780887901
C         5.25968811097204   -0.19874192884821    0.52862482224823
C         4.83322873220073   -1.24234945664939   -0.32553318941746
C         4.49210442066826    0.11651507450230    1.67652066838833
C         4.79743492926998    2.07021917351179    0.41162510594875
C         4.31049262196552    1.52112849470567    1.69512114015983
C         3.74209737344389    2.80721619708448   -0.15709992537850
C         3.81209350500468    1.38348440698780   -2.12162186446361
C         3.19487771299863    2.45167540449574   -1.43094745491194
C         3.48891639832360   -0.91135669886908   -2.32988264017497
C         2.93561287800399    0.36616024036891   -2.66552508071908
C         2.65761306064763   -1.99112085914727   -2.00310969869411
C         3.89877683544806   -2.19237159623303    0.13192060292265
C         3.01531240202656   -2.77164660124273   -0.84612479645110
C         3.41794160777015   -0.72624765425524    2.09241294496492
C         3.37519641121776   -2.02187190521467    1.47236970792072
C         2.18539744456218   -0.15466628215474    2.57906032178148
C         3.06247087837664    2.05293668949196    1.97016100859944
C         2.79249261855027    3.00507740128350    0.91899435518420
C         1.98062816146508    1.25681967589616    2.46969977813685
C         1.51722540288137    3.39136942791145    0.67659991678219
C         1.79081253548627    2.66826823824391   -1.65470404972625
C         1.10837920459796    3.50070843521258   -0.70825165690049
C         1.55376803618013    0.51594876910987   -2.77160878899392
C         0.97115796098896    1.78136353514870   -2.41864061105048
C         1.28976366028531   -1.92082368815129   -2.44344924846960
C         0.72501655616037   -0.66174071321954   -2.81600632477148
C         0.42305917799293   -3.00157403213350   -2.05938553891975
C         2.07208339360415   -3.70122243789305   -0.37720464056254
C         0.80760759780664   -3.89323729266325   -1.03872008383870
C         2.32176460202622   -2.84642405770010    1.86026839982893
C         1.89573472978732   -3.89640603591819    1.00090140828035
C         0.99827508585568   -0.96686744992159    2.72131052018905
C         1.16150223449493   -2.34085522371145    2.51520620744126
C        -0.34258424092219   -0.42266839883827    2.71854553310930
C         0.66868743332083    1.79537882394313    2.38112291274769
C         0.51362323974468    3.03193472687622    1.66067451186789
C        -0.51074702818658    0.98441033353273    2.61140303397555
C        -0.74711132860936    3.54167865986708    1.43926061953785
C        -0.20603577795662    3.81830106443964   -0.93840417962921
C        -1.04233474827360    4.15354835252862    0.17287200151555
C        -0.46699690887179    1.92433608315134   -2.44248530236859
C        -1.00529535426043    3.08258579968650   -1.86924637953040
C        -0.71380423597766   -0.47949892561992   -2.86839256772903
C        -1.34727537656884    0.79857344276160   -2.66525203867956
C        -0.95061019918283   -2.85175723497897   -2.27075224705912
C        -1.50681287518123   -1.62432483398759   -2.74753046229173
C        -1.91530379392485   -3.42554800337281   -1.39823162252385
C        -0.14901613317090   -4.24585193596044   -0.03863878896137
C         0.50222020564528   -4.13948665842122    1.22605007135368
C         0.04233215079231   -3.16203188511619    2.12407669046039
C        -1.49423163320574   -3.87609832299253   -0.12751986673079
C        -1.48935494121022   -1.29096168882393    2.46112597833345
C        -1.25537186304350   -2.63419475186405    2.02392620655094
C        -2.10813179106566   -3.24631771625220    1.02874116610588
C        -2.80203272127106   -0.74235433647331    2.28388259185952
C        -1.82905801173893    1.54718098035994    2.40002390406372
C        -1.91944040987034    2.86125947180752    1.90110138972982
C        -2.99294859588050    0.69027932570819    2.27811986685618
C        -2.36708302214276    3.85356001237017   -0.16305440150465
C        -2.36090852231029    3.13248341709607   -1.40928714203198
C        -2.96468619731588    3.22385468644428    0.97614717001942
C        -2.74889608045837    0.87722575553401   -2.30429224510760
C        -3.22988352082912    2.05970062300685   -1.61890043626292
C        -2.88606001137601   -1.56041650204803   -2.37897746721654
C        -3.13257479222904   -2.70297923360593   -1.55326578175737
C        -3.54222953983969   -0.33120854805248   -2.18030270552950
C        -3.36511813245647   -2.69772009574448    0.86627308904906
C        -3.77892063854830   -1.57121728382776    1.64498254266206
C        -3.97147664207692   -2.58224609144430   -0.45269143670250
C        -4.68444745507770   -0.38666661247574   -1.30608184006144
C        -4.87446164887512   -0.99157809173602    0.94446362458963
C        -4.84725964638909   -1.49401590827916   -0.43581583034940
C        -4.13012816199750    1.21395503474932    1.60555690452216
C        -3.97390254443981    2.35080608830361    0.74456877636761
C        -4.27191817128946    1.92193269003021   -0.62872739674502
C        -5.02047994212518    0.36659916821355    0.89750494936794
C        -5.00390060095574    0.76474436098601   -0.52214332516509
