78
C78 Isomer 7338 Symmetry C1
C         4.77859993440314    2.12464064426816    0.72417093788401
C         5.08945813219022    1.08930924812522   -0.22771657626616
C         4.26210885696721    1.28322924685380   -1.35364260990156
C         3.73613602408393    2.95158456755933    0.19227260040925
C         3.42269753017063    2.44822196297749   -1.08720868947839
C         2.68105904633317    3.02378457941849    1.17091093556068
C         4.26958148068293    1.49928353583252    1.87438012112952
C         2.99151497225363    2.08257266724429    2.20166409531855
C         5.01420838181744   -0.16566636082863    0.45814492206213
C         4.41455641329391    0.07327524033703    1.75609407466285
C         4.58343145294114   -1.25476675769654   -0.26468304143140
C         3.70762013255890    0.18826094647304   -2.06132605835506
C         4.08159015094547   -1.09882205900113   -1.60361229861618
C         2.42029108554235    0.34758104327936   -2.71935220703479
C         2.09499386644542    2.49836492349915   -1.54855843302572
C         1.60640176145310    1.52029409383212   -2.47950667528253
C         1.36711217691621    3.17053093143668    0.74898784633124
C         1.15553205628132    3.15126832130068   -0.67523143780795
C         0.29940922591206    2.71134977476486    1.60449867116287
C         1.98024398886466    1.29302961582562    2.74220858852596
C         0.60633422145243    1.74147535748767    2.59492314698991
C         3.40030629890301   -0.75399832105654    2.24029498753870
C         2.27902840674317   -0.11668366259909    2.91881760918703
C         3.81161743055039   -2.28372938026330    0.37519871570867
C         3.18138369109667   -2.05050999744120    1.60879285192310
C         3.26214922342095   -2.23911313073804   -1.87100942851432
C         3.14187490231474   -3.01817500722765   -0.66372084388047
C         1.74423932923629   -0.80881026358974   -3.12794301829980
C         2.17184528994078   -2.11837197108462   -2.70685698023815
C         0.31885020780423   -0.86014777183799   -3.26820800427639
C         0.19912757986758    1.48068729967592   -2.77017549671194
C        -0.48891826417614    0.26675027013269   -3.12905181933634
C        -0.15585095072593    3.19395271529378   -1.08379707009392
C        -0.61892745445908    2.47141218206350   -2.20414572000721
C        -1.06375969043877    2.88995712265963    1.16514226932709
C        -1.24286286975347    3.31743032592515   -0.15609875914124
C        -2.16861068996732    2.21761278167010    1.81805896553386
C        -0.46101081238872    0.91718767570815    3.09260923272636
C        -1.84676436577370    1.16990612251228    2.75755587923108
C         1.20980164915600   -0.91093902470619    3.27216540058467
C        -0.09629351996891   -0.37175774907557    3.51096003640202
C         1.97795943590117   -2.79715336408028    1.88856743154550
C         1.07053302555674   -2.27251617898878    2.82339875271094
C         1.97866376084108   -3.70789345767727   -0.40161134933693
C         1.40554168581986   -3.65063813458055    0.91152038560354
C         0.99892050179867   -2.91514569371267   -2.48213738820905
C        -0.13798238562400   -2.15331283153868   -2.86683331793577
C         0.90443804144396   -3.71739891670357   -1.35372409637907
C        -1.38822177427197   -2.29633471979115   -2.25452274716240
C        -1.89792256058980    0.06362180868675   -2.87703928751975
C        -2.32540444697374   -1.23826928408243   -2.46723630251336
C        -2.04158391975511    2.35206899510413   -2.09960131321200
C        -2.42544290794957    3.01050547640214   -0.88515634178410
C        -2.72722739117839    1.19770938423403   -2.52681658154199
C        -3.42984374709625    2.20869327587979    1.18948721852104
C        -3.56020815339646    2.61734407377851   -0.19647632076009
C        -4.37747814143508    1.13607524930884    1.38006222029768
C        -2.77874874395124    0.11995974808296    2.90148198226346
C        -3.99339731378357    0.04608536071779    2.14690622814463
C        -1.00314931151018   -1.45717276599575    3.36672182225747
C        -0.31007838558477   -2.57815072784204    2.79924966691659
C        -2.31161189728466   -1.22527571183088    3.05443983461683
C        -0.00576487140361   -3.78575048951111    0.77499538831719
C        -0.32741445819943   -3.77094657332100   -0.63480017234069
C        -1.48908984136072   -3.14355039256099   -1.08649259443525
C        -0.90686074399091   -3.26183422860709    1.71356375004548
C        -4.11091957364737   -1.30347593804983    1.62521564684381
C        -3.00121527405932   -2.05879725123144    2.10763783323734
C        -2.54398327642699   -2.90253552834097   -0.12593604839793
C        -2.24603847144007   -2.92028359426339    1.28903827286367
C        -3.57100924919473   -1.38997054160175   -1.79712626689079
C        -3.65192435080958   -2.19032995397519   -0.57856506949089
C        -4.53905269371632   -1.49878261532681    0.31383430268680
C        -4.02443764785578    0.99658032260354   -1.97106981563760
C        -4.46331092723243    1.77307629690563   -0.86610357723636
C        -5.04165647413725    0.88612392482749    0.13586933564746
C        -4.47029266849554   -0.33765586729317   -1.71204008344178
C        -5.09389113189772   -0.39113089463532   -0.39470811879361
