80
C80 Isomer 27821 Symmetry C1
C         5.00475710087654   -0.90207291140270    0.40500974722697
C         4.69322662262495   -1.00044335012988   -0.98841223602566
C         4.27448235832343    0.29736620642262   -1.45136312810224
C         4.88954951512645    0.47165433059745    0.78673117518712
C         4.63182816697147    1.21807128660445   -0.39229133754653
C         3.97922844344222    0.57005907300822    1.87109908191557
C         4.29653417515957   -1.67932857690212    1.35044396355990
C         3.54016172077436   -0.76116294034313    2.18873164834773
C         3.71429322219944   -2.85652911142045    0.90435559286947
C         4.01540885625737   -2.12738551104847   -1.42600358214091
C         3.76922301329508   -3.16088349978226   -0.48205231874606
C         2.82693192380018   -1.96678052764881   -2.23292521401705
C         3.05336577380321    0.47992243662887   -2.13760031461142
C         2.29089464355394   -0.69723629123745   -2.50454024483377
C         2.36106318526594    1.75666943603139   -2.05162366963010
C         3.94525691328714    2.37993923487495   -0.24875288206799
C         2.97656021874310    2.75900613475050   -1.25380655216768
C         3.11627727248175    1.67491424029855    1.97960315237178
C         3.39303944273673    2.71894948907290    1.04658926464463
C         1.75746823376076    1.47476953128932    2.45204029928599
C         2.19964396908332   -0.99254010076160    2.50496955283660
C         1.29233339121429    0.13888090213135    2.69594071033689
C         2.40590993525972   -3.20592896198413    1.39678001255735
C         1.66058593103231   -2.30268017600314    2.16998772498269
C         2.51918438411430   -3.77409638634086   -0.82557706571714
C         1.95089404936267   -3.07077570329623   -1.90526128687111
C         1.73284862729203   -3.91530018775691    0.33416824195124
C         0.56761125369060   -2.95943330228832   -2.00695183194617
C         0.86826925595304   -0.58393151388876   -2.75851617757010
C         0.07261728283590   -1.77622981116410   -2.66105641583674
C         0.94312391292651    1.86420293113651   -2.31800509275779
C         0.20548491016236    0.69106323899021   -2.73561288474281
C         0.18182525351344    2.97454892562804   -1.78964326314580
C         2.19263076900130    3.74992868239211   -0.65353924458941
C         2.40571930932238    3.66303052321442    0.79256729276449
C         0.83150526898019    3.86211787370754   -0.89433757923734
C         0.77865814787381    2.51366145720718    2.23612831151617
C         1.15995923161391    3.62466796022058    1.42459765318085
C         0.24051711275864    4.08075455441799    0.41562208161808
C        -0.62613898371396    2.22823826751370    2.35682413935718
C        -0.11754197308431   -0.12307456217934    2.84877303259936
C        -1.09420926049670    0.92573732153905    2.72198711972421
C         0.25186098207288   -2.52197937497172    2.25703800954905
C        -0.57941969955572   -1.49049371215451    2.81840507871738
C         0.35186766451809   -3.89588998893980    0.22387353464782
C        -0.26327328252248   -3.61336048618986   -1.03849350503995
C        -0.35057072997730   -3.49902114077732    1.40838232663541
C        -1.68327481219531   -3.42733384123823   -1.08012246426463
C        -1.30791804105406   -1.68393300155324   -2.75910846293470
C        -2.20768418675311   -2.55921923423223   -2.06718566994118
C        -1.24010197220608    0.75655850929219   -2.83572249531849
C        -1.95455036292291   -0.44547258645905   -2.97219773131013
C        -1.25999372476625    2.92736552573507   -1.68290904248745
C        -2.00015138344372    1.88815157296345   -2.34641926383666
C        -1.07111011544524    3.84613015863758    0.57276577162433
C        -1.55249982866876    3.06389944853403    1.67401492897693
C        -1.87065820853404    3.54793052146772   -0.57713211087619
C        -2.86674534234024    2.68111538401822    1.33035523694705
C        -3.09919446664417    3.08197651399034   -0.04490459535867
C        -2.51893365856554    0.63157771119263    2.57995260950150
C        -3.42742737129145    1.50155971827323    1.84127650156154
C        -1.96074714079384   -1.73529429011126    2.86845933295614
C        -2.93625583620183   -0.68752881552522    2.73392505385982
C        -1.74051248787109   -3.60070482374336    1.34064621766113
C        -2.44630111172091   -3.61394899181725    0.07999962699376
C        -2.50805471072411   -2.88494324660712    2.25362937228875
C        -4.08129000595801   -1.22166619358604    2.00872223538924
C        -3.69669881839737   -2.92154783500243    0.26840607004282
C        -3.76298922760068   -2.54276189042234    1.62918306022514
C        -3.45627898548873   -1.89945820852102   -1.91969837917387
C        -3.32336012609278   -0.62459539893136   -2.57637718104829
C        -4.22515923300580   -2.04286887234557   -0.72707982602437
C        -3.36978507046257    1.73490087999914   -2.04049463613970
C        -3.92519459229420    2.34276111303500   -0.85435227733934
C        -4.05118441797438    0.46543799344848   -2.15874112488697
C        -4.52396913588060    0.96701649914921    1.11069516509401
C        -4.77485776820173   -0.44255192550960    1.10478986741776
C        -4.92688446585451   -0.89356450644260   -0.26674811131104
C        -4.78823343625258    1.42072116871007   -0.21204345714592
C        -4.94144747010830    0.28369503453556   -1.05686714218254
