80
C80 Isomer 6879 Symmetry C1
C         5.50554328896760   -0.48564517105595    0.94314269283682
C         5.45450040316002   -0.19551003940603   -0.49263822527493
C         4.82782800840175   -1.27292675223835   -1.15165462668804
C         4.89959023212158   -1.71679244977617    1.18971549892082
C         4.63223693092158   -2.28501848290135   -0.10927054205156
C         3.77880502693903   -1.49799356595720    2.08384501669773
C         4.76848574203017    0.54008385389634    1.61396624601326
C         3.67218781977762   -0.06922667532979    2.29839364738209
C         4.95520335764708    1.11658263806134   -0.64190403480695
C         4.50559695867143    1.56557087603122    0.68254361113051
C         4.12462354449943    1.35792127652324   -1.73313481408719
C         3.77637925189205   -1.04466586936089   -2.11226708131479
C         3.52730063567414    0.28586175532696   -2.46611211717726
C         2.64111949850472   -1.93933219662775   -2.23250394238106
C         3.53710441000445   -3.06817728724435   -0.20548272611470
C         2.69021309009672   -3.05729744114333   -1.38199951166557
C         2.61494523947618   -2.24757263495767    1.94995220415227
C         2.66077623471130   -3.26000707866380    0.93479627428958
C         1.31497804067123   -1.66513913754851    2.25800298162778
C         2.41241520316094    0.54867873793543    2.32096827423293
C         1.20634852509342   -0.24872596026118    2.44016817310453
C         3.32003045288088    2.28941635920076    0.80998341040929
C         2.30635348783488    1.85976530591507    1.74081006998459
C         3.17117676418437    2.40636378314810   -1.64797597899611
C         2.87996992145532    2.96551950585313   -0.38693018289397
C         2.21079661556225    0.72677358237266   -2.87508369152803
C         2.06294956762452    2.08176404721278   -2.49028241470103
C         1.32267786149823   -1.49998520098987   -2.68214685597211
C         1.08194769355225   -0.10159181970776   -2.93748151007967
C         0.17391953127779   -2.32584705477978   -2.51145584901009
C         1.51286371856985   -3.70231927585755   -1.01368885337702
C         1.47787496234453   -3.76900587857129    0.43598038784221
C         0.33014420308079   -3.51044709325805   -1.71970070816869
C         0.13314949229171   -2.41280234802444    1.97779252945475
C         0.25371212161049   -3.56214872802414    1.10840341627346
C        -1.16445485907588   -1.84002744833705    2.14512314694042
C        -0.08458051221105    0.37940311715299    2.40156321431789
C        -1.27956778454291   -0.42392691553288    2.38523364386204
C         1.03374951138853    2.49745666268514    1.74006860468256
C        -0.16401846081650    1.80721995656518    2.15259171932550
C         1.70495077848303    3.67711107694492   -0.30478359478170
C         0.92509740356885    3.64396447806169    0.90166633681640
C         0.80562672790542    2.68361445727055   -2.34973104535301
C         0.79707762347030    3.75687288069838   -1.41794658975642
C        -0.25029159025322    0.49126663275373   -2.83847809700877
C        -0.38537143382084    1.90710694037532   -2.58751506818123
C        -1.16998182502557   -1.78954036083633   -2.66595987322092
C        -1.39756688587196   -0.36302276536352   -2.71457337563334
C        -2.25418693088782   -2.61722279321972   -2.29349270750338
C        -0.77009579271780   -4.08743062198708   -1.05934050465025
C        -0.83362775867539   -4.04620265377793    0.40005632159473
C        -2.02970883173619   -3.80118632743133   -1.52823969177366
C        -2.31911584503835   -2.59794707122632    1.68493468861022
C        -2.15064711684905   -3.68861653242353    0.77630609477949
C        -2.94542718774337   -3.77963780798728   -0.40056637879442
C        -3.55765595684449   -1.95427083318824    1.60474975075507
C        -2.58283050224818    0.21221492869397    2.30508645357884
C        -3.71801204916034   -0.59745523963731    2.03991893176062
C        -1.44837328692399    2.39194702774204    1.88669209862408
C        -2.65340006744316    1.61584739270874    1.97343738403382
C        -0.33532115466298    4.14029810742988    0.57124847948815
C        -0.42557722669790    4.17845489092415   -0.90118360155263
C        -1.49209356069622    3.56750285457666    1.06857049243546
C        -1.64610181872046    2.42234940869934   -2.12311023167379
C        -1.61915270182644    3.59322484959204   -1.29023689721284
C        -2.39778785105932    3.55996829259439   -0.06683720656791
C        -2.70027104857464    0.17942235637931   -2.35894689754308
C        -2.79085090658723    1.57018464345056   -2.03257432079638
C        -3.49990847963721   -2.07415028687299   -1.83772691147333
C        -3.92173975594164   -2.83723783268892   -0.66554229972261
C        -4.42367049056918   -2.15893428405768    0.45366720013506
C        -3.77200104055781   -0.70580039192787   -1.91674843091350
C        -4.83685403331159   -0.07981267191318    1.31554472318782
C        -5.08457951631801   -0.97028955440777    0.18918515960518
C        -4.80747452603419   -0.24951691857791   -1.01749716910152
C        -3.77705740456584    2.06933126899694    1.20932770811112
C        -3.48797862095894    2.80036628869065   -0.00807016013283
C        -3.85541536375532    1.97928195778015   -1.14811348824741
C        -4.80221210509137    1.20556006547550    0.82795359380195
C        -4.81128759755410    1.11013519536085   -0.66046197291539
