74
C74 Isomer 9949 Symmetry C1
C         4.49428733018731   -0.91002376828645    1.37399659098798
C         4.17258116214272   -2.06064384046657    0.64974515945544
C         4.36448044423685   -1.75681007141150   -0.76980094713068
C         4.85596620096544    0.11158809393882    0.43694736101054
C         4.66078174502359   -0.38088789019955   -0.90171592333079
C         4.23619020350607    1.30516121992967    0.87099698140272
C         3.55133486619669   -0.37442522631898    2.30127293267579
C         3.45461757210552    1.03507018571600    2.06553528952044
C         2.38559501303687   -1.12636546673607    2.60875317289752
C         2.92904516481660   -2.69739314785084    0.80726334019659
C         2.02068581433052   -2.28954581846092    1.83324076071015
C         3.29713315222652   -2.34444666151900   -1.47813195047423
C         2.43533649583105   -3.00889701699148   -0.52320242635589
C         2.69337796078212   -1.62981001422965   -2.50506964906319
C         3.92723945549981    0.41420485786194   -1.84489573984466
C         2.99677083322265   -0.24334619343623   -2.69427582479921
C         3.68441252272636    2.14576533466132   -0.07595731159358
C         3.55209623157047    1.72697981909209   -1.44774477373222
C         2.55497584355242    2.97870377429530    0.26866353089504
C         2.26809848467645    1.75158391330746    2.33393523150462
C         1.81161409695127    2.80818503239044    1.44466927310894
C         1.32671540114458   -0.36881554787454    3.13348806460782
C         1.28870699835674    1.04313264083760    3.04646396320391
C        -0.02142618187611   -0.84073954507055    3.13210802496238
C         0.64410673322652   -2.63468501785764    1.66960940268249
C        -0.40340314325715   -1.98223608000867    2.43074466257510
C         1.08523364346902   -3.15096983190294   -0.74485970339423
C         0.24002270333244   -3.22579721114126    0.42487212169543
C         1.29743965149247   -1.81887348236193   -2.75928102660023
C         0.49672402407328   -2.64426892314546   -1.97332160790914
C         1.78216608301778    0.38487407519969   -3.13671434516639
C         0.74606875366597   -0.59531870044654   -3.24246115130619
C         2.38960916076786    2.36631775677102   -1.96849747610509
C         1.89848130195917    3.26226026640239   -0.96088235373982
C         1.44781728667381    1.70765458988707   -2.79424565654379
C         0.59091311038413    3.65655846388143   -0.96657192833620
C         0.41222144448050    3.21194860104691    1.44236824823934
C        -0.11860942929755    3.77478903905960    0.27099824812649
C        -0.09427089944204    1.44503263922609    3.05654724543678
C        -0.89675019536261    0.29003278594895    3.21550612797238
C        -0.54054929976858    2.55612529720389    2.32194629188652
C        -2.23364621473736    0.22186270477878    2.79216890918360
C        -1.81515389183182   -2.14076820683337    2.13354467389905
C        -2.75805869869879   -1.05292716485848    2.35581272365030
C        -1.10120061380691   -3.42028475132135    0.18489965018758
C        -2.12316624809349   -3.09697635762642    1.14406210654642
C        -0.91471307673868   -2.49128833687177   -2.09385573902060
C        -1.67149042079578   -3.22958612077878   -1.14360373606167
C        -0.62035445778150   -0.29920240530286   -3.14579736306429
C        -1.51211531517354   -1.34554964697582   -2.71185942469147
C         0.04684223435138    2.07947214455497   -2.77173792596209
C        -0.31202580472850    3.18580946393798   -1.97881940512726
C        -0.98223015718503    1.09374630462087   -3.04232605328823
C        -1.51867234578640    3.70241604126094   -0.06045128403606
C        -1.62501562289731    3.34898345961172   -1.45158734226822
C        -1.92437111475196    2.55517864598432    2.02736342438122
C        -2.76700223194864    1.43914144662573    2.31523679284227
C        -2.42852283444864    3.18007418532714    0.83407022760140
C        -3.83447242219927    1.42277820198919    1.35117156169974
C        -3.57392658403571    2.44562967128445    0.37165285514658
C        -3.95744206380657   -1.01253810339578    1.59727154923775
C        -4.40923807180767    0.22774689461897    0.99411631480313
C        -3.33787150912799   -3.04551573055751    0.42260161139648
C        -3.03091739135707   -3.04428028958296   -1.00779003947299
C        -4.24185370707307   -2.02789695157454    0.64981133671406
C        -2.89795512669522   -1.03177589394185   -2.41725397435379
C        -4.68705169991813   -0.02887797281623   -0.41296812639451
C        -3.67921205498650   -1.92301086535908   -1.61365113749872
C        -4.56516441142902   -1.40537573964365   -0.63507573100261
C        -2.30675433243983    1.37179536141659   -2.67094551386757
C        -2.63737699870593    2.50830059632075   -1.87355102205219
C        -3.69900416142930    2.13501018272981   -0.97863389548793
C        -3.25773151260564    0.33236724798150   -2.37189148052517
C        -4.16196887795762    0.83987305345585   -1.37502677344308
