78
C78 Isomer 12358 Symmetry C1
C         5.35580712197827    1.26338943283411   -0.20460118753949
C         5.11120619908941    0.73660262165710    1.07960045014946
C         5.04874766239226   -0.71262552605834    0.95469534514482
C         5.25558309261365    0.16127533284298   -1.17992342099401
C         5.10195776783640   -1.03124257847453   -0.43973162683498
C         4.29645953640363    0.52077001235715   -2.16227147169971
C         4.57153420895118    2.31278815084549   -0.65387684497820
C         3.98375438147670    1.89371951143744   -1.93651303146763
C         3.52490992434569    2.83479160060303    0.14634516019254
C         4.00453432496684    1.16633632021475    1.84542517309380
C         3.19535119323151    2.25463762899852    1.40564886335833
C         3.98966481605947   -1.17615454601566    1.74220880353013
C         3.35012427748989   -0.03074338508580    2.34961897996273
C         3.17806602802878   -2.26118448023545    1.32920723815937
C         4.18765802775925   -1.97620880213709   -0.91255816879050
C         3.41576446177000   -2.73623087400294    0.01328066682050
C         3.22512910382005   -0.36629746101784   -2.53391963884367
C         3.32553273860586   -1.67621358063284   -2.03128412753731
C         1.88178746409955    0.13700110746298   -2.78126430558069
C         2.67514395214857    2.32645591752963   -1.98025730073860
C         2.42639851862884    3.05871580102690   -0.74900040249265
C         1.62681100480164    1.51546476778076   -2.51047656643409
C         1.14609684380447    3.21620122265570   -0.29726741153387
C         1.82516695821551    2.28742228350693    1.83723453324280
C         0.85255635126124    3.02205077173034    1.09565782908274
C         2.00898986807752   -0.05413811041131    2.69648228926699
C         1.31338890021577    1.21447617819346    2.65558661347493
C         1.85664032952384   -2.37841600801601    1.90560546502187
C         1.25018723332110   -1.29278249757377    2.62630367754776
C         0.97502892993734   -3.29905060589815    1.31465943420973
C         2.30991451802694   -3.25711973323227   -0.72538299286056
C         2.16525381717414   -2.50290661840374   -1.93330604532681
C         1.19837924951387   -3.68115114489154   -0.06059905180463
C         0.73159467380937   -0.73797931048310   -2.79895349687234
C         0.89389182772566   -2.10792762561791   -2.37226653660453
C        -0.59405473976447   -0.20254767559525   -2.87996879223278
C         0.31117513065745    1.98472338347643   -2.28265066854443
C         0.10470590081678    2.98527968458504   -1.26952625541610
C        -0.80580272187807    1.20223000747218   -2.69341555877066
C        -1.17436426530367    3.28499436615805   -0.86931182159554
C        -0.52500719606037    3.04097558774973    1.48238594058627
C        -1.51210618074267    3.38844875397281    0.53113816711106
C        -0.03522751218044    1.19187949645351    2.96250280101432
C        -0.94579137620993    2.19475608745737    2.52013220979363
C        -0.17192965005222   -1.26898735074122    2.81575206661818
C        -0.77351779895872   -0.02524684165838    3.12163604983966
C        -0.42704124535565   -3.26562469614820    1.51277574833047
C        -1.06122739670843   -2.26448246533884    2.26800366666439
C        -0.04586233314653   -3.66653713305196   -0.74249805037156
C        -0.24317742202742   -2.83897113307822   -1.86542889485386
C        -1.03650227376414   -3.70322709786989    0.28617585265769
C        -1.74986038823804   -1.08043835100959   -2.75138882593937
C        -1.57347827071197   -2.37046723750515   -2.12646611554342
C        -3.03862817595467   -0.53372051732227   -2.75662597915685
C        -2.12617120322941    1.73675118852985   -2.48999800059313
C        -2.30225182879776    2.80539451296927   -1.58050683358436
C        -3.24714481474514    0.89630486063983   -2.68183679513608
C        -2.86941650217489    3.01652977202265    0.66144210055307
C        -3.41376192536177    2.84999574650236   -0.67516311760083
C        -2.25848534732734    1.65328749127021    2.55084292405539
C        -2.13698074691383    0.25778200962541    2.89816518772808
C        -3.26830571581893    2.10718049883664    1.68556960187304
C        -2.46947642012919   -1.98483771726010    2.01099292883353
C        -3.03819540489484   -0.70387054649983    2.37740677350959
C        -2.31022011243657   -3.35617014118868   -0.01042267049555
C        -2.62416778132003   -2.85924841063266   -1.32021487858805
C        -3.11280245977312   -2.65597602200893    0.94911548584611
C        -4.14768424692788   -1.14819251499858   -2.06190767739794
C        -3.87605323180533   -2.19908683100562   -1.19943920235701
C        -4.20429785150770   -2.09479688466260    0.21766961573196
C        -4.46163848206535    1.15966069487888   -2.01991504861037
C        -4.51370808179433    2.04783230111034   -0.90269934670585
C        -5.01220632355939   -0.11320040545380   -1.59972841115811
C        -4.33060830024747    1.19562740031021    1.40075207180609
C        -4.19840449914528   -0.21685987226825    1.74458503389032
C        -4.83923300704662   -0.95819311165638    0.69400014047820
C        -5.06051292173082    1.30712125863005    0.21027460406058
C        -5.36859018276807   -0.02579791918538   -0.25431291965398
