72
C72 Isomer 8622 Symmetry C1
C         3.45241670822845   -1.42337153325361    2.32154219280233
C         3.89020535203341   -0.13542964000331    2.13341126371348
C         4.47914453268793   -0.03885519602063    0.79204640985973
C         3.72567915515068   -2.16365258727645    1.08989302570505
C         4.21578032298392   -1.24848635301588    0.10075098370334
C         2.62360067892238   -2.96287190373923    0.83748605569867
C         2.10758115558790   -1.66841772753353    2.71722140037641
C         1.68316833467359   -2.77967623108482    1.93148537313205
C         1.20141789188278   -0.60307811373955    2.97466802977995
C         3.01320470024974    0.95936984603599    2.33932594645207
C         1.67916697306318    0.74998017760965    2.79107114449039
C         4.09978965443531    1.20705390017138    0.27830508241322
C         3.26133153185747    1.87447093356659    1.26611426369068
C         3.72192634388720    1.26976704644100   -1.05888504855972
C         3.59215156585949   -1.21912510746877   -1.19078360222163
C         3.48179549305487    0.06158774456180   -1.78884594458881
C         2.11765047190177   -3.12394727729093   -0.48844181445533
C         2.57572195362821   -2.21285167163157   -1.51323369781400
C         0.82525236945626   -3.66854585050152   -0.54487578924821
C         0.33929399263103   -3.08332293115317    1.79634200473303
C        -0.01163960477462   -3.78144605539251    0.61739817039951
C        -0.20831013278981   -0.89180537617759    2.87396872068001
C        -0.61667733038118   -2.21465262489659    2.45374505885702
C        -1.15687104205654    0.18226137815249    2.83666418299169
C         0.74420172107156    1.80705095615166    2.56309951964354
C        -0.66079736897714    1.53604755585732    2.75154299351330
C         2.30634819189840    2.81048342884892    0.90071478513464
C         1.15999837004411    2.94810810221817    1.77440734277320
C         2.75304699593997    2.25027325724194   -1.44674076432690
C         2.17784005636015    3.11977054139197   -0.50695152354685
C         2.40820630757901    0.37660294827805   -2.69443101986187
C         1.94870606116804    1.70825071947098   -2.49484769514363
C         1.62801206010395   -1.90522274100826   -2.52395786889680
C         1.49765563397981   -0.58852823021807   -3.04938434294049
C        -0.06899721414215   -3.40330957644017   -1.62810000392639
C         0.30833631598861   -2.46052071041368   -2.55166535056286
C        -1.36849652279054   -3.80090749362231    0.20238319705842
C        -1.43153648236596   -3.45242397605075   -1.18495475134103
C        -1.95997735974735   -2.46088546759431    2.18061155616448
C        -2.34284948950664   -3.33583641380351    1.08085198848120
C        -2.54875825727733   -0.09892958972731    2.51736070382619
C        -2.94021756273303   -1.43272066948683    2.29787246602276
C        -3.34265634446763    0.91356115557877    1.84534234268346
C        -1.57272210679835    2.55662453259462    2.37537814845086
C        -2.82535182631488    2.19549900271025    1.74854524311694
C         0.20194749826678    3.90459198166660    1.38065031557078
C        -1.13973831935549    3.75072519162027    1.79088348140885
C         0.99079227153731    3.75524108592387   -0.93477033143461
C         0.16317828095735    4.34744298747168    0.01870809685444
C         0.57388845957945    2.04383667942581   -2.63867934395652
C         0.16253063045912    3.19513485935417   -1.97177218990440
C         0.09487618851460   -0.26524355233251   -3.19322168721470
C        -0.64226998335109   -1.44249596672196   -2.92883009423760
C        -0.41007781727934    1.01612778109140   -2.90919120002652
C        -2.41476001922501   -2.54939234113474   -1.66118650286046
C        -1.95732475727782   -1.39936983510100   -2.43870418451901
C        -3.52518152277218   -2.84620328915721    0.51862962523696
C        -3.98872665112087   -1.75012884781397    1.36390950097493
C        -3.55841220377291   -2.40570548935194   -0.83325511422658
C        -4.19336758586393    0.56438704974231    0.75453020616379
C        -4.54089871715164   -0.79046973707754    0.54908811894079
C        -4.25165268448822   -1.15619273752273   -0.83661423653778
C        -1.75646608219710    1.11857128076331   -2.40991706696850
C        -2.53033405100779   -0.08417187259430   -2.25180046190902
C        -3.87041605052141    1.09413687914044   -0.53011629062282
C        -3.70464171797519   -0.02518119845686   -1.43765315934004
C        -2.96972705338010    2.97633201905249    0.55663176798231
C        -2.00765224093865    3.99918495515222    0.63350354525822
C        -1.20743859193502    4.26010371728501   -0.46058700793457
C        -1.21513276732086    3.39529202942983   -1.60852018571042
C        -3.14928571821390    2.27189154726517   -0.67286392877803
C        -2.14748104535211    2.34961264454351   -1.71830205112258
