80
C80 Isomer 10922 Symmetry C1
C         5.40554219759470   -0.08848084671624    1.24764561054204
C         4.70714020345193   -1.27708025660189    1.48872319701184
C         4.43506624329335   -1.95559089037663    0.25937837650970
C         5.33528166584146    0.12083466789735   -0.17687840352951
C         4.75193108060233   -1.04156920029582   -0.79602812278369
C         4.66768076849877    1.32625352828391   -0.40630950907480
C         4.62948697114509    0.95378114298893    1.87212945792815
C         4.29814798758050    1.90145885344275    0.90037308397081
C         3.57466982657784   -1.03476437478464    2.35054718150969
C         3.51955653852380    0.38539207561266    2.58774018119521
C         2.40938226939255   -1.77933348085776    2.19505436668794
C         3.33764085026281   -2.82925670949793    0.18027443542027
C         2.30699571058349   -2.82157983779768    1.19000846109878
C         2.96706328800949   -3.11024567363582   -1.15725907058730
C         3.84310064005586   -0.91775540285611   -1.89001753392395
C         3.11285626398022   -2.06945761031859   -2.15347019877950
C         3.76150701926669    1.48969603333162   -1.50501160260510
C         3.26914860213603    0.36344728699235   -2.26268913408121
C         2.99418904107976    2.64211840959970   -1.44014859935041
C         3.13572237824842    2.67682845143745    1.03955706492665
C         2.77371041485822    3.32836212862598   -0.16721087292456
C         2.28275843913834    1.04886795201810    2.63040644592917
C         2.10308616584593    2.31313069882427    1.96997454231279
C         1.21110322000485   -1.17528303409462    2.70116249546215
C         1.13425664377669    0.22890422605414    2.89357527426163
C         0.00747828643578   -1.94515667041627    2.63067588293759
C         1.00763005186780   -3.33963875805263    0.87426330334791
C        -0.15880425888055   -2.94602682638916    1.62263644360372
C         1.76434414726453   -3.75913005282072   -1.40459308007334
C         0.77270807410922   -3.87899754807338   -0.41474453626181
C         1.89531116974910   -2.02023875891893   -2.91836274723385
C         1.15354011369336   -3.16612188737221   -2.58035266586971
C         1.95975304635892    0.42892006004238   -2.85374660380917
C         1.23796153971437   -0.79358081671361   -3.15771018476784
C         1.80756880349944    2.78926347472460   -2.21906738657664
C         1.20262841818434    1.66254719099572   -2.81109796769969
C         1.56879664664108    3.98273070496177   -0.24251002576286
C         1.01018079788340    3.76261657401830   -1.55995094410913
C         0.75851556355988    2.82128650029162    1.76759057567930
C         0.53943918678030    3.73891031444662    0.71758836956519
C        -0.15513712377318    0.86953913622303    2.94842839905952
C        -0.38945057693145    2.11898259344556    2.26441271341222
C        -1.12065764908410   -1.35602309413257    3.20434828194661
C        -1.23039919157379    0.07080174016837    3.29514916501264
C        -2.40123732841222   -1.84719905560148    2.89932393268235
C        -1.47777627581331   -3.12769956533343    1.06776646679418
C        -2.59422661440532   -2.60759719289322    1.74131086487907
C        -0.49982338616511   -3.64256057751569   -1.06407034329133
C        -0.21633675954542   -3.10164787425241   -2.36939695719972
C        -1.62051451233082   -3.25224470463635   -0.36380928082121
C        -0.19933093570318   -0.81582941656457   -3.22283284497660
C        -0.93122690192318   -1.97775271675935   -2.80502935069617
C        -0.24154918839919    1.65791278425935   -2.90291857839981
C        -0.91686310082491    0.43149171418287   -3.21543146479276
C        -0.35130641240598    3.59307834492554   -1.42029214201959
C        -0.68237391707392    3.68324057493122   -0.00811871938164
C        -1.01948315105373    2.64191986078404   -2.21526609879099
C        -1.70483172563751    2.35657045458041    1.73379483025118
C        -1.80834768090186    3.04459955799256    0.48045426738318
C        -2.59286583498552    0.43682267317826    2.99127013668317
C        -3.33724936775990   -0.74842774062997    2.87694373790517
C        -2.82995343970846    1.53456593710858    2.11950832947347
C        -3.76024024859534   -2.07686064318791    1.04392503642183
C        -4.23175867340930   -0.95083647962288    1.80763164281822
C        -2.66347588410366   -2.54650127289753   -1.08696628307254
C        -2.27358987955503   -1.91133123154827   -2.30229277857697
C        -3.81698950341827   -2.05656885849776   -0.36524945783665
C        -2.30605158157258    0.39797762352651   -3.13802087324517
C        -3.02293691905969   -0.81255515771881   -2.77756572545550
C        -2.39353941190292    2.45129959431517   -1.85502307980304
C        -2.82635837052574    2.71959859512606   -0.49748375121836
C        -3.08090517226141    1.48907546703245   -2.60939995927907
C        -3.96058384293650    1.45245532616943    1.28442529932396
C        -4.69149248606578    0.20058660388859    1.14854282939970
C        -3.97987053618953    2.09379086683724   -0.01286038244849
C        -4.64048891252155   -1.04331032445831   -0.96235733772485
C        -4.24848528590472   -0.49019618910618   -2.21603417209336
C        -4.31032978052242    0.96804228833764   -2.14383771063198
C        -5.09832643667471    0.05320834355232   -0.18100108578533
C        -4.76971201697890    1.29252037679191   -0.88212311600180
