70
C70 Isomer 4249 Symmetry C1
C         5.05394755275280    0.90004590178018   -0.60837626312708
C         5.14599372887727    0.15240631513946    0.55367407637407
C         4.37598271798946    0.83286901651361    1.62609094019276
C         4.44915229465184    2.18068950870669   -0.22117926007132
C         3.86013847944496    2.02397512169150    1.08670145181363
C         3.66050157503403    2.59096064770336   -1.27179955791323
C         4.32083573866003    0.39104731945623   -1.74444655380866
C         3.58532740312149    1.49452851514317   -2.23564508889984
C         3.65280504014560   -0.88126746916958   -1.69829962811934
C         4.74904516172015   -1.17800035471640    0.52554807169601
C         4.02337429791291   -1.70138395567344   -0.59139433089734
C         3.53766769185701   -0.12838997077821    2.23073790990809
C         3.92405434319095   -1.40029257031531    1.70632318464892
C         2.14523105691392    0.15226030360487    2.46102846357787
C         2.48185149170011    2.34482863209288    1.29958355757731
C         1.66806482281734    1.46172512189408    2.09932294117423
C         2.35076256075198    3.06674085581203   -1.04892881518433
C         1.78966992766778    3.05248763628383    0.25274995796199
C         2.25346198110775    1.38936969968154   -2.64708965755094
C         1.53405773985673    2.50337781559080   -2.08402568888311
C         2.28594373446188   -1.01376488983170   -2.22641951853118
C         1.58012419427266    0.14731544076105   -2.70819632034820
C         1.46181338469313   -2.13847052124124   -1.85734258274478
C         3.03783740702621   -2.56664454150119   -0.03776148897879
C         2.94071843465015   -2.31464530831855    1.38102623850060
C         1.89258396824570   -2.93481287995943   -0.73650604179583
C         1.21236733025283   -0.93820036271197    2.49292418136565
C         1.65632114865353   -2.21113726735356    1.98316581039409
C        -0.20812164084957   -0.69511214705833    2.54562366201114
C         0.26494635242528    1.71454746482030    2.21425811412644
C        -0.62996490483732    0.66380274543321    2.61261487679785
C         0.38411315665921    3.21965877515543    0.32250940321852
C        -0.29743103623315    2.84273171413442    1.52478874694683
C         0.16585862993310    2.50777757460045   -1.98940870933385
C        -0.39060212596483    3.22009568266372   -0.88088491656178
C         0.13681170998787    0.20791775104625   -2.81235631816695
C        -0.57182750042761    1.43055982409450   -2.59410176704336
C         0.06682222245129   -2.19580560737305   -2.23594252215108
C        -0.59667735020111   -1.02899450643771   -2.77777467891136
C        -0.76645006407834   -3.16205372439625   -1.60237941978491
C         0.92342281790428   -3.56145236300183    0.09068581559316
C         0.72968659306347   -3.08164740629809    1.43896255937083
C        -0.33447447346473   -3.81114160369404   -0.43262215907387
C        -1.17667520005155   -1.70373297408006    2.17124999515642
C        -0.67906050655309   -2.91712573273965    1.65406655046175
C        -1.34131101326644   -3.55554796599974    0.58992184784162
C        -2.53975946994005   -1.35958779069776    1.78914054819015
C        -2.03096336755991    0.91011222461932    2.59488628716765
C        -2.97767418154640   -0.08063869159771    2.13793615249277
C        -1.68276330873044    3.09020936069903    1.59393559523761
C        -2.52309451984405    2.17938884468428    2.27591450785551
C        -1.78567441975710    3.29564181178011   -0.80727568474548
C        -2.40239507169115    3.49710216110710    0.42723299154469
C        -2.00159749950649    1.48562505682376   -2.47132634987156
C        -2.62098095940375    2.46993035737488   -1.66141191061848
C        -2.00063117480286   -0.96052339291570   -2.81564304626747
C        -2.71404936383364    0.28132894469399   -2.69714913561308
C        -2.18787376376962   -2.92686998619579   -1.41518244354243
C        -2.49280004763249   -3.03337773645701   -0.00529295147859
C        -3.21158064232383   -2.01603806326258    0.67516650212607
C        -2.80829582833575   -1.94708785350217   -2.13769445039065
C        -3.93933405017378    0.05944469092674   -2.01847432589128
C        -4.09031126500602   -1.25314690677930   -0.14130952438001
C        -3.92333960493386   -1.29264588019313   -1.54340095250533
C        -4.03291069539931    0.60629954688161    1.42124965279183
C        -3.75901243533628    2.00490537173054    1.51426427728509
C        -3.67337502395717    2.79242448206885    0.37816470541858
C        -3.82091724803329    2.19411183146302   -0.91907897666202
C        -4.47917713961262    0.09641458161239    0.21010496219363
C        -4.39118979379709    0.91788177398126   -0.98643349916583
