74
C74 Isomer 8943 Symmetry C1
C         4.76892397342953   -0.79206441840473    0.59791160261242
C         4.91791736918316   -0.19583457002423   -0.65265154838409
C         4.65730761263102    1.21578504535007   -0.50806966871559
C         4.32228203907907    0.24202381384617    1.52189128269522
C         4.20222425225097    1.47366230857576    0.82123347380453
C         3.22672129236654   -0.26248125051299    2.22446116735096
C         3.93861872400954   -1.93074752942170    0.76781788544402
C         3.02081615856487   -1.65328509779399    1.84668643170608
C         3.44624505332168   -2.56069716735702   -0.38806023371796
C         4.15218298692024   -0.66583092335119   -1.77697479013540
C         3.48804845391396   -1.86744390676800   -1.65942641578651
C         3.84747316954605    1.60584747877176   -1.59632813316964
C         3.44283685043059    0.44633618203219   -2.36595264366082
C         2.93295632519618    2.61409207314162   -1.37738153096241
C         3.06351381247698    2.29193026742290    1.05618052550923
C         2.59614998915156    3.04191878066664   -0.04854609632996
C         2.11363723815669    0.54720676715483    2.53041925053567
C         2.05603924160197    1.88607099823945    2.00633483585309
C         0.90977862545144   -0.15609165547539    2.90125046018164
C         1.76051277601701   -2.24503929327322    1.91855447225518
C         0.67922800167885   -1.54178949150877    2.57200763855131
C         2.20616625838324   -3.21955832672476   -0.30964742752169
C         1.44760573592940   -3.21769803130167    0.89110334606126
C         2.19835320762174   -2.02458549509335   -2.27696220202955
C         1.49920749959721   -3.01970893328454   -1.54758467467642
C         2.12744764356685    0.33446463631895   -2.86265770781019
C         1.47285221983994   -0.96570992893031   -2.85800249110116
C         1.75001207400765    2.65359475022179   -2.17231755023752
C         1.29471634796682    1.51782855479797   -2.86527417661116
C         1.27825822354245    3.58144902329240   -0.09898783164630
C         0.83575519554805    3.48571415048076   -1.45469124750647
C         0.79192413613885    2.58119131530085    2.03173962987973
C         0.35466215670946    3.43610084651419    0.94679460422369
C        -0.19142859294536    0.62796356323039    3.20979548331663
C        -0.21081674883577    2.02861316504463    2.84370722163179
C        -1.52813570169787    0.12504578185009    3.14867896989288
C        -0.66816049878492   -2.02166588755853    2.45564354599072
C        -1.81946337887250   -1.15343789661922    2.62845256480921
C         0.13900269618493   -3.64097415887745    0.76481587667465
C        -0.87562464381250   -3.18437108316146    1.66704414900937
C         0.12544169209464   -3.19145370123576   -1.66089502985379
C        -0.47235361051816   -3.83644906315435   -0.53820524196183
C         0.03797866182924   -1.09941724888287   -2.97532326586029
C        -0.63833990189973   -2.27682541227069   -2.46485225014545
C        -0.12378169785019    1.39871406492191   -3.11094038097840
C        -0.73462783095086    0.08560828332290   -3.26343517826879
C        -0.49200811872385    3.42711156224761   -1.75813103459188
C        -0.94681403485315    2.46661832943219   -2.71522852962614
C        -1.06209026194527    3.56704547316883    0.61993023468881
C        -1.47182639898608    3.57880188887533   -0.73295388783390
C        -1.55828375877243    2.39443985748676    2.67848022645821
C        -2.37521215152302    1.21775608225449    2.88425214605956
C        -2.01682911836174    3.03860402203934    1.52403167042418
C        -3.37184328684027    1.16721368732802    1.90417004762272
C        -3.20199175408609    2.33080225311767    1.07172892976894
C        -3.03201388564344   -1.28224650282598    1.84635785875006
C        -3.76056509105872   -0.10239502923427    1.39188850708290
C        -2.10778393911783   -3.38013361009640    1.02964119454432
C        -1.84150200681073   -3.76907389450385   -0.35806799402486
C        -3.13278704629319   -2.43354591467928    1.02461265859991
C        -2.07144550993015   -2.28873508898442   -2.29346242956841
C        -2.66164628232682   -3.01008656008949   -1.20382699915669
C        -3.63033448221255   -2.36330912790222   -0.33675383485979
C        -2.13571778889330    0.01065229784530   -3.22272521634785
C        -2.80874644623231   -1.17530708744309   -2.74436640054659
C        -2.34263841276483    2.30472662016476   -2.44263394006315
C        -2.66684769933534    2.92878833963118   -1.19473802234015
C        -3.53668344188318    2.27052024785533   -0.28743588767144
C        -2.95123390116537    1.13116592851764   -2.83919045569727
C        -4.34747381558777   -0.07627590774956    0.10998261377099
C        -4.26329776605833   -1.22715765704063   -0.76150509550123
C        -3.99412616174044   -0.77926175233739   -2.08513771822315
C        -4.22073859668836    1.09053167130611   -0.73069410888662
C        -4.03658393033599    0.64774849210398   -2.06058123374936
