80
C80 Isomer 30947 Symmetry C1
C         0.26152649920858   -4.60809607096063    0.14167524469016
C         1.47110689202130   -4.18988887812691   -0.41253514969001
C         2.25907755792055   -3.72063006446293    0.71350390000982
C         0.19877328195589   -4.10844723213644    1.52096810432936
C         1.38412325331496   -3.45393196726850    1.83783509082401
C        -1.05249917250217   -3.51737588038117    1.71560126895062
C        -0.98209180524428   -4.35005398924407   -0.45836264448639
C        -1.85581760302829   -3.76916144712449    0.54316581815786
C        -0.95817733224510   -3.76677227233624   -1.72615565001204
C         1.49346581268805   -3.40934816022746   -1.61733137447388
C         0.26302073200783   -3.24411862692202   -2.25846699081662
C         2.48033478359887   -2.37053325673027   -1.79718976818146
C         3.29044129499918   -2.89457137542553    0.48723573574108
C         3.54589823955598   -2.39621266727464   -0.86001841824511
C         3.57789341250558   -1.82807647343976    1.43210145912426
C         1.37302519814409   -2.15436946122879    2.42807585483318
C         2.52739568589285   -1.31001028905026    2.24820500405018
C        -1.12467884426609   -2.27310319950925    2.37916003022489
C         0.09593393589186   -1.57972875044099    2.72368193882520
C        -2.37323625244900   -1.58769804311645    2.22411585366380
C        -2.90238575297707   -2.92176297166965    0.20078089766825
C        -3.31414618484828   -1.95674334844891    1.19982608228613
C        -2.01548468907578   -2.88994222367170   -2.08610257624376
C        -3.08102628169099   -2.62016612594888   -1.20652208286779
C        -0.05118110555451   -1.99881845253986   -2.90464830931481
C        -1.46459061847581   -1.83203628020114   -2.86870029185834
C         2.16343092239949   -1.10567808686739   -2.43131042149419
C         0.81119967949609   -0.89740397923348   -2.91240098951996
C         2.99829304760802    0.05006332354566   -2.21686480335108
C         4.34788616713592   -1.28640300504271   -0.68917123710395
C         4.42732190064501   -0.96855025152607    0.74130256783643
C         4.13694681873749   -0.08570282383949   -1.38059300874797
C         4.39505752763586    0.41365803575350    0.89604917197158
C         4.47966112039420    0.95810473908611   -0.44409387413319
C         2.44506529596890    0.12660069107739    2.40231491221519
C         3.46788827951130    0.97222385227179    1.82521471357108
C         0.04556676101848   -0.15753299256374    2.93865793596997
C         1.17013128055545    0.70655723926463    2.72783478858802
C        -2.42589686863724   -0.28369398387282    2.74383446624354
C        -1.23321614524509    0.42299735120531    3.03432379676204
C        -3.43052201711977    0.66191135505203    2.34732790712595
C        -4.29311573263382   -1.01058166918555    0.81692478487818
C        -4.35960854849612    0.31619965385398    1.39442675113969
C        -3.85409177441278   -1.50193304628184   -1.55064043650990
C        -4.62504944304934   -0.87549678264418   -0.54668485101829
C        -2.05994204798837   -0.56128171688789   -2.93343073616615
C        -3.36690716017526   -0.47624255611018   -2.42049480204177
C         0.22241678856495    0.42773824479444   -3.03211197201578
C        -1.21034779831365    0.59822466460576   -3.01935589445235
C         2.46432220657116    1.38964539207551   -2.40277217268488
C         1.08137009315164    1.55820944529523   -2.82031874566920
C         4.03941006915990    2.22436753600156   -0.68277299286515
C         3.10501918830419    2.47147025537850   -1.76136356271415
C         3.19473496886421    2.34099653441566    1.61249097362070
C         3.65640835632332    2.99562017586252    0.44379148933624
C         0.91160121570385    2.11783153084273    2.46941054663061
C         1.92109371210722    2.90768169866530    1.93152921108089
C        -1.47038336422677    1.81811884049970    2.78268114904309
C        -2.82439831268644    1.96961844208388    2.35801222415130
C        -0.43756922049519    2.64000971517746    2.33996822155032
C        -3.11801880451324    2.87995118118919    1.35753832400784
C        -4.65298899730135    1.26654443225579    0.33094455198758
C        -4.75564507288665    0.52166954186101   -0.86588189977077
C        -3.91251376710239    0.77969261127709   -1.96602176565028
C        -3.97709290806974    2.47297560082935    0.26912069203447
C        -1.81017293651248    1.85625090969250   -2.65038001523278
C        -3.11774017880783    1.93980959568434   -2.01075046857273
C        -3.31606145733114    2.86333732963866   -0.94733577606486
C         0.46522987503995    2.80343570018485   -2.60319378197115
C        -0.94347674965492    2.92688602289742   -2.44818369540780
C         2.37050673086586    3.64030607555539   -1.35427141378334
C         2.65866497247342    3.92748046476090    0.01266192935843
C         1.61576139179226    3.94201504385802    0.95332675504637
C         1.07184582921412    3.80279614002771   -1.77157805230097
C        -0.75978999407006    3.66234823263397    1.36973228447120
C        -2.06537799286719    3.69428259972877    0.84757170652569
C        -2.26133810815492    3.74952705319053   -0.57730811633357
C        -1.17632157087271    3.88844053138955   -1.40686074635399
C         0.29397174553911    4.17802361395024    0.53480890523798
C         0.07708008949484    4.28447700452833   -0.86355355564279
