78
C78 Isomer 1220 Symmetry C1
C        -5.00770030157369    1.96992660322439    0.98137955536661
C        -5.08990156613255    2.01775904651774   -0.44599500458295
C        -4.93092681527104    0.65818520387707   -0.93459675230306
C        -4.80583753333366    0.63101649385350    1.36869497037067
C        -4.80536378248048   -0.21450213746887    0.19030212338937
C        -3.67158985081388    0.55522140323801    2.26630471859340
C        -3.82740727232752    2.69816320318907    1.41700924328226
C        -3.05526293304454    1.86435488615209    2.29172980695545
C        -3.94608779663480    2.71762426027908   -0.88973164544312
C        -3.18688700829000    3.19329491219918    0.25563187691918
C        -3.86883767775281    0.61747359477727   -1.87462971285104
C        -3.23147146558428    1.92448164808622   -1.85732260316014
C        -3.07188780794938   -0.52739378320298   -2.00096542413996
C        -3.94384342822466   -1.30616752752763    0.14000594660993
C        -3.25427575849932   -1.61668792480984   -1.08813901892907
C        -2.88185863288084   -0.57584829873968    2.28757485086029
C        -3.22107448079417   -1.64119956800491    1.35911354445381
C        -1.49785502537229   -0.47676873335229    2.73999879616574
C        -1.66682908943964    1.94545885057410    2.29718406309019
C        -0.88713918786338    0.80103203744246    2.73654699003724
C        -1.79181669564267    3.20179651641418    0.18897669702048
C        -1.04036908970068    2.82204481392500    1.34909282010346
C        -1.85242002658599    2.02993974877933   -1.97604151533378
C        -1.13734888541308    2.87920473242098   -1.04949311411205
C        -1.76542349329489   -0.35476998080186   -2.59696713382350
C        -1.11554891592552    0.92609534805203   -2.56479138382200
C        -0.95989876153297   -1.48244327526393   -2.70680320766431
C        -2.33505039390180   -2.71604315624231   -1.10369194971070
C        -1.26501120340164   -2.71085465246111   -2.02376464908999
C        -2.39846839724982   -2.72974713282087    1.33690022077301
C        -2.12353083024154   -3.43806467928806    0.10319453389367
C        -0.66775062550929   -1.63462577552361    2.74797366727304
C        -1.22818147354389   -2.82382461359888    2.18828472783819
C         0.75750467759847   -1.52201902873254    2.83658039936666
C         0.52776800769878    0.92011686311279    2.79898436105478
C         1.35894762350929   -0.22333170915995    2.96531733574918
C         0.35607748147165    2.86703134490926    1.29224495950802
C         1.11675429632146    2.13710488226903    2.27257909083093
C         0.25471996047215    2.91827371128740   -1.09421434525090
C         1.01152854676325    3.23333041208109    0.08417050820553
C         0.28780717359368    1.01971776280584   -2.67174864135175
C         0.94424786654658    2.18194184614041   -2.11957719383387
C         0.44685167470550   -1.38302921666260   -2.84041422772755
C         1.10032176002264   -0.15274319765010   -2.85290846999369
C        -0.01957398945588   -3.36657358611535   -1.77158609879966
C         1.05421346237383   -2.53301838253889   -2.25213907777853
C        -0.93694354765749   -4.14702636695274    0.30586345828512
C        -0.41492456709665   -3.79894916092284    1.62267710621448
C         0.15322294374411   -4.08538497299259   -0.58857059690761
C         1.57025592540151   -2.57800647496285    2.27890897735285
C         0.97587705568406   -3.61958684248866    1.53072283646255
C         1.36466720443669   -3.85545515283744    0.16751490145238
C         2.87472699444256   -2.28236262599043    1.87059149746550
C         2.79898405463444   -0.06154569038095    2.84707029029394
C         3.56486328418553   -1.11091695712142    2.31170207530913
C         2.47943181040351    2.31390191209383    2.26223261066560
C         3.35327248870982    1.24091139649956    2.67671720386890
C         2.43067821674143    3.34924959107441    0.03539675717863
C         3.15172986899960    3.09073323572267    1.23994761352657
C         2.31681612032636    2.25957638525048   -2.15277809976470
C         3.07131646329457    3.04654392059119   -1.19864111928846
C         2.50598170393458   -0.16628973082279   -2.56728019936390
C         3.12605782200986    1.10760874383739   -2.50403699598234
C         2.30428076141569   -2.43232458111610   -1.62731532703279
C         2.44718317385072   -3.14569183882267   -0.37750648779874
C         3.32668305463272   -2.58830466960909    0.56746355966565
C         3.11643419016404   -1.26473453598919   -1.88573532046151
C         4.63412806552424   -0.87004766333515    1.39116683984082
C         4.32280299084873   -1.62468687717089    0.20914551763351
C         4.28543212560224   -1.00069710191412   -1.05626227924627
C         4.58733368897044    1.44534201284430    2.05160756247491
C         4.48437070309310    2.62790455944109    1.19673650575234
C         5.19962495596237    0.40225447101830    1.29041282124255
C         4.39128981357663    2.54327228150801   -1.21276930036453
C         4.38513999672994    1.28257017787571   -1.95716380151893
C         4.96433136377356    0.26020949816026   -1.14624526160337
C         5.09274809048648    2.31663925583328   -0.02792661323440
C         5.50089084775996    0.89936003603820    0.00009862987265
