64
C64 Isomer 1540 Symmetry C1
C         4.29957077135581    0.51268828135737   -0.97056925327288
C         4.04787267308873    1.37404425027395    0.15956035314455
C         3.68261069344000    0.56515182375993    1.25971088983332
C         4.09242995628362   -0.85322587480389   -0.57275989576250
C         3.81746111496563   -0.82306125185310    0.82005522923056
C         3.13719873963968   -1.43985506492671   -1.44509505751283
C         3.37376764786600    0.82649124439829   -1.97044316413559
C         2.64764638558051   -0.37418708110952   -2.30858203340441
C         3.16243027496786    2.39639386510949   -0.28394684676720
C         2.67122452054802    2.03140614642853   -1.60167244725130
C         2.24174648402874    2.86468103589060    0.62778989680197
C         2.59048466727753    0.93016540066967    2.11469435210499
C         2.01406511044310    2.19061667378632    1.87497036836894
C         1.73405621134049   -0.09126946721482    2.71094766535174
C         2.93620866430483   -1.75992596327052    1.31398217291046
C         2.00590818503645   -1.43179852118583    2.37398062522001
C         2.22887129387439   -2.39333096401396   -0.95611086268592
C         2.30186263939461   -2.68901604833458    0.43351828067890
C         0.94878082833237   -2.52765173178026   -1.62024250414559
C         1.30366430721247   -0.28883315185008   -2.63162683747847
C         0.46578556951989   -1.47378030770635   -2.46598694461237
C         1.32490860198076    2.15811279657360   -1.91926084269634
C         0.69602389486607    1.04834820802517   -2.63630689791312
C         0.98420250603535    3.36409393911903    0.16667314579070
C         0.48117979765814    3.01906878109155   -1.09466988470452
C         0.67473831274706    2.51108995158498    2.29109215896721
C         0.11180090109497    3.39080565800259    1.30874683196940
C         0.38275407723320    0.23402070110240    3.13696628134899
C        -0.13536523533677    1.57907943352738    2.96913096133373
C        -0.57251533445432   -0.80432175446163    3.20878295387781
C         0.98819144523504   -2.42733750065360    2.33972370299548
C         1.16088047679602   -3.20200243220918    1.13140748582387
C        -0.28742709351365   -2.12668598616380    2.77615062759104
C        -0.00442444257647   -3.37769478775957   -0.99309967849090
C         0.07250651415096   -3.65922751153710    0.43660273942454
C        -1.35767821865031   -3.26608317602118   -1.30437492022960
C        -0.93986119540293   -1.34836200474794   -2.73119480348347
C        -1.86443376736448   -2.24598957370688   -2.12852787938808
C        -0.65413570965723    1.13658355763122   -2.86985481850875
C        -1.46256986234417   -0.05911721147078   -3.02692810725263
C        -0.95400222608287    3.03025033536487   -1.27850940476083
C        -1.47961540281476    2.18542035786569   -2.29529072970893
C        -1.25170929836923    3.48034980874531    1.12756517079426
C        -1.81412409205136    3.33719071586218   -0.19946587143743
C        -1.54587823613906    1.78619800995074    2.86848134425878
C        -2.06984971101717    2.79267277617080    2.04984305011167
C        -1.96983472687657   -0.59126050044938    2.90161156003778
C        -2.46270152003542    0.66644776849369    2.74110093368283
C        -1.44640473233332   -2.67886833959190    2.10477867707295
C        -1.25677906970965   -3.49979944093014    0.99219951810444
C        -2.14872094387002   -3.32687584531570   -0.08404282966253
C        -2.47397390646226   -1.68960210535125    2.10477165932064
C        -3.06638591160912   -1.76910441145153   -1.48049136563847
C        -3.11068153329917   -2.31068342611837   -0.13142624275014
C        -3.30235617547296   -1.43464363962978    0.97885502743922
C        -2.75996525620420    0.28323321631430   -2.64739392579757
C        -2.77092969836590    1.66155296706221   -2.19172043774772
C        -3.49547036489725   -0.48405309412914   -1.70436171601479
C        -3.07364677776414    2.64698751039176   -0.03383764030573
C        -3.20982622684346    2.26906711655770    1.31886490629023
C        -3.42883032037782    0.93440097220456    1.69465588468895
C        -3.74771323439725   -0.06798310891330    0.72584710755039
C        -3.51092929670054    1.72102810335654   -0.98927417511950
C        -3.89509374530450    0.38098987198935   -0.60899354348020
