72
C72 Isomer 6533 Symmetry C1
C         4.82737025391662   -1.01065163892807   -0.57882813822205
C         4.94045232762653    0.04493545302946    0.33506356173645
C         4.59634330102709    1.25906320483227   -0.38016152416573
C         4.20489870384246   -0.48273142287065   -1.80888441352809
C         3.98742905000641    0.89545542784063   -1.62683265175733
C         3.13407183703393   -1.33162888805598   -2.18494331563092
C         4.10543905901774   -2.12841373951054   -0.20394217250566
C         3.18316493800399   -2.45167845390158   -1.29795917704268
C         3.36314590266502   -2.16616484392632    1.01484295290409
C         4.22239060458783    0.04127389482560    1.56210494867855
C         3.35380675990293   -1.05019370135303    1.89956711699268
C         3.95217145401490    2.13089847636453    0.51305599297287
C         3.75594555279956    1.40109789794084    1.75714191518336
C         2.92034311381470    2.91427490024453    0.01743821253524
C         2.73172076064415    1.47286876144025   -2.00751754189784
C         2.34363662872220    2.61245104415731   -1.27427739235785
C         1.86732801404709   -0.79604325403228   -2.55209889111726
C         1.68011409749031    0.63130951132254   -2.55093494139134
C         0.71366315063119   -1.63982589981175   -2.33413168803524
C         2.02125936988320   -2.93740042440226   -0.73832627412032
C         2.12621999612604   -2.82078995171856    0.70992769652199
C         0.78837742036613   -2.68899465114182   -1.37160117559238
C         0.96585794452639   -2.64770942223512    1.44761019857616
C         2.10542093997912   -0.77697368151969    2.59391705064019
C         0.95126628617418   -1.63620690537713    2.46751293629908
C         2.61989193940651    1.64023384702786    2.48507560109479
C         1.82816141573561    0.54805762147887    2.98495583656312
C         1.84274044050778    3.30946221009406    0.87767776372426
C         1.70475493046328    2.70022253357232    2.11730303983541
C         0.98435003854590    3.01243221072911   -1.22895406975147
C         0.66918282319481    3.48184658153013    0.08303596995882
C         0.33870769032767    1.14010063008192   -2.62491495945786
C        -0.00043516652811    2.38012773618693   -2.00077930607696
C        -0.57985969070724   -1.15946984863030   -2.68388853802329
C        -0.75286494073252    0.24498532992141   -2.93114341772108
C        -1.70102379450149   -1.92486174603914   -2.29588201075187
C        -0.35732496965741   -3.08172500653537   -0.62474985181991
C        -0.26236288518943   -3.10031930450397    0.81748469300408
C        -1.59707044236020   -2.86019052470227   -1.21861053543561
C        -1.43377112698932   -2.97866319179981    1.54022912359099
C        -0.33568829273874   -1.21674851572080    2.93438512399525
C        -1.45028542438335   -2.04205744093594    2.64637655034923
C         0.49203806668222    1.02494329639271    3.12495415325475
C         0.40136791872832    2.33779892725369    2.56419564979549
C        -0.61616394994242    0.17329464295408    3.17076981282583
C        -0.62259715072798    3.31395353632413    0.59357068688043
C        -0.77074959495666    2.72009407513859    1.89160764316917
C        -1.35904194012069    2.73531106804562   -1.69464741034634
C        -1.67814815536661    3.20746697020609   -0.37189697236023
C        -2.05508691295062    0.75949924914275   -2.95541877275714
C        -2.35355937785552    2.05901617566260   -2.42791067835053
C        -3.01831125450095   -1.38842561606584   -2.25719856654737
C        -3.21819530678721   -0.08429562567170   -2.70200567206225
C        -2.81649484553750   -2.82276725063111   -0.47372697024637
C        -2.73374719224123   -2.94061308070926    0.91045409310162
C        -3.70781044341964   -1.87599366954301   -1.08685537221349
C        -2.74310110906668   -1.52541112005192    2.73411343080392
C        -3.56429116890758   -2.09579712949300    1.68316634337575
C        -1.91322088364551    0.75189258703179    2.91308101696629
C        -1.98274436651944    2.01391988549200    2.21484387417465
C        -3.00524240674567   -0.13564857888392    2.78932503725668
C        -2.96253621594369    2.96901275656495    0.15861810964322
C        -3.10367161217439    2.30411560442278    1.42338595530156
C        -3.69080206695881    2.03892648315182   -1.96154337635314
C        -4.22306774293658    0.68044491593350   -2.09294032930315
C        -3.99768302198983    2.49072536032907   -0.69222903658512
C        -4.52485181227922   -1.00657004266258   -0.30921719697589
C        -4.35971276879592   -1.08876838554091    1.11506361749674
C        -4.09534563057275    0.11352762635691    1.89522987415411
C        -4.20020922706595    1.35622382350662    1.28726918556168
C        -4.80307561779343    0.28789834984529   -0.85438182309655
C        -4.73888422085154    1.44057035053004   -0.00802060531821
