68
C68 Isomer 3720 Symmetry C1
C         4.58102639281868   -1.17831866103287    0.55571278009293
C         3.89642339306296   -2.24350252269481    0.05195760724531
C         3.61523617178354   -1.97167958227175   -1.36515109695465
C         4.87246798015245   -0.25717913306415   -0.57283607059672
C         4.05487041453117   -0.65657987821818   -1.68399201406437
C         4.78085897244921    1.01849478130317   -0.06273786347193
C         4.01523551090895   -0.41753966606102    1.64051376071940
C         4.25154235797694    0.93330544329237    1.32518651249849
C         2.76618990735191   -0.80779656119858    2.21870524849885
C         2.70060184295308   -2.71928195528027    0.66829731074154
C         2.16257965731315   -2.05908576216008    1.80823316730411
C         2.32278685530400   -2.39946998684645   -1.60126298979353
C         1.81274974792292   -3.03076573417412   -0.39273055709730
C         1.41744721614800   -1.60860408559511   -2.35848179202747
C         3.09733812501111    0.25160259003711   -2.25474570953050
C         1.78468959394614   -0.24941334617190   -2.63215690953706
C         4.03218282059287    1.98473008536911   -0.74782666622019
C         3.16609723344044    1.60675877160017   -1.81315029486110
C         3.25120878146596    1.91855973785893    1.46406654631665
C         3.22076026072431    2.65765380020594    0.24496003885501
C         1.87189048190590    0.25470692370840    2.62656615545977
C         2.03112742756039    1.60972256691412    2.12689112226843
C         0.58823974226429   -0.11792440859864    3.04250504697152
C         0.77839099744254   -2.33520485949923    2.06939899177978
C         0.08199403703649   -1.43103862932135    2.89257883084965
C         0.44967219925286   -3.22560645261274   -0.19574973939563
C        -0.02612265893366   -3.10702691056995    1.15458183883044
C         0.05711428746053   -2.05371556030863   -2.32893745467317
C        -0.40905385990453   -2.98803687501969   -1.32431813566819
C        -0.89935267232155   -1.21222054283225   -2.90890304383696
C         0.68117211140891    0.67158451609142   -2.78807494327274
C        -0.59379127293836    0.16740792395833   -3.04833683203274
C         1.94172952449644    2.35561522623217   -1.62762147641240
C         1.98559327386486    2.96014832049269   -0.32345695349194
C         0.72197087538223    1.96379490739804   -2.15573718386810
C         0.85851763316508    2.34570373857740    1.75815149416969
C         0.82614355136526    2.97158277762214    0.46388165552908
C        -0.53581550173528    0.78588691340851    3.03238274244611
C        -0.40966560886010    2.00104056028430    2.34088372362528
C        -1.35256609827819   -1.34087247507678    2.91923018441203
C        -1.74549550828594    0.04428815680598    2.99393774897470
C        -1.42528552484964   -3.14100279851121    1.32989447374008
C        -2.11855275553531   -2.22820989932774    2.21629640733131
C        -1.79282197920511   -3.11004362357234   -1.10758923756547
C        -2.25444646406857   -3.30466351864727    0.21415879218485
C        -2.30735949844349   -1.32668483773098   -2.65987030199377
C        -2.76792334915204   -2.28730652773922   -1.78626755549167
C        -1.80352903296645    0.92442674703469   -2.82495915895741
C        -2.87840718371401   -0.00311357745847   -2.67773183321122
C        -0.47971346214041    2.55403303871563   -1.60121204643777
C        -0.39341225278587    3.06685468083544   -0.27382731165034
C        -1.76986608213445    2.14525529601247   -2.10317528833962
C        -1.59636155353320    2.53006201788848    1.81576799659421
C        -1.57146124534867    3.16556123409689    0.50493117295886
C        -2.93011889169566    0.52508264660000    2.37842309641179
C        -2.85573631497162    1.88227003933494    1.95666757828288
C        -3.34805846539463   -1.77977284006861    1.58987109636303
C        -3.46549380042804   -2.52535024680204    0.40365769190069
C        -3.80746554388400   -1.93620420261400   -0.83097419432117
C        -3.76233171819317   -0.41627911890840    1.62689451317840
C        -3.95726260716713    0.29938715723857   -1.83672672508298
C        -4.34066275049501   -0.65669884601491   -0.79777673831858
C        -4.43846615052106    0.04414301731038    0.45497029172263
C        -2.95194187467496    2.49768069185683   -1.38680168759832
C        -2.81859341400319    3.06739856599006   -0.07499223717785
C        -3.66437025852460    2.32976421014837    0.85660029128439
C        -4.03146610348626    1.58629274447352   -1.29714455775615
C        -4.39387791988944    1.43239379730715    0.12150069116713
