80
C80 Isomer 14477 Symmetry C1
C         5.35550039507237    1.16297602490360    0.74677322492475
C         5.45546020332018    0.29432491291155   -0.30478750634721
C         4.83111285523755    0.90650156355034   -1.49323005874906
C         4.79436244220186    2.41246558808368    0.20434855563519
C         4.28718805464703    2.15126740033016   -1.12585455578533
C         3.94746005239591    2.90964452250468    1.15920268770566
C         4.58309232376096    0.78257099777689    1.91475122842039
C         3.85052143294019    1.93065979216346    2.26022080905162
C         3.93649738942210   -0.48818730987785    1.98276454066890
C         5.00920406696336   -1.04308521788804   -0.19833100560601
C         4.33821130524287   -1.47570449663413    0.99028548080327
C         4.08508609728677   -0.08648075106608   -2.12841417677005
C         4.42165315089112   -1.34384458136023   -1.48019416138573
C         2.75310924190682    0.15964228773298   -2.54804625053925
C         2.92630246037367    2.40952744336109   -1.44834774644232
C         2.19693919418992    1.45375059813816   -2.25670438111530
C         2.63940053108732    3.32186158828636    0.82450496927262
C         2.13791922269376    3.15398821404082   -0.49717327051409
C         2.51284837197409    1.86849540984096    2.64313904905649
C         1.80383585469469    2.87877773675465    1.90158357058022
C         2.58864913877681   -0.55767598139639    2.52740467604886
C         1.85601235510549    0.63243268034667    2.84882666046418
C         1.77213824558049   -1.73206924209785    2.31369824039037
C         3.52667459551742   -2.61679496742104    0.82698204004642
C         2.28581008834802   -2.77626046702326    1.54128482127881
C         3.57768384293123   -2.41122219669599   -1.60862066893593
C         3.35441997505067   -3.19741118622619   -0.45313541579163
C         1.87281892354786   -0.98735352818319   -2.69514951437292
C         2.31417592017084   -2.25807846635069   -2.30347246903262
C         0.45819919124626   -0.79761623282756   -2.83249517831942
C         0.79248577828274    1.63899352238662   -2.46182107457861
C         0.00079060179119    0.55186126254967   -2.98532275044602
C         0.72913481088902    3.21602099118077   -0.63687746747753
C         0.07960829621233    2.68094418374063   -1.79612848882599
C         0.44236190910911    2.82632837990271    1.76569814564402
C        -0.07876428717146    3.32880925379464    0.53227162598021
C         0.40978612578826    0.67910445926185    2.90809697579515
C        -0.29876581738579    1.84523555490347    2.50829371096819
C         0.34406809436383   -1.71312349402716    2.55549328987984
C        -0.34630148653053   -0.53650611019913    2.97343860617046
C        -0.46412109861164   -2.70314630982670    1.91009855655606
C         1.39188703942043   -3.54298144263168    0.69258989376841
C         2.01801547310643   -3.70412479066595   -0.54901736705915
C         1.37834916560029   -3.15071852790998   -1.68629323158254
C         0.01995748061934   -3.36578304911975    0.73544074464756
C        -0.48642931670521   -1.78899392775098   -2.42272493622598
C         0.00525619654990   -2.87871367596006   -1.64331918076757
C        -0.73952517227122   -3.22558480958829   -0.47647785285164
C        -1.89633729581927   -1.51730866927440   -2.38164673625410
C        -1.35722085697327    0.73440348666640   -3.19271518241870
C        -2.29699365735450   -0.34393304931581   -3.03166391797220
C        -1.34678163576277    2.81094320430727   -1.92937942957983
C        -2.02574726728988    1.94674120514756   -2.81413070418952
C        -1.45687933142966    3.33204732433347    0.42420559799713
C        -2.11986925290353    3.27649213343218   -0.82786158036012
C        -1.72475204471186    1.86359704663963    2.37732016952732
C        -2.27975249517128    2.77111229317420    1.44771523859448
C        -1.78680922165543   -0.48569256494331    3.05990535528958
C        -2.50792070888366    0.74735372887881    2.81096869525619
C        -1.83086152097213   -2.66991857324803    2.03310699635009
C        -2.48969353839170   -1.69364734519302    2.82795957848869
C        -2.12580889026142   -2.90402262766157   -0.39549809111350
C        -2.77671105763198   -2.11491705137497   -1.39929061982605
C        -2.69010255237416   -2.98818657219093    0.90386476513991
C        -4.06068585220703   -1.49974103820106   -1.09581956867076
C        -3.55602555250407    0.22553869067411   -2.75267128073530
C        -3.39239422218530    1.63851049857856   -2.62039923600235
C        -4.39503692593882   -0.27006183708283   -1.73272778548585
C        -3.46596691740371    2.86073044059859   -0.56841827972182
C        -3.55970298385303    2.56909032364089    0.85245697891106
C        -4.12791397321805    2.03596034314810   -1.47093239117990
C        -4.86287131560040    0.88414709657654   -0.98948738990574
C        -3.87285261531599    0.70930091206360    2.39349565894602
C        -4.35804410361584    1.55677856236498    1.32621049493563
C        -5.10064797723598    0.73711611906096    0.37350446718132
C        -3.84986059770203   -1.71267102579983    2.41955848213225
C        -3.94559700696507   -2.46299024397687    1.17495944914986
C        -4.63465150281762   -1.67802832399475    0.20266182539653
C        -4.53557892675663   -0.53176201320865    2.22524515812664
C        -5.16600891472857   -0.56070607953807    0.90324988775733
