80
C80 Isomer 16999 Symmetry C1
C         5.32351719610334   -0.31100853982091   -0.33566422598620
C         4.83604059868827   -0.44404397650220   -1.62930028173875
C         4.32502325340014    0.86154827206544   -2.02842992707850
C         4.98749318253342    1.04790431855378    0.13254133806047
C         4.29185844047003    1.73124339218880   -0.89687783921221
C         4.38735816638929    0.93633654766802    1.39802453116016
C         4.89783588242871   -1.21837786942103    0.64899927012033
C         4.42986288250402   -0.43695507544341    1.78959427280495
C         3.91577932039126   -2.18898889325740    0.36658994894282
C         3.83253479415999   -1.40840637889369   -1.94501525861102
C         3.34606338375319   -2.29296663909809   -0.94605710799406
C         3.15996947579211    0.66254700018266   -2.75031642097704
C         2.85092303160116   -0.75104540259677   -2.76566105418393
C         2.11039395557195    1.58723772804699   -2.66509120480945
C         3.11312556945588    2.47509070020003   -0.61258638037563
C         2.09120329043973    2.55873467124168   -1.61801321568831
C         3.23844727667287    1.69756311651119    1.72390618247896
C         2.67137718834729    2.58807631776989    0.75458032282515
C         2.35525489254461    1.10785606783656    2.70882344299617
C         3.29557920385896   -1.06565040456198    2.32736716307480
C         3.01586265236392   -2.20427103851901    1.51302067502190
C         2.23191871985651   -0.32011690303272    2.86444779505020
C         1.73015420139378   -2.67784262428248    1.43474665164233
C         1.99197980156317   -2.74435077389360   -1.04815742824795
C         1.35025936721496   -3.21545158759956    0.15343670094890
C         1.52837999603359   -1.17097558122695   -2.85473951463024
C         1.11469314882409   -2.31406483888808   -2.09854534164620
C         0.89623574027794    1.15168488992428   -3.28068049329004
C         0.53654975360212   -0.23332889554700   -3.31714493021048
C        -0.09580101085274    2.12939013461800   -3.32428562021704
C         0.83964463075737    3.22428521748693   -1.33352682597822
C        -0.14757797677636    3.15737749976081   -2.31295949145216
C         1.40325487262729    3.21583398351587    1.03751092410338
C         0.46807129243674    3.58799840492541    0.01433400756092
C         1.27213556235849    1.85852732751225    3.08271091873201
C         0.91757005885514    3.04485237574573    2.35288050618535
C         0.07181492615730    1.25052243795706    3.59827107230814
C         0.93268961295987   -0.92262548397094    2.97382143057084
C         0.69535987617692   -2.16638480600820    2.31287248668346
C        -0.19767209294710   -0.11807165653142    3.36246651703529
C        -0.63456589260331   -2.66114795474024    2.17896921026238
C         0.08913734706261   -3.72560092021266    0.07231812579332
C        -0.82725518189749   -3.67609928089609    1.19329917875991
C        -0.27335127488654   -2.66951322252092   -2.09994232614683
C        -0.66874019537544   -3.63493837389216   -1.14656014112665
C        -0.84907558253581   -0.59904642200318   -3.29951019192200
C        -1.29102857055170   -1.80428789931451   -2.64514510668771
C        -1.39989965067138    1.75592940053740   -3.64302193139327
C        -1.80826337839401    0.41522032946708   -3.52506004260036
C        -1.54136069638939    3.39565351686751   -2.02402474096535
C        -2.30573395378291    2.59802723389155   -2.89835966731519
C        -0.93309922861290    3.79359931396127    0.32047950511609
C        -1.95543671830877    3.60244573836246   -0.68794759940649
C        -0.42104085662594    3.30631015071092    2.65180659159914
C        -0.93949981313833    2.20499403109828    3.46077153076686
C        -1.35245597817108    3.62233661111069    1.66724368349139
C        -2.20934778320757    1.86906008192426    3.00371384765193
C        -2.54969276491504    2.86372905254381    1.99689965889883
C        -1.54810658494313   -0.50866020216780    3.05970922294029
C        -1.77241589460276   -1.84781795794640    2.56807129165532
C        -2.55568419102848    0.50859853341063    2.84275985450930
C        -3.03495271634770   -2.14124606701915    1.99791866825994
C        -2.09165982475230   -3.93701176635388    0.65523896574054
C        -2.00558653775295   -3.82846363028262   -0.81133072210595
C        -3.19260181487705   -3.19959251055689    1.06560456301725
C        -2.64616281924837   -1.87737716862694   -2.15072206906065
C        -2.99581567739366   -2.92718110412097   -1.25813393922552
C        -3.82778689905340   -2.66472153399897   -0.12402435437508
C        -3.08025020787589    0.41751338489783   -2.83955648978360
C        -3.35811460792069    1.78324090575324   -2.44380997941418
C        -3.45696524492724   -0.66868606428951   -2.06132568492262
C        -3.20093864006366    3.01236226616516   -0.33542186262056
C        -3.42885075390531    2.55133815797528    1.00758887719355
C        -3.84197501115292    2.04983584574495   -1.17044501127179
C        -3.62717366327507    0.25390653450049    1.91055323784251
C        -3.85599380457468   -1.05923639993018    1.51216943096367
C        -4.25032871296623   -1.36134350150547    0.16424374244636
C        -4.21365567857423   -0.38034016246329   -0.84865589522617
C        -4.03997541593591    1.25171656773228    0.99157134682187
C        -4.29445924381260    0.94281145157080   -0.37482637413958
