72
C72 Isomer 7187 Symmetry C2
C        -4.47958930137279    2.22066842055650    0.35247598879642
C        -3.87635112273998    2.29720616586611    1.61626288173114
C        -3.84342280605816    0.94169121090816    2.15460906756501
C        -4.72390870867507    0.79528013313980    0.05232645085371
C        -4.26984055002065    0.02893267814177    1.15634651001688
C        -4.21803053644889    0.52405860456223   -1.23254525876951
C        -3.82876730268454    2.78717485405370   -0.73806463003924
C        -3.72774975431237    1.75773322493473   -1.77223535963990
C        -2.54803546798914    3.38758010815458   -0.58910094642836
C        -2.59449455110191    2.86286254504929    1.78405567686592
C        -1.90589796043613    3.44390451195379    0.67576144059320
C        -2.61440180829757    0.74171485123082    2.77780870734767
C        -1.85012745978032    1.95987304752722    2.64417386229896
C        -1.96863422488304   -0.50756223780722    2.72993480674304
C        -3.54714053963062   -1.17651604781702    0.95486132180071
C        -2.51588117737066   -1.53975682829064    1.89696611784449
C        -3.51098299479574   -0.67412449977164   -1.48528574258208
C        -3.40684463471191   -1.63123245685115   -0.40400929455403
C        -2.42791619357057   -0.61687411978839   -2.44187395734511
C        -2.45688299884121    1.82023571409685   -2.32616077979012
C        -1.74810166915728    2.90806508697150   -1.68415494680761
C        -1.76632871991787    0.63560176983460   -2.71212922725016
C        -0.37398124499725    2.92168246124369   -1.65701631951324
C        -0.46951177994630    3.45386439834012    0.70561882944844
C         0.29699828786753    3.45300655902623   -0.49481012650504
C        -0.47408259267548    1.94646314843616    2.68109285852242
C         0.20635236047027    2.93760024175539    1.87174073601459
C        -0.56717316024367   -0.49139206380300    3.08694077620019
C         0.20730376514342    0.72919981561148    3.06696014666491
C         0.11601736258757   -1.69731167421886    3.03107617546691
C        -1.70944132311614   -2.71178217653419    1.65323735562230
C        -0.47798137207455   -2.84591785631803    2.35548138396189
C        -2.60767295805454   -2.77040710832655   -0.61878710213486
C        -1.82314754514490   -3.39587519400817    0.43066575255091
C        -1.65100751354248   -1.77166951171152   -2.60274791247467
C        -1.92276719935124   -2.92034383258279   -1.82473936282171
C        -0.23939621093336   -1.72064678968839   -2.78177370702714
C        -0.35383672086867    0.70451741625784   -2.83573605804093
C         0.31591309151909    1.93111346464813   -2.45901101212522
C         0.43231877879307   -0.50871250762764   -2.84662669338235
C         1.69185663368992    1.95783636977815   -2.42205469709720
C         1.73342937103725    3.45692776786964   -0.46486728827838
C         2.42757668247926    2.87422753138076   -1.56879597648345
C         1.58053256260946    2.93714436215874    1.89899193929421
C         2.37598741296457    3.41609765536639    0.80039475305333
C         1.62044368873024    0.67285737919454    2.94393607490279
C         2.29970173839359    1.86105854429015    2.54900094222530
C         1.52807376014130   -1.73630206700159    2.85256172433472
C         2.29389860950310   -0.57532163580948    2.68308950968209
C         0.57365242793243   -3.59057269213297    1.81947240905544
C         1.81081212738933   -2.88806258609575    2.08306521358187
C        -0.66730167984361   -4.00111479388813   -0.18805350551763
C        -0.67903330285116   -3.60902913114784   -1.55601579224751
C         0.36554838090872   -2.85848812794066   -2.09764264185195
C         0.56565253355010   -3.99281612689711    0.45445921277301
C         2.49419929815080   -2.74051143157712    0.87599520841036
C         1.59556545697616   -2.70738159866389   -1.39639752972785
C         1.71570537166260   -3.38122027981638   -0.16875781256954
C         1.83385842905765   -0.50891588833586   -2.48949737463094
C         2.46775503368982    0.74615020681394   -2.54663047581177
C         2.39086513600020   -1.52950862999366   -1.64882379484918
C         3.71495261255230    2.32225375498082   -1.39691730900315
C         3.69487221303745    0.96237901444046   -1.92514214737861
C         3.66265484865778    2.82942611416747    0.95386139046792
C         3.57132770016469    1.80659454546781    1.99580876933393
C         4.31858308121293    2.26078701838033   -0.13252631316773
C         3.37756171091096   -0.62937129481328    1.72702925460808
C         3.28258550311084   -1.59539826668154    0.65281267632528
C         3.41867021100186   -1.14950613947025   -0.70945120742031
C         4.12981834780318    0.06120730130001   -0.92001365422083
C         4.07308565404388    0.57362335997263    1.46515628205126
C         4.57653490269648    0.84004423754819    0.17836375047803
