74
C74 Isomer 6925 Symmetry C1
C         4.89369561884734    0.94294525789154    0.97955513111056
C         4.89925142094451   -0.41949168002189    0.99377049205397
C         4.93340411720847   -0.91680840418516   -0.40028001363627
C         4.90062664114487    1.33920940053196   -0.45152344690619
C         4.65396014348654    0.18046477942812   -1.25634852410744
C         4.07477599590693    2.41641892064834   -0.56350267340629
C         3.84784764427932    1.65706990095032    1.65553370791975
C         3.57219108206643    2.73979908411808    0.77779025155196
C         2.75571501742446    0.94954546868713    2.27662321676465
C         3.91575498458407   -1.15837842447030    1.70888174681989
C         2.80707655605867   -0.49493466035537    2.32247602156500
C         4.21112589574694   -2.10018941821633   -0.43533061633637
C         3.71395555519462   -2.34018242511943    0.91650586947757
C         3.30727415675784   -2.28233311688682   -1.49760094169582
C         3.47681410628294    0.13606370594957   -2.09261720131885
C         2.90566195074956   -1.13938126966311   -2.26066806033035
C         2.94515511614277    2.42930936674767   -1.45079347922398
C         2.55656411782252    1.27319488591868   -2.16428865514759
C         2.28778054391896    3.20811093490396    0.63797706299771
C         1.93642712177015    3.16715944296641   -0.77022850221653
C         1.45304723729076    1.57361652805905    2.30683798933739
C         1.31171571886853    2.79812699003301    1.58155020094598
C         0.22216195828347    0.83842135599891    2.58576231687396
C         1.56587667507206   -1.23078678401778    2.46738914199714
C         0.27198034886579   -0.58053324933638    2.65237436600533
C         2.56277227739242   -3.04366355630097    1.08318231452448
C         1.56561506493678   -2.55506088623942    1.98683603217323
C         2.16413413140093   -3.11536961385714   -1.31432791578948
C         1.86938565515758   -3.60934658020450   -0.05409663055422
C         1.51115616426710   -1.30649919056662   -2.57400432160392
C         1.07031413895434   -2.56136807788868   -2.09180499506335
C         1.12508009472822    1.08769940650523   -2.42233621585203
C         0.60732024527566   -0.23401050982004   -2.66084435395882
C         0.60745595346783    3.10270269391878   -1.14464542847967
C         0.16261260685202    2.08157320737848   -2.04918437726202
C         0.04834181033457    3.23797051289899    1.21904238890877
C        -0.27735880721791    3.52695773979425   -0.12944405700506
C        -1.08429176136041    1.48097394630096    2.44331570912841
C        -1.12910019961479    2.74782570398226    1.84592564924705
C        -2.33480151731696    0.73304418695945    2.44266009646032
C        -0.97167757925813   -1.34184900801273    2.55571801992908
C        -2.26477601678776   -0.70470345656409    2.51808016332525
C         0.34638141490521   -3.16607615525979    1.60270031123622
C         0.50908275708619   -3.75423924874094    0.31707081562813
C        -0.88777512016822   -2.67575626700980    2.03458541479316
C        -0.27017663502278   -2.80555859063306   -1.80171027570724
C        -0.53986024179285   -3.60662694627691   -0.62508845370593
C        -0.79834548965566   -0.53620424241525   -2.58864228044139
C        -1.25049589519325   -1.84899870340885   -2.22255607670927
C        -1.25594952251679    1.85231785893028   -2.14540942211412
C        -1.72607919111420    0.56318932627203   -2.53493629985255
C        -1.66812287322762    3.39957127405622   -0.28766813325509
C        -2.21475211956232    3.15289658703512    1.01544514003442
C        -2.18614097913543    2.72086486994744   -1.41584186552690
C        -3.51376578440130    1.32612910116617    1.92282830272550
C        -3.43100919042120    2.52826439558019    1.13295074520279
C        -4.58548011842242    0.55543388682171    1.32055298437738
C        -3.40607037531877   -1.43807610375123    2.05556307015922
C        -4.50050966836838   -0.81331259325457    1.32856480417372
C        -1.96875623630150   -3.25451694017937    1.33200671242959
C        -1.79967796415125   -3.56805355024417   -0.06379278315541
C        -3.23444221919994   -2.69950437432646    1.46674675344930
C        -2.62937302759866   -2.07828577895659   -1.83185251138502
C        -4.70826533205189   -1.55834198665152    0.08752573520611
C        -2.91271190304138   -3.00683742596308   -0.78387828676762
C        -3.89787064292934   -2.69687553978054    0.17077476540486
C        -3.11489417525859    0.26149410605006   -2.42705769146681
C        -3.56898786142334   -1.05653265088846   -2.01858709539021
C        -4.69445055711260   -0.87020066264729   -1.13722501424047
C        -3.55160888557692    2.37630613176616   -1.30567626466737
C        -4.21136862092375    2.40912613761305   -0.03725203051778
C        -5.00335192303297    1.20929513877767    0.10584785298190
C        -4.03121646092385    1.21046996417449   -1.96871871445787
C        -4.97497714407426    0.52232587335291   -1.10418768766450
