80
C80 Isomer 24836 Symmetry C1
C         4.68738805140880   -0.87993495518342    0.81757976983050
C         4.85429048311349   -0.45565614512753   -0.47585304932066
C         4.63305597294513    0.98940540562124   -0.51085639441600
C         4.38247683711165    0.30078847897747    1.63930350996288
C         4.25350228633142    1.43105357642585    0.80380988891663
C         3.34763369668787   -0.04114823185745    2.49939410144794
C         3.75956620380498   -1.91468035599209    1.15283038968281
C         3.01988288786893   -1.44090608392828    2.27363148021283
C         3.09827510902957   -2.66191155628784    0.15709794587250
C         4.08581708476293   -1.08027786062503   -1.50655901502633
C         3.34452676324356   -2.25748273205312   -1.21661555458709
C         3.78431782338768    1.22048420418392   -1.58394645759465
C         3.48473941256579   -0.02731787584327   -2.25645687443317
C         2.80873164857002    2.23529884204187   -1.52974548101976
C         3.14982985382749    2.30761671452225    0.94575326385989
C         2.66593596060307    2.91527422861859   -0.26938982897884
C         2.32433974918812    0.90503221964402    2.77476343018556
C         2.20312874602597    2.10919728444451    2.01560498719996
C         1.16109171214421    0.34211779953202    3.32035617466607
C         1.74558490426766   -1.93554354139795    2.55269512902274
C         0.91817075655494   -1.04918020592649    3.28006163995683
C         1.83554189892848   -3.28891856277191    0.50291322269090
C         1.16639609643004   -2.95842606668475    1.72248918862770
C         1.05573867638533   -3.88271236096912   -0.56011231561942
C         2.32975590756380   -2.51854502063789   -2.14934798827032
C         1.29072446596454   -3.45920553122230   -1.88305400897931
C         2.24616730058665   -0.19047432821308   -2.90085749702204
C         1.80066915958569   -1.51023963543387   -2.99088709236255
C         1.67852381814826    2.13098763309149   -2.41237434342750
C         1.27471414955563    0.86678478862566   -2.97054712935973
C         0.69433386566634    3.12012098939409   -2.30427506112868
C         1.57812101934131    3.77757250804362   -0.13462525675649
C         0.78188211647093    4.05991688150159   -1.25263327812101
C         0.89881795459567    2.76954646663650    1.98189287351428
C         0.70130643741039    3.73447031729778    1.00559886823638
C        -0.10512866625072    1.00982918924424    3.29425276693978
C        -0.29727321758978    2.19299351944091    2.59201604730068
C        -0.49033740132395   -1.25702575994935    3.34143653087965
C        -1.12113399827456    0.01213710266125    3.41408361056150
C        -0.24834460362614   -3.25065381523626    1.91208342676620
C        -1.07672996418843   -2.37012493699110    2.72937288455111
C        -0.25469330321746   -4.34596322094720   -0.28383542292154
C        -0.89825057303242   -4.04512562865075    0.96939607073938
C        -1.24498744092553   -4.32799359670456   -1.28912899246339
C         0.19745662462473   -3.12414965244481   -2.74378825982931
C         0.42377147420197   -1.81132645249784   -3.24699698366986
C        -1.08609116032111   -3.51484937521903   -2.42983135619669
C        -0.11969957671091    0.55872023149121   -3.11997355945246
C        -0.56179752895209   -0.81737282824921   -3.20395398583361
C        -0.68791547231571    2.86223271821854   -2.58461899616886
C        -1.12815395272166    1.55823136023183   -2.85760313906434
C        -0.55172676973549    4.36620071233053   -0.81243410375215
C        -0.63121889587892    4.09494134876596    0.56346063533737
C        -1.44480090470197    3.74957913497751   -1.72758009771550
C        -1.65107277254012    2.49427041641851    2.12899185961116
C        -1.79837633935400    3.48901407081123    1.09837240388698
C        -2.40859120863712    0.23410514496259    2.92659003341887
C        -2.69762128177002    1.51737137269953    2.32847252504103
C        -2.45760956550970   -2.20729311904503    2.45799944344534
C        -3.09985586724505   -0.94730598912771    2.55782963053210
C        -2.31637305838982   -3.88912422779390    0.70474357346109
C        -2.50851191895488   -3.98319941231436   -0.69142542813202
C        -3.06606779769871   -2.94182835151179    1.37639918306343
C        -2.15471748784050   -2.55027768090880   -2.47520799938531
C        -1.90689917011598   -1.20671218832091   -2.78776314847153
C        -3.07559646987259   -2.91437065763346   -1.41295287875853
C        -2.48055761079124    1.17398730201371   -2.46322980515126
C        -2.83428247366857   -0.20742448447608   -2.29348542389496
C        -2.65325820234578    3.34931785178254   -1.24162543885921
C        -2.89287640559179    3.40109793741660    0.18712363526913
C        -3.25308506938286    2.14566445630908   -1.77159888805685
C        -3.83016733600984    1.53940715454837    1.46548590255016
C        -3.89865318508858    2.46299649955592    0.42780372887940
C        -4.18482626007658    1.73718294001853   -0.81054885806596
C        -4.06318343537512   -0.89823420208863    1.49024640882340
C        -3.93334646116340   -2.06688077979472    0.66450053329419
C        -3.80918969951976   -1.92251367430356   -0.74342725322381
C        -3.82841109389899   -0.60171029679222   -1.32335336767974
C        -4.38081678341226    0.29703557142308    0.93283957154655
C        -4.41297652488290    0.40203700723254   -0.51477625661443
