78
C78 Isomer 9284 Symmetry C1
C         3.62623139463255   -3.75811084531735   -0.24914368820267
C         3.83609010014680   -3.00029871938407    0.96785196503199
C         4.28987183083457   -1.74331182886763    0.59301096482877
C         3.72457654473019   -2.83852590410281   -1.36304492505112
C         4.20050444705163   -1.63178676908069   -0.87797959556070
C         2.45559609033643   -2.78889527445523   -2.06189762559910
C         2.30821227928056   -4.19501700342730   -0.22130332437776
C         1.61249031575026   -3.73445888742778   -1.40562307232946
C         2.62880642587791   -3.01571694071182    1.75708035007843
C         1.71269881794697   -3.86681247492668    1.05359139823974
C         2.11994885478835   -1.84668653209750    2.37271887015542
C         3.97483125546035   -0.61344586101220    1.37531266205214
C         2.86858355347164   -0.61570978199785    2.28649536235098
C         4.33836883736348    0.58301997189935    0.72474896058985
C         3.77976066563098   -0.40306488132941   -1.46027430737762
C         4.17168214396439    0.70461397422335   -0.72236117079756
C         1.88823313484213   -1.57312933717213   -2.50741444033227
C         2.59654913719387   -0.32858835180589   -2.30438671325815
C         0.46846728729348   -1.55836325853594   -2.72392545732643
C         0.24291147028278   -3.56952819289284   -1.34721633129271
C        -0.35255958867117   -2.62381960938552   -2.24543566862814
C         0.34683828827712   -3.67908829354552    1.12376787706622
C        -0.42448160068100   -3.83631846988551   -0.09204355509043
C         0.70946551103284   -1.79752580763503    2.65081735784438
C        -0.16872862313755   -2.80120253445295    2.13856067238051
C         0.13065439422707   -0.53877561977068    3.06584534056941
C         2.23056497342590    0.65236982298657    2.58634908009540
C         0.82666693224035    0.71122220567550    2.88006552175174
C         3.96166921046122    1.78946138185913    1.27693433896190
C         2.85594782437407    1.84806100873083    2.16290508400683
C         3.65164705376845    1.99862251768923   -1.00150333502284
C         3.71305362769876    2.73644408010242    0.20243901943417
C         1.93328496934715    0.93033438689503   -2.45236044866449
C         2.53139334677320    2.12859935177357   -1.87841499735302
C        -0.15053606111353   -0.29800902550766   -3.04641034300793
C         0.53674421208447    0.95089280948533   -2.83326184309129
C        -1.54019809689304   -0.28452896584500   -3.21092295069047
C        -1.78182216452403   -2.52095247949186   -2.22689163429323
C        -2.36637884987183   -1.42324542607397   -2.88385245013834
C        -1.77567040781956   -3.58957484371231   -0.02819878728287
C        -2.51086287806168   -3.09602785978670   -1.15634070579913
C        -1.59510842512642   -2.66722436012579    2.22457625344177
C        -2.41424837775656   -3.16597719165934    1.18110110140362
C        -1.24086004004313   -0.49360613569053    3.29114242341353
C        -2.11255178564682   -1.59501741484526    2.97704268541251
C        -1.97794240210530    0.71761559698745    3.08324540740172
C         0.07183705360705    1.90590420413635    2.61009127079280
C        -1.36395041031427    1.84014708068384    2.53769310552462
C         2.09226886126012    3.01777586668854    1.80293800185802
C         2.66999586445590    3.57738955894729    0.59195077252848
C         0.70808023731015    3.04115306790128    1.99852468053904
C         1.73930026611063    3.26732311812447   -1.65415814624605
C         1.83223096293988    4.02450887722340   -0.43027732938904
C        -0.25930161351863    2.12604014471603   -2.61049959396600
C         0.35033558711962    3.26638596850331   -2.04689795018483
C        -2.30629103010961    0.89060116716477   -2.93891842726477
C        -1.69081196676169    2.03400935883807   -2.43447257794338
C        -3.62702651248892   -0.95148127501277   -2.47115916021143
C        -3.56866478125941    0.49200799216104   -2.44852998711265
C        -3.70643427279182   -2.50554056453391   -0.64646335788765
C        -3.64412502767020   -2.54031365785534    0.80180507005764
C        -4.25495791422187   -1.39841200314379   -1.29003501547202
C        -3.38596023423364   -1.07193654353223    2.67560073803628
C        -3.29003408499860    0.36495191556840    2.69231452294684
C        -4.12354642272390   -1.46005263927301    1.53743472968712
C        -4.07111080676546    0.95043502233001   -1.22312719150323
C        -4.59192932551645   -0.20621426423247   -0.51629513286657
C        -3.90875502366210    0.88945223285748    1.54640678697811
C        -4.51864657965077   -0.23173062134795    0.84969785983554
C        -2.11403547284938    2.55006293402261    1.51598663663800
C        -2.35399329565522    2.67256039257786   -1.32070185017287
C        -3.27162179889766    1.95133664229704    0.86782343983346
C        -3.37644891895484    1.99476615862379   -0.56432307262173
C        -0.06006021298164    3.86588040377936    1.11410772467407
C         0.51944619205720    4.37548447832110   -0.05435099279241
C        -0.37540868891854    4.06235118385763   -1.15057976774253
C        -1.42952643236221    3.51265214170673    0.79617359356413
C        -1.60224982669196    3.61758943155206   -0.61915470606030
