74
C74 Isomer 1702 Symmetry C1
C        -5.64271513226713    0.42183415163011    0.37071809634393
C        -5.02363330878298    0.55339317064431    1.66934096180154
C        -4.40841844384292    1.80918829464004    1.71709983115516
C        -5.14114642987319    1.49078690105332   -0.46356648059301
C        -4.47735465086900    2.40205112621564    0.35379748688285
C        -4.40085684666237    0.92234972704895   -1.56492647712584
C        -5.16656185824474   -0.77747584464876   -0.18646403781394
C        -4.49263997286548   -0.51350000897070   -1.42688332991836
C        -4.22116819068432   -0.61352889406116    1.94759801134451
C        -4.43557050048761   -1.50239720583710    0.82354398100869
C        -2.91715570884699   -0.49301516103744    2.49035859133345
C        -3.09212794208000    1.93185859976453    2.16688107466915
C        -2.35256549466579    0.82119723436517    2.68263489931082
C        -3.19109091531921    2.87376750482819    0.02370792026757
C        -2.40973985354063    2.77967291050966    1.21645801436943
C        -3.17926817653230    1.50592659768642   -1.98653262228547
C        -2.52947232714197    2.53536980339780   -1.19536382414698
C        -2.30293704204330    0.64432309929949   -2.69432899868359
C        -3.43398112972550   -1.36145774795015   -1.83773731027924
C        -2.42817497130245   -0.77267099735956   -2.63636039596510
C        -3.42026931789503   -2.33380317432873    0.41376974841048
C        -2.99234086368390   -2.39349901327180   -0.96560723108700
C        -1.95009451800479   -1.53883677324289    2.22571428807897
C        -2.25939604247558   -2.48018217689460    1.23201441729626
C        -0.56048867669033   -1.38788525777830    2.56299152086262
C        -0.94548711069992    0.98859731749522    2.80190939911727
C        -0.05734156881120   -0.12284407791928    2.99488706447618
C        -1.04051471096106    2.85478867322846    1.19262261796137
C        -0.34682150103284    2.17306286401827    2.24621043712460
C        -1.10508470618973    2.70567185333000   -1.23542526399878
C        -0.38056197188600    3.07854071332561   -0.05858459723243
C        -0.93064270677512    0.95836945220562   -2.88417268085504
C        -0.30432474168191    2.01838245695227   -2.21885223282562
C        -1.11279462646376   -1.32807502934132   -2.73849461919067
C        -0.21079825677348   -0.27384095112742   -3.03644567563784
C        -1.63337973563621   -2.82035092978011   -0.96548525797375
C        -1.22077754445313   -2.98495617297126    0.38765122636893
C        -0.66028313136779   -2.34347853703708   -1.88255785567120
C         0.39218304334809   -2.32341462470547    2.02699082153924
C         0.10387234962038   -2.95632007906850    0.76761683677074
C         1.74484184595325   -2.18396076755237    2.34835570178092
C         1.37085918852049    0.09683951170133    3.09836251016243
C         2.27026913736490   -0.96461667332085    2.91726530327880
C         1.02059171424558    2.33930986869033    2.24426702948474
C         1.91736955588689    1.37539884054114    2.81123111114598
C         1.03796897184335    3.16322576191708   -0.05296692766666
C         1.69038738224559    3.01142224055779    1.18779491193059
C         1.12810637131374    2.02767555647877   -2.19370552774137
C         1.80439335039802    2.85233390944939   -1.23257989039281
C         1.14849738127444   -0.36833854859501   -2.80626665200583
C         1.84786331978077    0.89099616670095   -2.70129724455527
C         0.74009010352001   -2.41943862681951   -1.55050782677946
C         1.10764023356673   -2.97246932453770   -0.27636152497745
C         1.68554217202436   -1.54922042095252   -2.18461957340040
C         2.73282893923869   -2.72877382936357    1.51074899418857
C         2.44026562801984   -2.92643121719250    0.13250596797074
C         3.60525082544397   -0.77364436651333    2.42390771828731
C         3.89196171150984   -1.89663245237437    1.59129480074930
C         3.20644187628228    1.58516213289675    2.26883990198010
C         3.07491841755236    2.65156433599423    1.29219995386199
C         4.10854701961570    0.50304654125792    2.04210626944532
C         3.20629370020224    2.78446513347792   -1.12450913708692
C         3.87026804350044    2.69784940156187    0.17505414370322
C         3.23130684299981    0.82352923979209   -2.55533155084824
C         3.92844256876283    1.90814214221333   -1.97063328861438
C         3.06549988374748   -1.52990530500931   -1.76789476624814
C         3.45890188537130   -2.27580198900281   -0.64033902782846
C         4.42936797348469   -1.72288890215039    0.29477072979231
C         3.87519530901563   -0.40592354966693   -2.11627667375341
C         4.98066225197630    0.58416180245384    0.91558986510797
C         4.95145221602356    1.75059184915235    0.07774730251155
C         5.07649153135744    1.37659967347329   -1.27848090254616
C         5.10042879617161   -0.54349486314515    0.00931132536447
C         5.00397908607706   -0.04637306642151   -1.33631138151129
