72
C72 Isomer 4165 Symmetry C1
C         4.78453967037597   -1.24507937020892   -0.95110656383838
C         4.90918746598076   -0.27126250803543    0.07046566196622
C         4.13835762084720   -0.69092536249388    1.20229399965925
C         3.93691012735814   -2.28246819319987   -0.47344857723542
C         3.56705821597554   -1.97519600360324    0.87937567922817
C         2.87866927869374   -2.44625993827403   -1.40305002080372
C         4.09820846786643   -0.60304222369839   -2.04102685648795
C         2.92228942277026   -1.33366783093412   -2.34413779710231
C         4.64366121081364    1.01684099386657   -0.49780491821096
C         4.01972377035240    0.79773218691711   -1.79585893737576
C         4.12249947893736    1.97307406374122    0.35217039562676
C         3.36507751056795    0.23408903684170    1.94806944708208
C         3.50919316757356    1.60353591150936    1.61656320865223
C         2.13546082292453   -0.20749547431537    2.58015731547511
C         2.30683911995587   -2.34272664569538    1.35056119766118
C         1.64851115479600   -1.53429170913643    2.35103353029842
C         1.66591962203129   -2.94726520436695   -0.96309417256392
C         1.48695856634486   -3.13161435066556    0.45330497567277
C         0.51651326444696   -2.67758243273555   -1.80256273323534
C         1.71750232284561   -0.68431785646394   -2.67550504250668
C         0.49900687684812   -1.45378325584596   -2.56229267317093
C         2.83548906387036    1.48836005368898   -2.15161944480538
C         1.67966570853748    0.76072246074487   -2.64270400407496
C         3.29337538032926    2.95880084784353   -0.23597350402661
C         2.59701140904896    2.69153581489064   -1.42853858686698
C         2.42196396749463    2.51163437872460    1.83666646777684
C         2.33767497658242    3.40558547454616    0.74614729826413
C         1.20251816812797    0.79804589664331    3.04267102439964
C         1.24456568200289    2.13663032319401    2.51604947309170
C        -0.03608265857964    0.36843817157694    3.55682665410317
C         0.28668741759057   -1.89408525846599    2.71111044857448
C        -0.52726457438666   -0.96643100579668    3.36599537369949
C         0.21354097493658   -3.51006380305200    0.87596551994330
C        -0.40775634956829   -2.91388989290121    2.02763637393375
C        -0.68697576481398   -3.24543928477822   -1.38064250832699
C        -0.77745668721307   -3.80544514687870   -0.07375137263138
C        -1.93486045115252   -2.62602545181809   -1.66889796920825
C        -0.74740020477506   -0.83483842640821   -2.85614364945421
C        -1.98233461337754   -1.49599109530777   -2.49736731691667
C         0.39177357105103    1.37063881683018   -2.62556656254427
C        -0.77082386134007    0.60359918914529   -2.96207664657917
C         1.26069169588116    3.17826970397336   -1.24612255170109
C         1.10126554489693    3.61832087433790    0.12020227793244
C         0.18679409750192    2.59692134418363   -1.88414627479470
C         0.01731612111209    2.81420075599892    2.14202106627714
C        -0.09481937964613    3.40129747008454    0.82231126404110
C        -1.14326528213167    1.22731721867197    3.55104738671889
C        -1.17744865093788    2.35904382795574    2.71026525447894
C        -1.95229334091439   -0.89748138211031    3.13469975444523
C        -2.33141136972790    0.44647466664836    3.30186438739394
C        -1.81261492960145   -2.81273977581063    1.75088819744147
C        -2.03575366469629   -3.40562743743789    0.47841564483961
C        -2.77002003920501   -2.71097506861579   -0.48740327265358
C        -2.58538616931918   -1.68680986274835    2.13854615102976
C        -3.62498156016854   -1.64140264893682   -0.11944929047597
C        -3.52438702425156   -1.07913240591492    1.21775805039663
C        -3.19305648210229   -0.77481494649856   -2.41020206975404
C        -4.01614258352684   -0.84681811737010   -1.21208269437535
C        -2.01568868829601    1.27136704795880   -2.92593449139664
C        -3.24260824070995    0.56080017588121   -2.87974438473540
C        -1.11355584373948    2.93556743356560   -1.35134087903280
C        -1.27880907538161    3.25313300779358    0.04200363084404
C        -2.19248185567753    2.45059115619394   -2.08308338546207
C        -2.41522398882213    2.32313404368508    1.98739260368318
C        -3.10203000466365    1.09452832953022    2.33205575579983
C        -3.81050716504106    0.33728300569509    1.35046643738010
C        -2.50647889668859    2.82853970687984    0.68123833732561
C        -4.54836030788300    0.45527398509120   -1.00062562067536
C        -4.18993854027638    1.29427500218827   -2.08269093172378
C        -3.49164742637945    2.39370495395019   -1.51330129266396
C        -4.23553643089040    1.09894700942312    0.24407976321238
C        -3.58501883138528    2.34673503012823   -0.08702301093802
