78
C78 Isomer 11529 Symmetry C1
C         5.30846643370522    0.21191000639026    0.39687405492082
C         4.88103489272278   -0.69717526308616    1.32301864197700
C         4.09770605916700    0.00850335949795    2.34922370683812
C         4.96918193576468    1.54634586297859    0.91938723228917
C         4.03091875034949    1.38430491465951    2.00690527764953
C         4.62302694694948    2.31353396106974   -0.15850429856131
C         4.85061428570673    0.13822454849937   -0.98894187822713
C         4.57114653382226    1.45895380619403   -1.36630335313567
C         3.95574678926673   -0.87651617410529   -1.39409341587746
C         4.16139425416155   -1.84494744675597    0.91116464837667
C         3.84351554566887   -1.99587447447894   -0.47666479095764
C         2.95584335157416   -0.74983861462575    2.56260057443703
C         3.08538929020009   -1.99326699030664    1.83131511229989
C         1.67361695042767   -0.15146298737672    2.64733906951817
C         2.76357914518013    2.01259531360176    1.97042719947337
C         1.59251468856992    1.26156005262471    2.41984842920060
C         3.46425604402863    3.11885135822506   -0.12862708389710
C         2.55197684962082    3.03031175922816    0.95699236475843
C         3.42057708506713    1.79753077355594   -2.07554499551485
C         2.92291459667625    3.00765191374947   -1.45750841709181
C         2.78222175923854   -0.54558448872993   -2.20750658332578
C         2.47762965503800    0.81457705687065   -2.50442972744049
C         1.70914887477906   -1.49854778644231   -2.39416410523818
C         2.85337972039839   -2.91731771875681   -0.73053763603769
C         1.95280403880150   -2.78666438995133   -1.85426152311184
C         1.97516138648906   -2.77798548442046    1.54306413660734
C         2.11505029302379   -3.53138514378098    0.34048969151085
C         0.52213203012211   -1.00561753673290    2.50693255648373
C         0.67295923352761   -2.36862205321435    1.99984590947786
C        -0.76104354965333   -0.41320307299610    2.58503214310447
C         0.28559699940261    1.82487500276428    2.29085627591690
C        -0.87697933617308    1.02826313762873    2.56480532124686
C         1.22318464413958    3.49495349280793    0.71399634219739
C         0.14180860950152    3.06238579518831    1.56713152359146
C         1.64328047766071    3.36857587678326   -1.67892636000578
C         0.88143617601826    3.89862753930130   -0.59274519405290
C         1.09737205650597    1.21707271677690   -2.73925388786728
C         0.76570764651209    2.56277715793268   -2.48582945533696
C         0.33461485363211   -1.12048702596430   -2.67461540784684
C        -0.00090797216555    0.28352458492200   -2.78055739436558
C        -0.74503106004790   -2.04947597558878   -2.45014915402343
C         0.89350769109453   -3.66210872838843   -1.62278405956479
C         0.97702637942887   -4.09890671751187   -0.22155844982353
C        -0.42614079284616   -3.32125217457736   -1.90351926338279
C        -0.46342327748026   -3.04662072273643    1.47719795807835
C        -0.27233735594570   -3.93318072183361    0.36160630382076
C        -1.18019913186096   -3.78598749677716   -0.75845473967344
C        -1.93245733410592   -1.23516894802711    2.35544571464217
C        -1.77545617564614   -2.49925046538372    1.67520774978449
C        -3.20102259527613   -0.64726024917971    2.35789574515551
C        -2.18574281183728    1.61586951015389    2.42338312816441
C        -3.34758248900140    0.78971621211098    2.42951266251377
C        -1.14705068957961    3.48343556471217    1.23521018655802
C        -2.30859495922987    2.84300459076399    1.73977170796388
C        -0.46264965123807    3.86744314631891   -1.04349277300446
C        -0.54948771573240    2.96430804988029   -2.16767993376089
C        -1.45893536345183    3.88434115755984   -0.11188591587202
C        -1.36633624791012    0.73630966212888   -2.63976958849215
C        -1.64528515119771    2.10850971426614   -2.29396500204376
C        -2.10979058053718   -1.59960810322821   -2.27314704329713
C        -2.44531824905527   -0.20943640024533   -2.44353312054349
C        -2.40457659049583   -3.28918693864811   -0.53658074860820
C        -2.80446484337721   -2.88061252996259    0.78624609573055
C        -2.98759422264111   -2.37184710230283   -1.47630416189097
C        -4.28392385421974   -1.14432074498470    1.54819721659668
C        -3.98525042173542   -2.12321234341841    0.61176480842611
C        -4.11604274692928   -1.82411277344925   -0.81229959805613
C        -4.52577207599355    1.16217935422600    1.75798758037736
C        -5.06291574865445   -0.02768148708862    1.12754647553683
C        -3.37508438137099    3.02231056266832    0.77587393905121
C        -2.73364666221517    3.36560631612815   -0.46175352155031
C        -2.84255482903901    2.49922066485340   -1.57827406792042
C        -4.47261895036061    2.19260397669377    0.76664444800553
C        -3.71234808660357    0.23576159774231   -2.00827912499430
C        -4.58698399008593   -0.58909773017585   -1.21259500658278
C        -5.22875927545858    0.23454966253938   -0.23369571319148
C        -3.92138018649433    1.59267179256099   -1.54735605302078
C        -4.84575359829720    1.60507347867503   -0.48664938509179
