78
C78 Isomer 1171 Symmetry C1
C         5.61595699088188   -0.87894654415599   -0.31304483242215
C         5.75596492157945    0.48244823221329   -0.50278766053989
C         5.20960307395534    1.15745033014096    0.67642038757299
C         4.98507842471150   -1.11413285479163    0.97148924073743
C         4.72273070921351    0.16010807948230    1.59612250265178
C         3.90344465862044   -1.99123811121840    0.75288121704801
C         4.73963878032843   -1.41336467289547   -1.35314537490494
C         3.76641698975155   -2.17644188187283   -0.69830031018435
C         4.94189062987505    0.85073716558437   -1.64678935251434
C         4.28299643339562   -0.33028083790960   -2.17165909762459
C         4.28481060425558    2.09499471012082    0.21880674980378
C         4.11375641014411    1.89468531057922   -1.23659781305009
C         3.16214169096765    2.43547563089523    0.99804108781502
C         3.49955165092501    0.35899733178519    2.25681199133977
C         2.82523681071389    1.63390734983661    2.13116555552212
C         2.75328485963802   -1.91564985310045    1.55449674081935
C         2.63911612201408   -0.79617166571707    2.44768404720891
C         1.55817454199775   -2.56794009438451    1.07560073320926
C         2.47395575883463   -2.26044276884514   -1.22380014562352
C         1.48203221742618   -2.79211955490507   -0.32932305208180
C         2.92480482089707   -0.26324518565441   -2.55158642519760
C         2.06360506693512   -1.37639464192118   -2.26476838123273
C         2.82996864557865    2.05336933796262   -1.78460966633530
C         2.24209169345805    1.01016949393332   -2.56815649704411
C         2.14121350672947    3.19011209395757    0.32393163044199
C         1.99642676425702    3.00458309301329   -1.10317001111293
C         1.00659433998995    3.54814054650217    1.04863668880306
C         1.52024988187211    1.81022487778867    2.70682492060636
C         0.67908649899376    2.84207058723166    2.25579656143329
C         1.38549520104878   -0.59682588522448    3.01694431279676
C         0.85978954560389    0.69920444444661    3.27353537182887
C         0.32575312657856   -2.46010672746418    1.79188667531819
C         0.28209112143206   -1.48936198910412    2.80932738745616
C        -0.93932707952632   -2.84629237499125    1.22783122756393
C         0.24034591510689   -3.02583400888272   -0.89633096333293
C        -0.91650873243204   -3.24818393502819   -0.12865915802925
C         0.66465112013943   -1.31029529683925   -2.59218838764613
C        -0.14835377321378   -2.33580961326277   -2.10438705681446
C         0.83919541592907    1.07873287336790   -2.86603660315353
C         0.00783549652867   -0.10001518718467   -2.97904181815084
C         0.76626860550091    3.24876686212316   -1.68482678655730
C         0.20249426317542    2.30176033040504   -2.61276661964239
C        -0.21999324930572    3.92069455851005    0.42068322430453
C        -0.31867640631572    3.81732310980829   -0.95795960332720
C        -0.74620929789750    2.75980397217063    2.33243062892609
C        -1.31025260741321    3.46807835849028    1.22998285961549
C        -0.55948405403719    0.59537241683432    3.30051189592411
C        -0.90947260558347   -0.77895014233193    3.07409646130761
C        -1.40508482726456    1.60537753567971    2.81659092795041
C        -2.18106700324580   -2.31607580703976    1.72465788563814
C        -2.15958574455488   -1.14029636088635    2.56220094267855
C        -3.35307569965189   -2.52081082977997    0.94656545796084
C        -2.02890350085657   -3.00682692205795   -0.99850376663448
C        -1.55758429790257   -2.27818793092864   -2.14838495398670
C        -3.25824575612963   -2.76599738959535   -0.48095674007572
C        -1.42979965393796   -0.01564121812426   -2.96613204235353
C        -2.25813795970482   -1.14506845029854   -2.59773022356804
C        -1.20412474092726    2.39795213831672   -2.54263372778411
C        -1.53722358449123    3.35817426266489   -1.52264391194877
C        -2.03275016645567    1.28629020674670   -2.81481194875720
C        -2.55772001679673    3.11394601741375    0.69649569388271
C        -2.68205779380696    3.17628632406101   -0.74334901325074
C        -2.73165403863344    1.27513548715802    2.35789108562257
C        -3.15887103711132   -0.10350459189068    2.43555803794822
C        -3.37169488590691    2.16209140891202    1.42149030546708
C        -4.47029126397138   -1.71212093010192    1.11718756330174
C        -4.38381417830412   -0.46536334589092    1.81777575621631
C        -4.17925909434737   -1.91316618993584   -1.19004126856306
C        -3.65642024148491   -1.01408250420393   -2.18040946082047
C        -5.08348917662822   -1.46669219171857   -0.18950454615961
C        -3.35820362225618    1.40985248160181   -2.38123984686730
C        -3.68617560656766    2.40396012190193   -1.37816268003032
C        -4.23020251940279    0.28608475345339   -2.19609361614162
C        -4.57280523573536    1.73593914074257    0.78753639042378
C        -5.12824746119599    0.47941093708271    1.08626341142018
C        -5.56041869218061   -0.16202923931910   -0.18240719964676
C        -4.74567985996747    1.92980398171482   -0.62551991750759
C        -5.20187784383936    0.68039183482344   -1.22569307794702
