76
C76 Isomer 8640 Symmetry C1
C         5.33338205973734   -1.23761115521029   -0.71487926152636
C         5.06106586761142   -2.06031647593680    0.35926258570615
C         4.73369349379340   -1.21143804205784    1.53807711407215
C         5.43392366393743    0.12806935923795   -0.17300228154801
C         4.86615640096539    0.13251839503053    1.16866322231005
C         4.95937006819606    0.98131020970048   -1.13213008232719
C         4.44414761783481   -1.19760898392703   -1.85145735251917
C         4.33553894958202    0.17484313820426   -2.19295842190199
C         3.24936750819338   -1.98763313053489   -1.88191555252173
C         4.06031527874322   -3.02111342737306    0.23536970825397
C         3.16546928450969   -2.99912347825750   -0.87679565950784
C         3.53804953487569   -1.69268786782348    2.10982535773024
C         3.24668995759099   -2.92324621395778    1.43886483123055
C         2.47256845919015   -0.79394777192474    2.45094203732268
C         3.84704605239047    1.06230995451588    1.50978653797799
C         2.66792287659289    0.60982274129001    2.24500499612223
C         4.07907932283657    2.02885798399699   -0.78109321212244
C         3.66285432865543    2.15656830351915    0.58189321525654
C         3.12106156492934    0.78100851793377   -2.48661118696326
C         3.04841793340315    2.03923212616176   -1.77207968239388
C         1.99491823108725   -1.37563781501415   -2.33362528333013
C         1.92260972611367    0.02924222143966   -2.62213572510062
C         0.73578328885763   -2.00391950267362   -2.04581647451999
C         1.87261941731576   -3.31392788336695   -0.34416716537346
C         1.93536240231003   -3.19361767917771    1.09461874978098
C         0.70103314582824   -2.96849293487623   -0.98541203669935
C         1.12186623239657   -1.30508319135717    2.44995438818364
C         0.89097669877476   -2.52631900135942    1.75290791017251
C        -0.01916674758077   -0.45329049071673    2.63568307211104
C         1.51168802083442    1.46976826029075    2.38541650195474
C         0.17162285015788    0.95570441978098    2.62813957226547
C         2.55663657099411    2.96934855339533    0.75455435358579
C         1.62180623959403    2.76606431313161    1.83319857055274
C         1.84104752601843    2.69146849737139   -1.56515685047226
C         1.80508437602337    3.46342267282377   -0.36870685098376
C         0.68174241065556    0.75184117933907   -2.55446676610051
C         0.62477121631744    2.11781932459808   -2.09125821561417
C        -0.50211506330199   -1.38934385343283   -2.37625047233701
C        -0.53486790365471    0.01326163567703   -2.63845629123390
C        -1.73950866792177   -2.06329007961693   -2.01315985448590
C        -0.48378963134025   -3.06902721426816   -0.18998982185539
C        -0.37597941084320   -2.78349659532090    1.18869053173766
C        -1.72849561878678   -2.90505766282284   -0.84505371309297
C        -1.35057824700902   -1.00645937134064    2.52803448592453
C        -1.50112996396495   -2.26131446101803    1.86345515059637
C        -2.52530427704110   -0.18034571798822    2.55983547102390
C        -1.00650576596494    1.75430026632614    2.35036698572709
C        -2.32542222401214    1.19626132698829    2.22242727044011
C         0.46851701203610    3.50164660850317    1.51216896840964
C         0.56876610755145    3.88487691329156    0.11583950685480
C        -0.81685666738631    3.00228481703666    1.72335694772541
C        -0.62457311413564    2.64104973415396   -1.63875808877165
C        -0.62788797160665    3.53577628620742   -0.52743746685501
C        -1.56847119028387    3.25258232293570    0.51504682178740
C        -1.79189998404240    0.69176478011711   -2.57071857792884
C        -1.85100226273203    1.95910322886702   -1.90978705832219
C        -2.96212120854632   -1.49331660939079   -2.34784517871147
C        -2.97409706509635   -0.08039747912031   -2.66557493681140
C        -4.21214142448176   -1.81818063622006   -1.67944672704520
C        -2.87491256167141   -3.02144595842086   -0.05594471119662
C        -2.73578480699298   -2.69923796246776    1.35334769227258
C        -4.16610048431161   -2.57961780429706   -0.49426752679990
C        -3.80597559305910   -0.76697445252007    2.30838006376116
C        -3.90723545417510   -2.08743781474639    1.77333977545148
C        -4.86833853851809   -2.11186997094910    0.67054586961784
C        -4.84330688626749   -0.03354905066160    1.68303746239332
C        -5.51823105935984   -0.88480391719066    0.67613257915400
C        -3.28408419946867    1.81192898549427    1.33681723330738
C        -2.74652157804939    2.60055805461470    0.26358061287077
C        -3.01176233031952    2.23146906275783   -1.10746068662255
C        -4.52478309756470    1.19112985258487    1.06772506960526
C        -4.20463529921632    0.43344296731185   -2.25316222151240
C        -5.01904475069061   -0.64051442825460   -1.69576819575073
C        -5.60856058890467   -0.14604740573561   -0.52171392822988
C        -4.20568879992654    1.53251830144540   -1.34484601448918
C        -5.05209125820652    1.18456817525441   -0.26398168967183
