76
C76 Isomer 9369 Symmetry C1
C        -5.00672154381238   -0.97959134236308   -0.40444525831103
C        -4.88586701980250    0.32570609334555   -0.77355192366520
C        -4.60604519837506    1.12581153266922    0.43155289427239
C        -4.80571669397506   -1.02915740556669    1.06678706568284
C        -4.33571580395943    0.25388231237987    1.51518182495404
C        -4.05546565945260   -2.14837307286340    1.29972104352805
C        -4.16339385517351   -1.96547050073766   -1.02974631086713
C        -3.73886125505092   -2.80395843841851    0.02152978858040
C        -3.20365128944970   -1.58742100541594   -2.01745207137558
C        -3.96874692619421    0.73566698641466   -1.79050666382865
C        -3.11945558654689   -0.19908930407124   -2.42948111870710
C        -3.71147756558281    2.11016182138202    0.06662316919814
C        -3.40000829120793    1.95872624043390   -1.34482159253689
C        -2.67383896264904    2.46964677054290    0.97440970490354
C        -3.08405655166511    0.37470850367313    2.21852225096442
C        -2.28703242291633    1.55989008523340    2.01637310988886
C        -2.86173142463209   -2.08713592600552    2.06925807159538
C        -2.38808835461970   -0.84778895748014    2.56057576296541
C        -2.42894574604938   -3.28443427122098    0.11730914374349
C        -1.93153611575740   -2.96805429786533    1.42319467105964
C        -1.99499092008979   -2.38474341002917   -2.07312446748389
C        -1.54603505990935   -3.19608454573513   -0.97286926883209
C        -0.98791427992171   -1.94490777324044   -2.93677576556069
C        -1.88231115512788    0.33791820838425   -2.97046977349835
C        -0.93160758478644   -0.59203214972096   -3.38577738122948
C        -2.20780349306455    2.48280897964037   -1.85328593865613
C        -1.39851003376779    1.67549970459358   -2.73214850642323
C        -1.74282983081565    3.33999007452861    0.41933194297043
C        -1.60954499213767    3.44927128370699   -1.01742156571415
C        -0.45463201186821    3.51799360372843    1.00760552033689
C        -0.91298963375654    1.62280077091464    2.48314077046646
C         0.00600014102249    2.62149688513509    2.00375431906716
C        -1.00750428132253   -0.81382772691957    2.92955102862976
C        -0.35907155835137    0.45760125447123    3.10742506271816
C        -0.57422001707208   -2.89353328423966    1.65974559199524
C        -0.18674031657177   -1.96592890414877    2.68374589549128
C        -0.14368835536567   -3.39618022282554   -0.70098903201322
C         0.34372386964027   -3.31736860440367    0.63781196352628
C         0.33343562343726   -2.46553815465520   -2.89938634084804
C         0.78503557850854   -3.21357142369869   -1.78905826094887
C         0.44242879369345   -0.27111532347996   -3.62261184473761
C         1.18856204626548   -1.47940935517462   -3.50074464336478
C         0.01300947227908    1.96882105916638   -2.85363142705360
C         0.97467334277614    0.96749158336842   -3.24534094459494
C        -0.28875891778674    3.82461553084331   -1.27406643083888
C         0.40406382804357    3.96982322918218   -0.01016917450204
C         0.52950740545000    3.07219594949955   -2.12363041210524
C         1.70850450770225    3.48278053884714   -0.15964402586415
C         1.84472997059999    3.00104690249661   -1.50193187199946
C         1.45048880264033    2.43413616147182    2.05806352864661
C         2.30221884923108    2.82114401706749    0.93538722137312
C         1.01454161168654    0.46037729091035    3.42486633411049
C         1.93300847013578    1.41974697289312    2.87721317374651
C         1.18030602217743   -1.91595615833699    2.96584381326870
C         1.71630348012947   -0.75956752357730    3.52174586285511
C         1.76017383014805   -3.14401925316548    0.89977052963927
C         2.16763197066161   -2.50507702816360    2.08390164362717
C         2.17351406536490   -3.19510826274592   -1.52803385278238
C         2.67329292121188   -3.12865675410371   -0.17540304347352
C         2.53272174059968   -1.43216419273732   -3.19182081260920
C         3.04408295168564   -2.43861850774452   -2.33685466597270
C         2.36565027604542    0.99795518354264   -2.79037580940805
C         2.74744576374798    1.99154167794087   -1.80230161060455
C         3.13079050037027   -0.17151544881979   -2.82932781254558
C         3.42173899307397    2.04852875806894    0.58969548713066
C         3.67128983818069    1.66818132962760   -0.76699133147162
C         3.20021466641765    0.74315217451708    2.61261416802233
C         3.05957380335674   -0.59857444018770    3.00247982896776
C         3.34114547175499   -1.66295005312381    2.11794666811407
C         3.89965194333842    0.99721588491965    1.43691478464351
C         3.83479376272150   -2.29195950976204   -0.15432851137534
C         4.03858506091456   -1.84412778227534   -1.48993542068421
C         4.12107108277965   -0.46997753394063   -1.79329903018475
C         4.32782188458236    0.40971703793509   -0.74086331701058
C         4.09320898227067   -1.41907049518152    0.93516021406196
C         4.40456738394202   -0.06399404933059    0.62686337893741
