68
C68 Isomer 2262 Symmetry C1
C         4.52749791447334   -1.31648016004368   -1.24545937557487
C         4.70538257458601   -0.33638107613305   -0.23534212869825
C         4.13446528988716   -0.82007255494191    0.98559183358496
C         3.82785288594702   -2.43940912122853   -0.68665570370074
C         3.67778022126389   -2.17148948203180    0.71164426257606
C         2.66729166712386   -2.67045981833399   -1.46067306078926
C         3.71598439049730   -0.74588938188587   -2.26975440355665
C         2.57974459716415   -1.58701634132778   -2.43498880632762
C         4.26349503567214    0.91959928064587   -0.78016729877779
C         3.55016235080605    0.65266444914437   -2.01520202548663
C         3.74081665167100    1.83079340243579    0.09429583535675
C         3.36679263598635    0.04589675019813    1.81035006665186
C         3.43041338201931    1.42204366439017    1.45772072897437
C         2.13777330868303   -0.42380372202961    2.46070799052572
C         2.51940188938226   -2.59874306484954    1.31565466663745
C         1.81791716282797   -1.76938523361771    2.27260302964797
C         1.48225684716669   -3.13198697888291   -0.85057239556645
C         1.51740181840250   -3.27406018007164    0.55201405096372
C         0.20412241162908   -2.83947597411518   -1.46813335220688
C         1.33996563240253   -1.02314054076330   -2.72317041937713
C         0.14182844968741   -1.78583819666852   -2.42589615872248
C         2.30886133707870    1.26316213628799   -2.25798866261556
C         1.26413126187052    0.42307378212254   -2.80802586807250
C         2.70132170284642    2.73351415069232   -0.34156836811123
C         1.92132931168577    2.42888032420374   -1.47721955303938
C         2.42979136758158    2.28442941851860    1.90079122251417
C         2.05733827093679    3.18399757744989    0.84328129527952
C         1.01413442321520    0.47360363073837    2.76737659032115
C         1.22969499820675    1.83855047933014    2.53081716901856
C        -0.37087941828979    0.03000655667393    2.82045415054278
C         0.46799571529054   -2.21544385059353    2.31910365830295
C         0.29308800179244   -3.16822612884697    1.27781324064756
C        -0.61011433619868   -1.38381061906459    2.69231308918683
C        -0.99568200995220   -3.24461399395960   -0.78156693796094
C        -0.93925887963012   -3.38313419335744    0.66254969318267
C        -2.23644226023701   -2.87133183496178   -1.33180548216787
C        -1.13149682179861   -1.19079197033249   -2.72607785603943
C        -2.30775711839192   -1.78253650632236   -2.25412685179661
C         0.00030924225530    0.98479659497313   -2.92793272908269
C        -1.18760593210084    0.19852645708628   -3.00662169845490
C         0.54569085218065    2.88782732925368   -1.48585225905263
C        -0.33723584620203    2.26249306354700   -2.37640674974433
C         0.68381839677347    3.39782081752480    0.91057616618043
C         0.16913286988494    2.65738063570294    2.04245346720119
C        -0.06314444324012    3.45193559301106   -0.29351304926148
C        -1.47498530872823    0.91937937944925    2.55059986467616
C        -1.15993680903382    2.24690719466440    2.08302622029461
C        -2.80083560386765    0.39181488814600    2.24590096250094
C        -1.87632290769235   -1.88799656173684    2.37922230347576
C        -2.04332820258516   -2.97598571315291    1.45576291394991
C        -3.01201790641513   -1.01228421373863    2.25099719983197
C        -3.41621717710324   -2.80211490563463   -0.52708974263038
C        -3.31125527912635   -2.82145680231478    0.86327968626587
C        -3.94836448102923   -1.62752121935371    1.39388509276655
C        -3.48549184541563   -0.98930966589655   -1.94059374329894
C        -4.18138593496816   -1.63720343564618   -0.90815177271797
C        -4.50804995022976   -0.91191296275187    0.29650795967979
C        -2.29943076231855    1.00293543054435   -2.62403676581233
C        -1.76145981141354    2.28596217984002   -2.22637635761214
C        -3.44281560169385    0.43541565715247   -2.00981693564243
C        -1.44647838932905    3.38869844408365   -0.10831764302876
C        -2.00094330996541    2.90419074922366    1.13814672070590
C        -2.33765512302461    2.95530091278638   -1.15704467266736
C        -3.67240245628910    1.11626623931698    1.38038280783063
C        -4.38421054687128    0.46328035847736    0.30283164264058
C        -4.04154089592261    1.16163999318526   -0.92898057527529
C        -3.25689796694318    2.36686055194828    0.86155690777274
C        -3.49734153287090    2.40265833184107   -0.55808308681818
