62
C62 Isomer 261 Symmetry C1
C         4.69543943593309    1.39640102796634    0.34078308748030
C         4.80855372137157    0.81644102596002   -0.91185349360824
C         4.56391515752680   -0.61887886946268   -0.77889687354493
C         4.33839762181100    0.37354732302948    1.31222468527038
C         4.37141267941949   -0.89542898086504    0.62434525807636
C         3.14405214958250    0.77489224531961    1.93231055694862
C         3.64375299029275    2.39830910219633    0.30598718148984
C         2.75025588904971    2.06368732879073    1.34109345453053
C         3.79634342532744    1.39194418738847   -1.77245392474672
C         3.11006618644286    2.43261992782574   -1.01912343871761
C         3.51974101198672   -0.92652603127212   -1.66258267282053
C         3.01984739371038    0.32807159361267   -2.25062407433756
C         2.57873575903919   -1.93990622643422   -1.36528037116324
C         3.39009081050419   -1.80742411602859    0.95330451702068
C         2.69956392139595   -2.51709339553915   -0.08342275069777
C         2.11439638293483   -0.16349150054126    2.27921468669630
C         2.36163764816278   -1.50275274245183    1.93335428713022
C         0.73699595902053    0.26529393359453    2.41470941066820
C         1.39796371011326    2.36464747021852    1.21317927278773
C         0.45675555099360    1.62123988206025    2.02939628027599
C         1.73835870462228    2.58575094382104   -1.18899105628645
C         0.92315124503170    2.87414355412767   -0.03571773979168
C         1.63161621120186    0.48122026338185   -2.50567649186567
C         1.06636687775921    1.76472410449090   -2.17686499775324
C         1.26613965699980   -1.90738491918140   -2.00662949783208
C         0.76621745726629   -0.66123638182590   -2.56600947576674
C         0.33180294597233   -2.85592169090998   -1.59294493815610
C         1.53404470075714   -3.08996937187788    0.51779106344264
C         1.25597280154667   -2.38108872486550    1.73108190865876
C         0.50032366848927   -3.48930245224132   -0.29201012613056
C        -0.36065077947731   -0.66760289604026    2.43450760598096
C        -0.07328239180523   -2.03704556608264    2.07513723747524
C        -1.73749028678855   -0.20490401109602    2.36402455672868
C        -0.85410112791507    2.04290398590021    1.97960715726013
C        -1.93727792047074    1.18735000636941    2.33022008413604
C        -0.47712219593667    3.08115677994870   -0.20554440124335
C        -1.30544667122658    2.96220797127390    0.94265156285675
C        -0.30383768549604    1.91431501355485   -2.29872253463259
C        -1.07349899675325    2.78069468071701   -1.44580326179879
C        -0.65672395081120   -0.46914656545962   -2.72369108013652
C        -1.14913842910098    0.85609617788329   -2.72629369488296
C        -1.08447032232128   -2.69234517178642   -1.79312548011614
C        -1.61206674595835   -1.50606073302339   -2.37996064173283
C        -0.76816334516185   -3.57388470121582    0.30946263278279
C        -1.09280144855451   -2.79988762610962    1.44353955943879
C        -1.75408665776108   -3.28529286086085   -0.69931923101847
C        -2.80693340916934   -1.03243038386304    1.78233993329669
C        -2.42495589964101   -2.26907290397338    1.24244841518473
C        -2.84483153811557   -2.65359127997085   -0.08427223057262
C        -3.94144528585020   -0.40831314030372    1.14294489651078
C        -3.10857068180137    1.77501091103064    1.74366075819362
C        -2.68055220619025    2.81925258664958    0.80801587480127
C        -4.09214341850155    1.01699347239671    1.16999489372258
C        -2.45418331059300    2.41961784305576   -1.56428335797550
C        -2.49787444956144    1.21262912287083   -2.37331786148659
C        -3.30193291139072    2.55782688968084   -0.45231309091923
C        -4.27780112086476    1.52745048453480   -0.20734790144514
C        -2.94011200185342   -1.15582779331123   -2.03591187709538
C        -3.56957011098403   -1.75596717283769   -0.86923372446563
C        -4.29664798050998   -0.78416663035880   -0.17933089979294
C        -3.41093157736412    0.20462257138905   -2.09432028675606
C        -4.33826681633571    0.41788242875049   -1.01645733955576
