76
C76 Isomer 8058 Symmetry C1
C         2.48472269860206   -4.22740288275987    0.35648582643091
C         3.46066579624118   -3.24936812465612    0.07410876449389
C         3.55234641878578   -2.34409749469247    1.18381680432172
C         1.80404012357285   -3.78769533373959    1.53716761154222
C         2.41710244577744   -2.59140047946561    2.03724363929071
C         0.41305994596074   -3.76304148801657    1.29580917214896
C         1.51377576514081   -4.18270701276742   -0.70649058266990
C         0.24447604324717   -4.06672390921464   -0.11900511350343
C         3.14258071285264   -2.63862180277615   -1.18187235298428
C         1.87206461882691   -3.14446023069403   -1.62734237488484
C         3.51884299901008   -1.32086370020786   -1.42553905604813
C         4.01953739265143   -1.06397141755618    0.95974880026267
C         4.31061382462752   -0.67443064209796   -0.40628600289267
C         3.58037807381034   -0.04828564391766    1.88345709189066
C         1.63951135353209   -1.50016308234121    2.47533119809862
C         2.28395722122239   -0.20913502898939    2.48990221041476
C        -0.38854510650198   -2.76015098641283    1.86394451509543
C         0.19252239077214   -1.59917368115110    2.47850074898278
C        -1.71175561485640   -2.68126619686711    1.33523192544526
C        -0.75927704983439   -3.39352360338081   -0.80769049087621
C        -1.89926567436376   -3.13206688601456   -0.00216548708594
C         0.90450308202817   -2.24425307788848   -2.15077343725714
C        -0.47078001174449   -2.50366267727545   -1.88375762839440
C         2.65434156494441   -0.51579458858893   -2.26228306805844
C         1.28921350591041   -0.89156870689586   -2.47149694959728
C         3.01722838516197    0.84501270155106   -2.37482054899872
C         4.70049596106334    0.65206102375105   -0.62225301700471
C         4.14970562405578    1.35737938477615   -1.72814386075135
C         4.13556076099761    1.24164089333934    1.67317107094779
C         4.81443784246535    1.55445181581752    0.46324023170086
C         3.38770682943051    2.37341366434425    2.06583597988205
C         1.45538592606727    0.94352080424242    2.69066045068969
C         2.05450815590795    2.21520492546480    2.45823246303527
C        -0.63486947091504   -0.43567209258697    2.59377919219759
C         0.01840993758996    0.84690660570273    2.64917032135836
C        -2.62474180405201   -1.72197170045773    1.84944703603353
C        -2.07372834238290   -0.50800840989913    2.39335254645076
C        -3.93597722853810   -1.73652556672909    1.27494547434976
C        -3.00406966827444   -2.70192384230713   -0.73246112689930
C        -4.12618666781229   -2.27425590430391   -0.04155392884617
C        -1.47928520603571   -1.53720354387109   -2.23319388358018
C        -2.79099685129648   -1.83055203905224   -1.86118217850790
C         0.26685418565592    0.13837189875821   -2.58299296820630
C        -1.12562347752860   -0.17156000842983   -2.50386033857073
C         2.01278998455822    1.86688149697895   -2.37840377058779
C         0.66902263979629    1.51435724672672   -2.41338003206932
C         3.86628436042904    2.72952587798873   -1.30860444884794
C         4.31975373830017    2.86339759692407    0.01183142337596
C         3.45208621669869    3.36900059915069    0.99335498784926
C         2.52085530689497    3.00231958651452   -1.63564503986787
C         1.30567346254694    3.19105426649540    1.72834546753885
C         2.13514585982752    3.73560312246622    0.66763873839689
C         1.64665106935824    3.57548040797666   -0.67261187291513
C        -0.74836190488138    1.98737654358527    2.25485420911447
C        -0.04373757145825    3.04384721317591    1.57795351612443
C        -2.87331332812002    0.69499500832735    2.31852921483329
C        -2.16599305272802    1.93382114542582    2.09648791212915
C        -4.74760873858107   -0.59919601395361    1.36483548381567
C        -4.23581733054837    0.61482028140721    1.86508661824175
C        -4.79567066019251   -1.28422287702512   -0.86057557468257
C        -3.85632730128228   -0.86319384080870   -1.85136174080268
C        -5.35507834573288   -0.35640178245460    0.02887839615687
C        -2.14198027548952    0.85476230779807   -2.29926704463879
C        -3.54028778393572    0.51514774243927   -2.03777246272719
C        -0.26354347360954    2.43353728435626   -1.83064751982765
C         0.26280326025781    3.32940049461373   -0.84227246254828
C        -0.57019381002492    3.48022226443209    0.31475735564243
C        -1.65267721045269    2.14037666797262   -1.89615086136140
C        -2.74091431003164    2.90921119700949    1.23179448392586
C        -1.91499946859202    3.38902738945923    0.16356455048167
C        -2.49784249634634    2.95968457205345   -1.08821860544492
C        -4.77408553937419    1.63015859761618    0.99279420074056
C        -5.24590033100478    0.98111102306064   -0.25650933324731
C        -4.39531489195143    1.43791920315431   -1.32761243163402
C        -4.00293718690662    2.69264886192854    0.62730264975029
C        -3.81492829919936    2.63286458346207   -0.83839468636082
