64
C64 Isomer 2405 Symmetry C2
C         4.08811035845425    1.36976522550230   -0.50524750244006
C         4.28703046526495    0.07877037215152   -0.11888505629940
C         3.92739408062745   -0.04662711164105    1.30446344382645
C         3.70310208287059    2.11536244657205    0.71209855636792
C         3.33220815241447    1.17182014548601    1.73357904150417
C         2.80145469268578    3.05821061068619    0.31765572798390
C         3.14925267766088    1.69637295897986   -1.56394699367516
C         2.51302005169902    2.86864246006103   -1.13063999790678
C         2.36284289227974    0.68150140520467   -2.18034497718285
C         3.68016408345457   -0.98998511526359   -0.82888765762297
C         2.79160794015459   -0.68826430635433   -1.92509748441992
C         3.27138349325615   -1.24727522012762    1.43892868368819
C         3.28305912173176   -1.94234696089776    0.14645648771614
C         2.10359303490539   -1.32535179755320    2.24250335075124
C         2.00251984949080    1.16064138206690    2.27121795072812
C         1.39435412931511   -0.11493816038136    2.59568499909615
C         1.57361885430957    3.21666393306180    0.99298116888487
C         1.11964998447998    2.26372404567477    1.95686442691248
C         1.16049492228782    3.09389343444507   -1.32888707821052
C         0.67308359329149    3.60251103854042   -0.05967140192205
C         0.94963178822583    0.94124582057124   -2.45839753928211
C         0.33646429331033    2.17384177671772   -2.04242893378909
C         0.05259557220047   -0.15886900517672   -2.74992329205713
C         1.92199500538867   -1.71475390283827   -2.25650527251244
C         0.62588770687886   -1.44851894153829   -2.81292294896688
C         2.36308172932500   -2.95299238139185   -0.14213890539901
C         1.83781832351092   -2.94289928388723   -1.47601678173417
C         1.43048819804162   -2.55863011094610    2.10875691158833
C         1.54402040296562   -3.41445786842891    0.90937210217905
C         0.13998496083152   -2.65870383197022    2.58905066982762
C        -0.04354276103525   -0.20361047549200    2.79740404070413
C        -0.62322959141609   -1.49120813168085    2.83961267668913
C        -0.31581610684646    2.14164407758362    2.12775216065678
C        -0.93514801003374    0.90554927231508    2.52370912560356
C        -0.64536342935891    3.60392066495563    0.16850478091893
C        -1.13525669914742    3.07729340623916    1.42946187810700
C        -1.09836918223458    2.30007947940195   -1.86942664835184
C        -1.54764911233041    3.23962290376965   -0.89032876085728
C        -1.38479241756013   -0.06651339959080   -2.54671118486698
C        -1.98668497344966    1.20665806042639   -2.20157778870196
C        -2.10003338722923   -1.27900488615793   -2.21314912381723
C        -0.14304386488976   -2.61612849512206   -2.58144447645295
C         0.59658271723420   -3.51540444896430   -1.71847128244377
C        -1.43303319138597   -2.51754552452921   -2.09938925366488
C         0.25651656541711   -3.96408226198085    0.65412944488973
C        -0.60401915708314   -3.54016650063175    1.71164392978191
C        -0.26604121750842   -3.95201113383032   -0.66794481423637
C        -1.55097626421024   -3.39217577346024   -0.91414936291500
C        -1.92057550711068   -1.74203992492964    2.27894679611398
C        -1.84254609219250   -2.95784940287002    1.47867716761762
C        -2.36779850026358   -2.94380160766246    0.14475279139122
C        -2.34956856830156    0.65723646352614    2.24156729644121
C        -2.78511354424555   -0.70608446359515    1.96427799216581
C        -2.48887221897010    2.86181665645799    1.22746330253071
C        -2.77611843249563    3.07574967132140   -0.21742227825187
C        -3.13089087128696    1.68580431505562    1.64161312682946
C        -3.31631267526609    1.21559572249403   -1.66384280557333
C        -3.68279048431804    2.14443396530671   -0.62720286166116
C        -4.07145409479539    1.38105499948118    0.57795992013467
C        -3.26742269248375   -1.20825669852485   -1.40832811311372
C        -3.28272907721548   -1.92402541554283   -0.12733518188480
C        -3.67504456770275   -0.98574167843262    0.86330685947165
C        -3.91740783845269   -0.00664745323608   -1.25441264704967
C        -4.27636719314438    0.09748496057439    0.17068159616124
