58
C58 Isomer 713 Symmetry C1
C         4.09415027222850   -1.41340980367087    0.43380848988390
C         3.12049848054717   -2.41610881065334    0.70601594494125
C         2.28014367443659   -1.92768901659296    1.75573626260022
C         3.85776463646638   -0.29835405600434    1.27529482709121
C         2.70947743008815   -0.59349050131657    2.09279905922983
C         3.87042176085899    0.87732664642701    0.46054251609258
C         3.93521231442444   -0.98417573374979   -0.93063206585399
C         3.86379504410039    0.44009701998303   -0.94140097314835
C         2.50606215082284   -2.74594384265455   -0.53778197451049
C         2.93091025158985   -1.78124223816483   -1.54590312007488
C         1.19262410328117   -3.15141937684829   -0.49400671828388
C         0.91029005045002   -2.25478662878053    1.78487456158913
C         0.46397928985840   -3.11286452054908    0.74659864495944
C        -0.03512164776646   -1.30254382183037    2.35956535635606
C         1.76203813517544    0.41704058418532    2.39882786127466
C         0.35857193762061    0.07980749501739    2.57082730511248
C         3.06189836890235    1.91475734583936    0.84966711122355
C         2.12235707088036    1.72722615186612    1.94952401358020
C         2.39869706636440    2.73789952118812   -0.14807294755242
C         2.95970089274366    1.02574101950012   -1.81450816958753
C         2.25912853733427    2.24662862217525   -1.44900141055196
C         1.94101460422813   -1.18527864345508   -2.37657115967122
C         2.05755127122763    0.21536001952424   -2.58405831632578
C         0.26753429570247   -2.81425905860454   -1.53367546260520
C         0.60430688411100   -1.77567099320546   -2.43608429301924
C        -0.91134117546770   -3.16140427722579    0.40209549470040
C        -1.06368504418219   -2.96450393364631   -1.01073752086342
C        -1.39316324053473   -1.59992611268438    2.22276613204445
C        -1.83356759675027   -2.61493260965526    1.28620308625935
C        -2.43830002275828   -0.59733403971903    2.28132666466509
C        -0.66513720316606    1.09344256063862    2.43945610868947
C        -2.06701603291375    0.77146026563028    2.23760386004067
C         1.10013443934927    2.65792564621257    1.76208635821508
C         1.25235721589890    3.28745211724823    0.45357630046407
C        -0.24869931587615    2.37432147631114    1.98306952433378
C        -0.00257982928143    3.33413313506454   -0.15832109505205
C        -0.96038878237615    3.00326071453378    0.88490787440309
C         0.97537338261650    2.25177239300188   -2.07450888728534
C         0.88726618367979    1.01438752293028   -2.80952328989102
C        -0.19211233057846    2.78839965286823   -1.46368214193442
C        -0.49204168506206   -0.98978885167945   -2.85862495220861
C        -0.33832772825125    0.42600836712937   -3.01799090876082
C        -2.17056528197984   -2.23965660489499   -1.51104505312567
C        -1.85089072118617   -1.22649328151813   -2.45316300699462
C        -3.08442411989852   -2.23749215250951    0.77762819915605
C        -3.54567076958075   -1.07565050362097    1.53383297874959
C        -3.27216967747931   -2.00137088143884   -0.61222040493228
C        -4.23185629788192   -0.25348467760440    0.64070335935717
C        -4.04067449564802   -0.80902177058838   -0.71438382376824
C        -2.87714137454454    1.62313314059951    1.41256477145559
C        -2.20633324384821    2.58958789311110    0.56703093264655
C        -3.91034437513163    1.10011963279974    0.60536839332707
C        -1.48837551054853    2.22000590055187   -1.78175160760528
C        -1.55099661881888    1.07627808117654   -2.60882706800487
C        -2.52458652063345    0.04044529988320   -2.41374740175747
C        -3.62536746348440    0.24784124300276   -1.55655459506453
C        -2.55473903644290    2.34262932485024   -0.82393036988284
C        -3.62764260291567    1.45880794961623   -0.79559325412558
