74
C74 Isomer 507 Symmetry C1
C         5.37405056030371   -1.29564653411541    1.54492293982969
C         5.79686284784001   -0.66744496431648    0.37258452159216
C         5.25257634952755   -1.37978453812209   -0.78353761597463
C         4.51776307447184   -2.38245904286969    1.16065121482127
C         4.44395572610295   -2.44289969692615   -0.29369908649891
C         3.31296364042072   -2.22104560293346    1.86676189079003
C         4.58017539767475   -0.34434114660992    2.32242749724432
C         3.33774821194085   -0.94410571263925    2.59121482858458
C         5.27839260483861    0.66759834805431    0.35493623933407
C         4.54991843540261    0.88808094325821    1.59547584263362
C         4.65398417400737   -0.40204017130730   -1.61992434974615
C         4.62893528414742    0.87053037405627   -0.89382438469814
C         3.51478623990453   -0.73734644925153   -2.33223573970452
C         3.18876605623081   -2.70653350821348   -0.89608968087104
C         2.85240021201071   -1.97412672174652   -2.06579415481985
C         2.09343238703210   -2.62913091545780    1.31981420417331
C         2.05518728947795   -3.01994803207304   -0.05897204794289
C         0.89686034872525   -2.12928383185177    1.93954746340285
C         2.15389616907702   -0.17743233342714    2.66745457316287
C         0.88420175636533   -0.84719731115645    2.56629690486584
C         3.36859184543084    1.61809375401257    1.54262006028091
C         2.20755467638142    1.19510200945624    2.30357275307204
C         3.49971450774244    1.69434740848685   -0.96872112143499
C         3.06692282620686    2.27128164850324    0.28348385739739
C         2.48962599341038    0.23462675213680   -2.62372527746577
C         2.46734164820540    1.47137550770197   -1.96536829501696
C         1.49415713267856   -1.80181588710242   -2.46910228545448
C         1.25716954467316   -0.43944944255089   -2.84268856618947
C         0.76635094628381   -3.12102661570818   -0.62894476851968
C         0.46006771343343   -2.50732085789265   -1.88534140635734
C        -0.31903408342908   -2.69540016984920    1.53229060725729
C        -0.32785489344609   -3.32427788598789    0.24883141701328
C        -1.54598355718122   -2.21208019864974    2.08975142189419
C        -0.34554062646352   -0.12606569538009    2.62425862536225
C        -1.59669403412161   -0.84371194864842    2.51919522074215
C         0.98159706175879    1.91755902282938    2.21089572681403
C        -0.30019606088112    1.30819676878347    2.48546269896349
C         1.93364859463737    3.02910974026982    0.25453386844747
C         1.02902980201979    3.06731212402903    1.38198264852780
C         1.20316139049012    2.15113458082231   -1.91195573864646
C         1.13814274006056    3.17691123441061   -0.94389690617859
C        -0.01494267194288    0.15736767470785   -2.70153646168419
C        -0.04495853621227    1.54174949792943   -2.33779055855363
C        -0.88212628404771   -2.06785323341366   -2.17384564604093
C        -1.15878359451293   -0.70135085015352   -2.52406585191365
C        -1.56547807267475   -3.54476021476250   -0.37044641234416
C        -1.88232125200938   -2.83523641757078   -1.59918074360759
C        -2.73023438105397   -2.87745111191450    1.66095758916429
C        -2.71253055090186   -3.58684805758107    0.40432083599958
C        -3.96296422668804   -2.22461323878298    1.75524339332208
C        -2.85184069223140   -0.12500333146729    2.43700399751383
C        -4.04072346381559   -0.85960417376702    2.10897055770286
C        -1.51805593947374    1.97509364500939    2.11371874310320
C        -2.78090882399838    1.27246470737607    2.08042421630877
C        -0.15658058977359    3.62649647306231    0.92132045847127
C        -0.09715424578418    3.67851194635663   -0.54959817643368
C        -1.40336078538577    3.14052676241510    1.29987113068678
C        -1.32022407196952    2.06477816042696   -1.93183956695908
C        -1.29996870278415    3.19250196782086   -1.05452944235924
C        -2.19265081266578    3.19156384741514    0.08354713662446
C        -2.46458869102911   -0.16999064126489   -2.24041188235180
C        -2.51072448840635    1.23988857287579   -1.94597585557936
C        -3.24134886573183   -2.41947279608661   -1.53906171427156
C        -3.80749335921748   -3.08929223696293   -0.39961935437172
C        -4.67385241332698   -2.41815222871038    0.46406503853894
C        -3.56277598935948   -1.06377422697735   -1.83873424268983
C        -5.01859045641852   -0.29359239383067    1.20999862998815
C        -5.18810851605101   -1.20403282856863    0.06463671136580
C        -4.68608125779775   -0.53679128809574   -1.11424398815028
C        -3.77933114574537    1.77746969890807    1.19425975956342
C        -3.32625911077409    2.48527632180091    0.02213469656376
C        -3.62074989833590    1.68252420673742   -1.15516134619665
C        -4.80948197873554    0.95617664630727    0.70122837950759
C        -4.64143606453714    0.83108413873721   -0.76880563160447
