70
C70 Isomer 856 Symmetry C1
C         5.29172663277387    0.47351931665004   -0.95445966440195
C         5.10365818191177   -0.95182033999979   -0.86640362642732
C         4.91555880672225   -1.27333316589031    0.48618815350602
C         5.01785800773999    1.04979248350859    0.35316730552023
C         4.78760463557402   -0.00201953350073    1.23276258426033
C         3.96469197257257    2.01565805436981    0.22508019965293
C         4.28626908997466    0.95856889836566   -1.80655138005640
C         3.55999456381010    2.00128816631012   -1.15167897068826
C         4.07915516799535   -1.33242739514611   -1.81531492961133
C         3.51785514354568   -0.11605239718822   -2.38968787960431
C         3.19113714959395   -2.32474567036008   -1.44925755634818
C         3.85481826742776   -2.10462306303716    0.89542095542486
C         3.11167341118102   -2.78587779776743   -0.08005500174874
C         3.60999558447323   -0.07882220072053    2.03756283004668
C         3.09772743210522   -1.41475647484802    1.92199707978933
C         2.95204639393340    2.10494205895994    1.21673194287992
C         2.70396433753588    1.01051294955284    2.12935415101598
C         1.82017912973844    2.81997858307940    0.80729685367337
C         2.22955340977256    2.24375119562167   -1.52913132743605
C         1.49914582559639    2.96807420927845   -0.57464401706957
C         2.14225299707462    0.03783733505753   -2.62787892268629
C         1.49229043697143    1.31674196616775   -2.35428380102027
C         1.84731090510488   -2.28411235824437   -1.95282585348964
C         1.29989182993472   -1.13885653687456   -2.55744090091400
C         1.75595016182582   -3.09800328429937    0.18719476776515
C         1.01404132250389   -2.98615358843685   -1.04208636185698
C         1.74826063626565   -1.67930640202258    2.15511679332600
C         1.08883608100140   -2.68713275005542    1.35688983125753
C         1.35574417105901    0.74663097516573    2.57235106399801
C         0.94280810386000   -0.61740384815785    2.70060483525290
C         0.58998652542512    2.78700543809426    1.52618292923380
C         0.30497070859831    1.73410048735021    2.41351026159457
C         0.10293150485643    3.14024820454530   -0.69876899997945
C        -0.42944063681388    3.24746057707834    0.63327146408508
C         0.08268558256889    1.42720397805138   -2.41500305083418
C        -0.62286223455592    2.46324243484012   -1.68374552100265
C        -0.12051927520399   -1.03537458223312   -2.62069054982168
C        -0.70484740515609    0.26659085394356   -2.79437603024306
C        -0.36201293070242   -2.89144677207030   -1.07756963092878
C        -0.96345202615000   -2.06121371050192   -2.07611964605177
C        -0.33054262973617   -2.81210105094480    1.37484572285863
C        -1.06040166250531   -3.12756690882804    0.16362094940488
C        -0.41988330429213   -0.90364051495202    2.88382480880686
C        -1.02865091478554   -2.09718028547081    2.35992851724543
C        -1.09755353846986    1.41202529376683    2.61999176762850
C        -1.43058873734386    0.08508541255010    2.95600805614173
C        -1.74463105253109    2.96593133085879    0.85612107121842
C        -2.12303709113033    2.11586449894462    1.93893218823486
C        -2.05875163395432    2.42037215552513   -1.50783158620096
C        -2.62731056495335    2.75117492259522   -0.25370915721160
C        -2.08752128443795    0.36037963843533   -2.84087873889717
C        -2.79054413132441    1.50986441395076   -2.30639351895971
C        -2.38936335215661   -1.95806032122444   -2.10354916961224
C        -2.95313740884371   -0.79210888475159   -2.69042339915020
C        -2.43615267365857   -3.01861283924066    0.13573608937221
C        -3.13275465950882   -2.61039661199731   -1.06826464311273
C        -2.42688809863345   -1.88246058555773    2.28572777132219
C        -2.69768964291130   -0.51040826435151    2.61114494561361
C        -3.17129025057139   -2.50484394811648    1.27796672360675
C        -3.38126757128557    1.53249329018155    1.57306952579836
C        -3.74702631235044    2.03339072229894    0.26860329797136
C        -3.72212496051176    0.20348366524153    1.94289386003697
C        -4.07162118249646    1.09449386595663   -1.93534599933165
C        -4.21462703258481   -0.31189219220175   -2.27050389551066
C        -4.55395234989624    1.27591300969160   -0.59318167007109
C        -4.37701813633845   -2.08791420596302   -0.65036476255509
C        -4.33620594211335   -1.89823646407187    0.80554865389279
C        -4.61893743313183   -0.53029094545473    1.07734233067608
C        -4.90635572062085   -0.92620342377471   -1.21313486980331
C        -5.09061032936805    0.05077893226848   -0.13643524947506
