76
C76 Isomer 6083 Symmetry C1
C         4.61562303910218   -2.42192209810940    0.11093614347888
C         4.58861198272366   -1.69085276865756    1.31762883034015
C         3.37565803544718   -1.98632221460685    2.03011261125844
C         3.41938710577875   -3.18538038005114    0.03798130830744
C         2.67095250986535   -2.97249055703141    1.25376436405996
C         2.76538731688881   -2.80896052505531   -1.15186322646956
C         4.61413514993738   -1.45045749101180   -0.96249145730375
C         3.46687012248840   -1.67246193949530   -1.74741242029450
C         4.93247101692747   -0.33029290832911    1.03107697566540
C         4.85437643680353   -0.15129638106476   -0.40873349956343
C         4.39179292999609    0.63072717590278    1.86483182500967
C         2.64143553096323   -0.94837221627744    2.65729200649316
C         3.24077918728073    0.32859324194546    2.70257268886121
C         1.19261601813677   -1.03198436874356    2.72855618965887
C         1.28285211887367   -2.97276256530977    1.21196368477682
C         0.53622571527639   -2.14156336027587    2.12291738755601
C         1.37999701033085   -2.88870483003195   -1.22560848617506
C         0.64018312695667   -3.23070255844104   -0.05133099246541
C         0.73160553268600   -2.08010689951723   -2.21414351176074
C         2.71009237802630   -0.59549387353642   -2.27809418872456
C         1.33394031802203   -0.84281504491460   -2.63714648362297
C         4.18777222991374    0.96548392076547   -0.96268948335929
C         3.16721472264519    0.73951522281672   -1.97436767907782
C         4.18040686719653    1.91098084189447    1.30544890678400
C         4.01892445723957    2.08044662811286   -0.07473063265343
C         2.41244736592372    1.49469633970216    2.72828555772524
C         3.02861409453381    2.50387151744149    1.96043763433057
C         0.39621013038021    0.14623631368685    2.94601831795814
C         1.00033799675416    1.43347449209821    2.78145621401081
C        -1.02772909869592    0.05476514020990    2.98077860297930
C        -0.88679712786088   -2.22340366333592    2.10241605505834
C        -1.64134887264266   -1.23201529345036    2.81239983145581
C        -0.76622380840467   -3.24979247939187   -0.10509436781210
C        -1.53485563777865   -2.99481482084592    1.08203317776728
C        -0.63956554776982   -2.24561650347519   -2.31486234368359
C        -1.37303725834088   -3.00213422364676   -1.34965671250170
C        -1.51559421843573   -1.23675436138425   -2.82685908630742
C         0.42446696294561    0.22652088056138   -2.92575374248252
C        -1.01991589739438    0.06266828298571   -2.97052782838819
C         2.22865689868775    1.76179860565985   -2.21435464928877
C         0.92763022499536    1.52269670559357   -2.71045289733560
C         2.92277004786387    3.01671769448196   -0.24438581819563
C         2.28546768914167    3.24251149615321    1.04103583246795
C         2.12783073069657    2.91094386952095   -1.34815860606457
C         0.24507559307163    2.48280495475964    2.15792725950008
C         0.88440044491969    3.30537832580366    1.16863758613592
C        -1.81400416099254    1.24082645552991    2.77926127089623
C        -1.18228389008767    2.37422406549092    2.16823610490623
C        -3.22450474804807    1.10504907076116    2.62676756381431
C        -3.05164061362964   -1.32289082610533    2.78623406675467
C        -3.83264564949369   -0.13651811500327    2.77704743136200
C        -2.93999651330265   -2.92034479749696    0.94447643976997
C        -3.68723329861320   -2.22821565552949    1.89816736116897
C        -2.75124370528985   -2.63623035849438   -1.45608482498480
C        -2.83903931552273   -1.53029599179316   -2.37284092591969
C        -3.56884738135939   -2.69541909934482   -0.34996610939093
C        -3.72880735442068   -0.50495856549038   -2.11340206058288
C        -1.93519750887586    1.13954589486101   -2.63899416575044
C        -3.25690414143358    0.83805337020394   -2.24563079669055
C         0.03253359429297    2.54594064541091   -2.22327293479102
C         0.75138635049320    3.31369852459396   -1.27855447106228
C         0.15031577555107    3.59695487000564   -0.03098149522435
C        -1.36003064186059    2.36658365818859   -2.14854532865888
C        -1.91586735690469    3.09042605068479    1.19904909138505
C        -1.24047747583229    3.49703089018740    0.01201174870701
C        -2.01371791388462    3.05828542798700   -1.10612136580945
C        -3.94762859136487    1.81036179917377    1.57657107069726
C        -3.95130942831708    1.59715764873149   -1.22840149326475
C        -3.24429862405040    2.71208327195047    0.82196524084985
C        -3.28831930552707    2.64267181598828   -0.61863214104746
C        -4.89073052090817   -0.27024032708903    1.76563554497214
C        -4.78957563611762   -1.53703015122763    1.22265956419716
C        -4.63302451931422   -1.72831213229202   -0.18128927046297
C        -4.66750107941820   -0.60079643247098   -1.01504437164386
C        -4.86356967218827    0.88865166542935    0.94191842419004
C        -4.79498824567653    0.71835000305333   -0.45303004649545
