78
C78 Isomer 18545 Symmetry Cs
C         3.88693005128913   -2.54342102139531    0.69830884199874
C         3.88828474205406   -2.54349240801615   -0.68368110348774
C         4.51159284245592   -1.30683418474178   -1.14626046988570
C         4.50930605081783   -1.30668439893354    1.16190815849389
C         4.92242960974373   -0.56510575270855    0.00817113912127
C         3.64698548986097   -0.73694877201365    2.10598554942123
C         2.66696093128478   -2.74797179872303    1.39664570057040
C         2.55799003158570   -1.67329933128372    2.33184023069747
C         1.50812964706601   -3.18302351441485    0.72531582121875
C         2.66968067585503   -2.74811757383415   -1.38435515604666
C         1.50954885900107   -3.18310357531650   -0.71522531743690
C         3.65111976141419   -0.73716720858648   -2.09206408612050
C         2.56256452698019   -1.67356156019211   -2.31989691629035
C         3.40315440616415    0.66686939641510   -2.12499672144446
C         4.70436785529001    0.79754281111397    0.00784399330944
C         4.11860765117004    1.43100930131836   -1.16098852254526
C         3.39891019621434    0.66705449956088    2.13819369824344
C         4.11624721517574    1.43099175053519    1.17545259860221
C         2.11727505415101    1.13479758436254    2.61124213386318
C         1.32382599206031   -1.24559021085598    2.78391222126392
C         1.16212279729845    0.16061504314573    3.07748754094643
C         0.26271645575134   -2.99381537964589    1.40194228358438
C         0.18234667229344   -2.07775722065276    2.48455347061995
C        -0.93068115902617   -3.43590481719024    0.72468298077713
C         0.26547133641072   -2.99399574977299   -1.39431491051255
C        -0.92925427215438   -3.43600703042283   -0.71934322498197
C         1.32929889758980   -1.24593199727170   -2.77444343044435
C         0.18724981529070   -2.07808459440718   -2.47720710914979
C         2.12243800247169    1.13451478071796   -2.60062177041980
C         1.16819910125757    0.16022828658157   -3.06855340228240
C         1.59470468776948    2.40269003834943   -2.15935226092721
C         3.54719582743576    2.63508320715441   -0.71652795619702
C         3.54561850632504    2.63485135229911    0.72969904077858
C         2.30236632216950    3.09865894042920   -1.15400489421218
C         1.59038028647323    2.40287893838996    2.16873039599367
C         2.30001246960968    3.09865048052830    1.16467159372533
C         1.58152323697430    3.56916581814995    0.00461005964050
C         0.19832566066588    2.74119515849163    2.27342179982818
C        -0.13275336538268    0.59082466651878    3.36828020478245
C        -0.59529017464715    1.89998529880097    3.06193022752696
C        -1.11098776248192   -1.62747369092353    2.90733255802800
C        -1.25778027401421   -0.29835332335428    3.35528838330343
C        -2.15572381461166   -3.26333503733216    1.40009610421537
C        -2.25696254769473   -2.25001170797574    2.41286538746129
C        -3.38281243001784   -3.24964557335921    0.69029169083463
C        -2.15295983407014   -3.26355262998811   -1.39720361124603
C        -3.38145100256168   -3.24975980017976   -0.68983064872247
C        -1.10524652758489   -1.62788610009640   -2.90260277850978
C        -2.25218712965664   -2.25036953189783   -2.41031395062554
C        -0.12610615864721    0.59035569660125   -3.36196713934765
C        -1.25114302409319   -0.29883004478824   -3.35103718240437
C         0.20281965054077    2.74090729827627   -2.26682070987587
C        -0.58924849065097    1.89956492723490   -3.05674884700167
C         0.20544111919642    3.72480783769763    0.00323632974724
C        -0.47303197110753    3.53219122131313    1.26417300931916
C        -0.47054850197442    3.53204286283021   -1.25901239193670
C        -1.87988296409956    3.53790266811307    1.23287165851417
C        -2.01620952199599    1.81801667040647    2.91791057393544
C        -2.43176746878229    0.45299386424927    3.06691590406745
C        -2.67236764623043    2.62962429446108    2.03407755578203
C        -3.46833099223858   -1.49484921934697    2.17915095882603
C        -4.17027920893424   -2.09948374337711    1.13495591802633
C        -3.49461505550281   -0.08358348215273    2.31227181359819
C        -4.16801835409905   -2.09964909498646   -1.13621665234224
C        -3.46401214161532   -1.49517208327241   -2.17910812620856
C        -4.56927875066901   -1.34165897619844   -0.00108148712924
C        -2.42570731469215    0.45255324077272   -3.06512871650379
C        -2.01045817506555    1.81760979501741   -2.91551949983236
C        -3.49003742758340   -0.08392450841206   -2.31250596917556
C        -1.87745659995657    3.53775865084976   -1.23050356437496
C        -2.54740743947512    3.66364334886537    0.00052073099791
C        -2.66837286690407    2.62935902989907   -2.03313208512615
C        -3.73987102996429    2.07865945757642    1.22580725641095
C        -4.09564956514542    0.71006785257824    1.25563730486721
C        -4.45372688248152    0.07806782697168   -0.00108124687947
C        -4.09317677262229    0.70988241731276   -1.25718788166938
C        -3.68390372416830    2.75825770690734   -0.00052984472159
C        -3.73744409255460    2.07848262722377   -1.22686323692409
