80
C80 Isomer 2015 Symmetry C1
C         6.27104232432215   -0.76177895812186    0.71836423552677
C         5.78678455190237    0.41452515413523    1.35015790200807
C         5.73154188341229    1.43321739720839    0.38087477537859
C         6.26635390015540   -0.52187531463590   -0.73747007073229
C         5.92418682666557    0.82318570140889   -0.95265097812521
C         5.43993834144266   -1.48867538726407   -1.33476526986293
C         5.32116715043582   -1.78665088753412    0.98253482137949
C         4.92931454759001   -2.34648930508963   -0.24543361292689
C         4.57000576221797    0.10629074310431    2.10096655033421
C         4.27976028896830   -1.27380236365399    1.86454667670131
C         3.51676482417983    1.03476854702427    2.18539772009762
C         4.61647651057033    2.26707270674933    0.33170519033059
C         3.64647026022418    2.23687974796688    1.38350983450389
C         4.80235447351549    1.19515698747774   -1.73226228501124
C         4.12310793088658    2.25164825378025   -1.01952940957022
C         4.32427986491743   -1.12684201717067   -2.12711903697911
C         3.94771285355343    0.23600503373679   -2.36533883668039
C         3.57657265379064   -2.60622423605837   -0.47928826982654
C         3.24109661624919   -1.99742708431755   -1.73569943891271
C         2.94112114353748   -1.67823683462692    1.70930774992244
C         2.61131152966310   -2.47522133189674    0.55751047804076
C         2.17638055036251    0.54900022988996    2.44450285008842
C         1.89296052428837   -0.81997072091900    2.21598984265655
C         1.04760322070755    1.45309640611717    2.40264753739972
C         2.48876715790139    2.92925988753948    1.08997910952375
C         1.26781987716176    2.68921530283480    1.78167900200215
C         2.81270608250393    2.62204108277546   -1.31416728919064
C         2.13618766141288    3.28171160113023   -0.26108177452876
C         2.54876097441195    0.56184174282026   -2.58614767090722
C         2.01604700967975    1.85066269597921   -2.23064045450028
C         1.92848147306887   -1.71692896058905   -2.04810267083935
C         1.56739096240426   -0.48201301132940   -2.66774151194109
C         1.27031311462546   -2.52076867232229    0.14089051588119
C         0.93350122420654   -2.31931732342312   -1.22195985753856
C         0.52774099291860   -1.23415420848869    2.05796360389977
C         0.24279773781448   -2.21370005042930    1.08240479265516
C        -0.31339364568232    0.99593995778119    2.48335439031310
C        -0.58087428771231   -0.39654610216522    2.42566193139746
C        -1.40210830362009    1.85558554569236    2.10469218267650
C         0.22218474390367    3.24963595678747    0.99793275424067
C         0.75231301890634    3.48079132544330   -0.31713435814431
C        -1.09777833696045    2.91407570224729    1.19580113288887
C         0.61531153404889    2.11578526591845   -2.31440190668764
C        -0.00904373732168    3.05349271318663   -1.41862006041443
C         0.18015552774572   -0.22255838167392   -2.85446926409378
C        -0.26607519089498    1.13282336231745   -2.87620487663744
C        -0.41012413469424   -2.19860918790391   -1.59597072987614
C        -0.80417689511815   -1.22958715355587   -2.56151947131855
C        -1.08453882826066   -2.51124938755430    0.71401042798094
C        -1.36986156510018   -2.69481423057240   -0.66985385780961
C        -1.92754213059641   -0.88121889205013    2.30129265907670
C        -2.14494919142795   -2.10627549165564    1.58824352859428
C        -2.75026189238153    1.41319506599930    2.18866956286771
C        -3.03926992613572    0.03039662027048    2.45340680706097
C        -3.71913049556889    2.20066262110062    1.48382492962842
C        -1.97772455383140    3.19836266119311    0.09266206742175
C        -1.42557646067262    3.10554510322844   -1.23784485120439
C        -3.31458040100061    2.93664482405804    0.31456572224646
C        -1.64627988750262    1.38323647216283   -2.90474249634711
C        -2.23384241490720    2.46540079514489   -2.18554100496933
C        -2.21303642049880   -0.97097450388768   -2.71840281657022
C        -2.63353118203608    0.35329919822179   -2.95647432452381
C        -2.70697579199953   -2.71927894495763   -1.08540430069932
C        -3.16813444384151   -1.81254413709923   -2.10980076916726
C        -3.45592367351319   -2.48712358714486    1.21403602963329
C        -3.71042716403498   -2.87335348309511   -0.13644717567163
C        -4.36843265575570   -0.45210676483502    2.20743897115810
C        -4.56189571046072   -1.71906165774727    1.63675386295190
C        -5.00264183406922    1.68274766884158    1.20794550181469
C        -5.35849213019065    0.41078735178664    1.59857971402564
C        -4.21354410889940    2.57814000571165   -0.76544710964314
C        -3.61288389131873    2.16121103686655   -1.95392923814450
C        -3.88857670035194    0.84347016530186   -2.44161135150159
C        -5.26527552049659    1.82107323871260   -0.23105741800514
C        -4.49625311976723   -1.38542199850798   -1.75648065874526
C        -4.88715677546503   -2.16056356605370   -0.61778428413150
C        -5.49576260371390   -1.57091264979398    0.48888663513057
C        -5.92411284953752   -0.25366319077736    0.42770348921879
C        -4.85981136871797   -0.00210684049813   -1.82902986402983
C        -5.63678740221442    0.55116493974687   -0.73882486224791
