60
C60 Isomer 1465 Symmetry C1
C         4.41480025590296   -0.09881268571903   -0.11235522534603
C         3.97469392439241    0.43531863315348   -1.32374977305915
C         3.45944425868435    1.77762822275926   -1.06287807095049
C         4.05552201797539    0.83662330147085    0.96630280997394
C         3.49115620346254    1.98050747945404    0.35072921819990
C         3.30164707468737    0.11614617012571    1.92584180702490
C         3.98569778077463   -1.38005635537784    0.26260520417327
C         3.40464427261063   -1.26321822286679    1.58823862606058
C         3.09379701416369   -2.13272519450929   -0.54256824613750
C         3.02866532137796   -0.25724315111288   -2.13076182313805
C         2.62598877408969   -1.58584948534883   -1.77835420750235
C         2.27314722765499    1.94312230230768   -1.78200094071364
C         2.02293882462315    0.70689332450225   -2.49500218073601
C         1.17502848619082    2.67665996606847   -1.24426828735142
C         2.36349367028751    2.55822932024147    0.93186298836408
C         1.33339602519715    3.09493072580714    0.10059337391806
C         2.03922985037967    0.61905994354315    2.44252459328120
C         1.70670106201946    1.93437915074831    2.05507873792602
C         0.95608740758890   -0.28554517367911    2.75488970435454
C         2.27671062336477   -2.07399248404297    1.63732626292165
C         2.12467511509654   -2.71798080871973    0.35056999641661
C         1.12560999525946   -1.67714379342724    2.37276832980445
C         0.84882661221649   -3.13456297075216   -0.08193360373924
C         1.32143420016614   -1.95493211086636   -2.18090739832237
C         0.47739833842227   -2.83297312240405   -1.41786266734862
C         0.70921297741269    0.34587401138357   -2.83671007812360
C         0.45506267520256   -1.04408578988125   -2.84619349563943
C        -0.15804856535815    2.44251055460682   -1.76776249364651
C        -0.39148993100056    1.28069693982265   -2.61689876827364
C        -1.24731104282748    2.97114400286088   -1.04794984153100
C         0.17104260570719    3.21566391562310    0.92614154860767
C         0.35162510167928    2.39544867351679    2.07955523527393
C        -1.06674373456949    3.34564609410183    0.33672329600754
C        -0.39711378162158    0.23035942361928    2.91347726461207
C        -0.70509589427182    1.60063134463956    2.57312276332160
C        -1.48849146387245   -0.67611043958047    2.86274243658215
C         0.00014724012838   -2.47879752797980    2.12562395197667
C        -0.18227258908406   -3.18611783769905    0.88060734706922
C        -1.26313300784073   -2.01980735428155    2.52799531374993
C        -1.56503842940941   -3.07731406409763    0.50886038516450
C        -2.24932265902740   -2.46542586667327    1.58692800556137
C        -0.89695084169133   -2.60945722692781   -1.76728307911241
C        -0.88860493716241   -1.53519537604033   -2.70902668616406
C        -1.94995744552903   -2.73351702756150   -0.82101690903806
C        -1.69566353183393    0.78122559501153   -2.73841366567990
C        -1.93640972843306   -0.64568680177228   -2.78865958469896
C        -2.58096415672551    2.43059006582468   -1.15341473886564
C        -2.81219225368573    1.35511765485998   -2.01310269503446
C        -2.17447398032841    2.87257144962363    1.07202458263527
C        -2.01601265179681    1.94960512939965    2.11925695419269
C        -3.17076528026365    2.38840707646839    0.13940158493994
C        -2.79032014210496   -0.33525355164617    2.29350866692632
C        -3.21483890541474   -1.44297439845492    1.43265599627375
C        -3.05652458594835    0.95142064539887    1.92548086186699
C        -3.75284098775619    1.22020497444895    0.66783097501481
C        -3.08565789540959   -1.86950864106288   -0.97225641033221
C        -3.09989178644831   -0.93434440935925   -2.01824202797434
C        -3.66520811700973    0.31360441665678   -1.57059666167536
C        -3.72005389184054   -1.19967070176450    0.16775816930060
C        -4.03543271845363    0.16108206556018   -0.21185743136175
