76
C76 Isomer 7180 Symmetry C1
C         4.16083224036533    2.83887538185029    0.47715767780859
C         4.70281787870824    1.62183027438083    1.00941333114053
C         4.97817338304826    0.74382489515905   -0.08701430030386
C         3.78142234571584    2.54107673247118   -0.86989995333084
C         4.24540642079008    1.25610638380530   -1.24449808983128
C         2.40298281307031    2.86223450184340   -1.06267497225455
C         2.96286786328863    3.12498677451869    1.17015714610184
C         1.91493004076642    3.31296075711326    0.20357194419884
C         3.84250786282494    1.15608508248236    2.03368619648162
C         2.73156991126200    2.10069732351028    2.13622314930252
C         3.60844910541720   -0.23056514486250    2.20281270472969
C         4.96148819968521   -0.60781916318395    0.17780391403324
C         4.35387093673197   -1.11832673253503    1.38430921355645
C         4.56937161380059   -1.46691464973671   -0.89074898723070
C         3.41153751518252    0.39037065259075   -2.01682053353042
C         3.71362977163427   -0.98768562037764   -1.91253959547345
C         1.56791120693927    2.04257477829871   -1.85074821424051
C         2.04093203159869    0.77501574051311   -2.35557921403432
C         0.17660255464437    2.25659350069464   -1.67456180067632
C         0.60632641822394    3.06119684270060    0.57809067023456
C        -0.31399474393545    2.86421392544193   -0.48487303080294
C         1.42368281934395    1.67443083693044    2.41971442702131
C         0.30934440856984    2.38313393847646    1.80111829349554
C         2.29938302473901   -0.63847891592575    2.69183773242388
C         1.21134999438166    0.31291015537700    2.82869518934247
C         1.94588496240313   -1.98349304246604    2.52777688528342
C         3.82138814285395   -2.42325863086359    1.04474144958909
C         3.98769497537294   -2.64901844252393   -0.35004848357928
C         2.65339684241972   -2.86139838634511    1.63506806333526
C         2.69448423998737   -1.98660677309693   -2.11613769960371
C         2.87061875848405   -3.02793593425884   -1.14182125887764
C         1.06483005093531   -0.22103791884297   -2.68432396971550
C         1.41903925477642   -1.61873889946547   -2.55462605783642
C        -0.73829587259573    1.42328726427401   -2.38484011941567
C        -0.34180358877802    0.11381430829324   -2.75677730895862
C        -2.09448540631634    1.73708411559937   -2.27559807096091
C        -1.68433257865442    2.82741456284296   -0.13761048758972
C        -2.56467889452805    2.62281270274912   -1.22410679035020
C        -1.02165610057455    1.99400828528395    2.02947912142648
C        -2.10038598841817    2.47046628473696    1.17635049020336
C        -0.13827528240465   -0.12954820286361    2.96277153408951
C        -1.23040721072259    0.80642350662001    2.79715503222047
C         0.58725697639462   -2.38859718825817    2.50501404735616
C        -0.45106016692887   -1.51548776795861    2.81843781576067
C         1.67198305284157   -3.60882892182869    0.89194946349415
C         1.74854907636060   -3.63186340464287   -0.52979796379041
C         0.41030677358890   -3.39555396571419    1.51282172767402
C         0.38688364820137   -2.53884634642324   -2.25833665330407
C         0.52677572845643   -3.49710610723895   -1.22468248167467
C        -1.39143260320285   -0.88055706267726   -2.68593523527584
C        -0.99108550764199   -2.17315000114888   -2.34483097852513
C        -3.12733724846611    0.80244387158665   -2.52830835882280
C        -2.78583359849522   -0.57030916100337   -2.44575204438699
C        -3.90872553886615    2.40320185688944   -0.99827992829739
C        -4.30579340534835    1.31316335350518   -1.89368377100765
C        -3.47351042467281    2.07835081871759    1.40248327483395
C        -4.41421638670277    2.14300337357151    0.31042154590775
C        -2.53563374816221    0.34735836458339    2.91565569172848
C        -3.68219044121753    1.04927568036101    2.37023494447597
C        -1.77801804695291   -1.94781733418475    2.48191620104008
C        -2.80247604466873   -1.06221561453541    2.84499947648523
C        -0.82673178975481   -3.46395973209368    0.81714085059309
C        -0.74840276715868   -3.59028496988736   -0.57247673801404
C        -1.71574475102011   -2.89709532562956   -1.36720097045048
C        -1.98691817295780   -2.83779742878082    1.38331485204930
C        -3.61185710423265   -1.41779706701916   -1.60841682880163
C        -2.94098768061651   -2.45639155198865   -0.85896506462828
C        -3.14951183574254   -2.62613073150987    0.55641151826966
C        -5.15447883648954    0.49633719284042   -1.20298543628425
C        -5.38861459670036    1.10553978206120    0.12608028753975
C        -4.81173161312891   -0.89272561195475   -1.02791715121658
C        -4.70851724459403    0.08432051854792    2.19716625448194
C        -4.09082705221101   -1.22584521408660    2.33220247087962
C        -4.26027336936070   -1.95521469069953    1.12619405540952
C        -5.46468406743164    0.05445252800515    1.01796394037772
C        -5.13757313415516   -1.20647519261492    0.30407595870138
