70
C70 Isomer 5030 Symmetry C1
C         4.62478680159612    1.64227921447826    0.48614805605867
C         4.71155906060481    0.30870251076722    0.86848586475182
C         4.66835837075108   -0.50526274685149   -0.33771423957102
C         4.27112927242939    1.65563770787939   -0.94914265406098
C         4.23391063795690    0.32411866836031   -1.42009429612984
C         3.13870312022996    2.47566275412958   -1.11122349110419
C         3.72717029273044    2.47721927053591    1.15815489362985
C         2.92070463083743    3.12767188775813    0.14692161562312
C         2.84419616805311    1.97842511886489    2.15801755420600
C         3.79695100482239   -0.25080891371258    1.81953625403975
C         2.84727597474080    0.58733969832449    2.47980376901510
C         3.96251016584181   -1.67582339628616   -0.02624450111432
C         3.38207963291456   -1.52407953346476    1.29492423333145
C         3.21809092702176   -2.27068323884446   -1.02233334763985
C         3.17318518622762   -0.11194997914962   -2.27519288588341
C         2.93102413716137   -1.51303585205340   -2.22518850729960
C         2.00801087799917    2.04068707557112   -1.87133277791910
C         2.04424137930786    0.76770376509921   -2.53849732424761
C         0.72983210958482    2.59351738670977   -1.50900702560259
C         1.62995137838190    3.26382788209976    0.64961960417436
C         1.57039481320221    2.61373873864452    1.93651073482658
C         0.53271142419084    3.15198523458813   -0.20255754672587
C         0.36876405469286    2.08588877452605    2.40401827310076
C         1.61021035244803   -0.00240745173389    2.89626666952479
C         0.45367780937586    0.84274926862646    3.11357656686384
C         2.12174785565622   -2.06411654312575    1.57881472324265
C         1.35855882323731   -1.38260742494466    2.58960589660400
C         2.03759997976853   -3.01616498627140   -0.67259093557802
C         1.43130762627275   -2.87788409682385    0.59256780794173
C         1.72481264203528   -2.02457663328575   -2.72445147570972
C         1.20379135438738   -3.00723479382278   -1.81225825348227
C         0.77748307420875    0.20555932718560   -2.98318380607280
C         0.66189605848368   -1.19186638818452   -3.11489488333464
C        -0.44406682032803    2.17384776089055   -2.19339159732123
C        -0.46463883667515    0.92214970159614   -2.87490968069560
C        -1.66517036287698    2.74715952711764   -1.75338029605802
C        -0.74466365584672    3.06499350607669    0.46365404167813
C        -0.86582013084089    2.49203418642374    1.77097228110252
C        -1.84791843634959    3.11450058671313   -0.36713894246773
C        -2.12461131801765    1.88821436263215    2.12655095424103
C        -0.77484540816614    0.27241262219895    3.45898598285454
C        -2.04633291867728    0.81108784620054    3.03435054405639
C         0.08316725009007   -1.90742162648607    2.84135771523233
C        -0.88510570657369   -1.13369428020336    3.50307427213064
C        -0.01767141405515   -3.02893891369835    0.66061619331111
C        -0.61634588951228   -2.70461630436823    1.87271032717796
C        -0.19533972928969   -2.86722573107799   -1.74363476645207
C        -0.55210792100992   -1.83713601478842   -2.66825293496038
C        -0.86536189385296   -2.96363622513081   -0.51492521965069
C        -1.73341314423876    0.22511008304314   -2.94137571000419
C        -1.74898758334428   -1.16319814796844   -2.55039268132852
C        -2.88404735124357    2.25792042655099   -2.20482747898777
C        -2.93404145443901    0.93727320792005   -2.72485244029125
C        -3.16629008635595    2.73943360645535    0.05628411504315
C        -3.30512300493243    2.00675188167555    1.27044483394748
C        -3.86964779452120    2.37793687001672   -1.12576752683911
C        -4.25323013594851    0.93599985264467    1.24562976126811
C        -2.94444242624384   -0.31017682744182    2.88384798375546
C        -2.19163338042579   -1.50359163482479    3.04526526554450
C        -2.02883278732218   -2.40665220951542    1.96727372140150
C        -3.91605864207215   -0.29690007626332    1.91276774702307
C        -2.21146225724712   -2.44688405754875   -0.47065118944165
C        -2.69925152698997   -1.68580754827657   -1.59061818294070
C        -2.83729067071608   -2.27302819034544    0.81822523748864
C        -3.94547591740050   -1.37625555218606    0.94038431474793
C        -4.04664089703485    0.29546597717425   -2.11470406135851
C        -4.66155409307040    1.23364177389468   -1.15580369698914
C        -4.89143749281865    0.54930793611728    0.03506339007334
C        -3.91280918581628   -0.95683447366522   -1.46585723135783
C        -4.55212397298940   -0.85645620714689   -0.20003961039208
