76
C76 Isomer 13431 Symmetry C1
C         4.38800986177633   -2.17254289569240   -0.14432305416013
C         4.54858316422772   -1.27028966068027   -1.17917466307076
C         4.88374761957001    0.02255448388856   -0.61463235572879
C         4.40087095711205   -1.38637887854569    1.10790348383268
C         4.63561014448505   -0.03181272052769    0.79384064146516
C         3.29359900563320   -1.75854921627882    1.85831598870460
C         3.29345662969356   -3.04577523902891   -0.12433837862879
C         2.77895633569645   -2.96242157020134    1.22609987596167
C         2.34286099497864   -3.05614000656475   -1.18128953502585
C         3.48959708407035   -1.09030710980272   -2.12555356202897
C         2.39640074423708   -1.97182166200661   -2.13819102104907
C         4.21708792801526    0.98110371015755   -1.39317054008875
C         3.27939392125828    0.32097963662132   -2.28782187301079
C         3.83665734385165    2.14061740117733   -0.76156285597541
C         3.83417388751383    0.96104385933867    1.42657650108203
C         3.78408933520282    2.17032408677562    0.68800711902066
C         2.37071438192828   -0.80181050859770    2.40742616025629
C         2.66405761705083    0.59163567332550    2.21511861047159
C         1.02418219890066   -1.23448892951681    2.66897491363715
C         1.51695375019223   -3.35402749310057    1.49420456786842
C         0.67198531361991   -2.57510468951166    2.34841938987127
C         1.07337770757638   -3.66723368004243   -0.88612861970710
C         0.71212859491321   -3.94502396411553    0.45460943165530
C        -0.00209933126863   -3.41877112351799   -1.75647504154900
C         1.16237458949436   -1.42648096026650   -2.66672533385072
C         0.05179352170888   -2.26707232038278   -2.62441451182097
C         2.01537689917633    0.88927494683456   -2.54525279401312
C         0.92520306829655   -0.01390987460954   -2.82630538666388
C         2.71794132713162    2.88060586461089   -1.27493251801873
C         1.75054428034594    2.24553911632285   -2.11289005884910
C         2.83121134114568    3.12890489025141    1.02194707553921
C         2.29270933315228    3.68813238415522   -0.20575604482438
C         1.56819872938921    1.52976107067084    2.38171106379480
C         1.73641121316494    2.83947470086595    1.85246316669079
C        -0.06698629401738   -0.30144073522717    2.79869805379379
C         0.21207572670860    1.09565836540896    2.64078150124547
C        -1.42985348398508   -0.79256697326840    2.73782636960392
C        -0.64225418632132   -2.98147794170597    2.04611898274229
C        -0.62456266670870   -3.85382749294825    0.88900592812276
C        -1.73879713972128   -2.14939427028049    2.31720252949341
C        -1.35299124317273   -3.62001839627583   -1.38585669933065
C        -1.69831833066030   -3.83493374542298   -0.02163447065184
C        -1.26325862517876   -1.79233366491741   -2.82810547298963
C        -2.15589476264758   -2.71662108858643   -2.17891041933810
C        -0.41940343929930    0.49058222878942   -2.90135512059070
C        -1.53882816245981   -0.42130972155554   -2.93185718648111
C         0.39886552075748    2.71711739496576   -2.06150632039533
C        -0.66318279329681    1.88213005423821   -2.58930498694688
C         0.94846493721350    3.97499709387684   -0.01719862707773
C         0.60818812064864    3.56755412738260    1.31672190627788
C         0.04945769973116    3.70732348042805   -1.07304031287269
C        -0.89769207690536    2.00558499776431    2.39086073186131
C        -0.69638440115248    3.21995937005573    1.62589612250462
C        -2.46800798146144    0.13495250020826    2.59105885200469
C        -2.20033614775208    1.51183000902417    2.39408717291669
C        -3.69981055160902   -0.18086352023924    1.91009636406371
C        -2.93851609573088   -2.46989436173215    1.65390393965319
C        -2.91527998258271   -3.29090923303275    0.45994398233333
C        -3.94497142021482   -1.46298962475636    1.45799778153538
C        -3.39161463628149   -2.30536466148351   -1.74001318807719
C        -3.83830022908824   -2.73944921545053   -0.45279998622300
C        -4.49269356333973   -1.62610344892046    0.15436163575901
C        -2.88035831305645   -0.01074120993127   -2.54053903334354
C        -3.76971017714141   -0.92497899261467   -1.91941078660686
C        -4.50355696731284   -0.53257432477560   -0.74640438043195
C        -2.00147421152180    2.28671686274412   -2.37323494274076
C        -3.08524565977568    1.33968657906251   -2.24921601447180
C        -1.28413556563139    3.85720111211105   -0.66303759877724
C        -1.67365922268358    3.66825221235686    0.70254457227596
C        -2.30199501234451    3.34855163985490   -1.48718894862490
C        -3.25717778895500    2.04709848271935    1.54609079724249
C        -4.09293476495374    0.96174022492640    1.13089298302116
C        -4.42957968485808    0.79110968794360   -0.24300599109882
C        -3.92928360935954    1.75185033037948   -1.15981855005189
C        -2.99178444243121    3.09348929190117    0.68131678935842
C        -3.41537786468775    2.97041725497768   -0.67464780047419
