76
C76 Isomer 11699 Symmetry C1
C         5.07858546531140    0.69542224318847    0.10793836957424
C         4.87191022542908    0.77618412518075   -1.26521834104404
C         4.55619365147053   -0.56633269869080   -1.75280869686806
C         4.89709512181837   -0.69315982763829    0.51865824837403
C         4.64197825295223   -1.46422838690875   -0.64934301121314
C         3.98088279943294   -0.70786471623375    1.58324279822283
C         4.34175163095810    1.52334282017293    1.00128446392707
C         3.65533245427179    0.65367826720583    1.93982775234088
C         3.64873322354381    2.59728517191041    0.46370480594945
C         3.90816787110749    1.67753091263874   -1.79482067026307
C         3.41762015696338    2.67424595128961   -0.95719590165816
C         3.37129048175440   -0.47877619489152   -2.49768408219286
C         2.95936668387381    0.90866696563713   -2.56358455200627
C         2.38251596633097   -1.50177440833427   -2.43615155311830
C         3.67880565292017   -2.45657997429349   -0.55724883200861
C         2.68491452563047   -2.57768858811092   -1.58187541263194
C         2.98556182252713   -1.72653730572800    1.69820590421072
C         2.99898478157008   -2.70287847959011    0.68241937550484
C         1.74685296213710   -1.44279084617664    2.39293347449237
C         2.40671264752776    0.96669034824992    2.47049835866848
C         1.47602721221546   -0.10363857206993    2.80831944695202
C         2.45463946222947    3.03084014267175    1.12042276284547
C         1.88550808358797    2.29193248773202    2.18239169497297
C         2.07928047396129    3.12376423861431   -1.14403074786248
C         1.58290186698283    3.56428414306441    0.12971852529884
C         1.60439081920526    1.23833731768168   -2.62937562449007
C         1.17977007934926    2.47133975303282   -2.00385235430387
C         0.99583274759003   -1.17985284143305   -2.71072847982594
C         0.61713954820567    0.19196911909440   -2.85207622253567
C        -0.01775033973204   -2.17004261434355   -2.43983630641020
C         1.60557502429876   -3.32328502949598   -1.02819367888253
C         1.78961989525393   -3.39897685202376    0.37038990049058
C         0.32738725853647   -3.27990568670180   -1.58608952133720
C         0.65336906752198   -2.39627422819799    2.28172505284032
C         0.69092424067312   -3.40519299355654    1.24046705124127
C        -0.62073417941467   -2.04364470001993    2.73270842874701
C         0.12431398673401    0.25998240877156    3.14845818799408
C        -0.90205058353188   -0.70159810717781    3.11607185240872
C         0.53857712319478    2.57764408234688    2.45277472408585
C        -0.33511197436356    1.58555240938822    3.01866124596353
C         0.22369676673430    3.74276916868783    0.34493803281049
C        -0.24170484968753    3.43323266424977    1.64492935676719
C        -0.21404745610985    2.76758511471853   -1.87139450291288
C        -0.66076076208991    3.57341465482464   -0.77179726948372
C        -0.76470633766769    0.56356925905999   -2.89588528320042
C        -1.14751032174627    1.93233572532058   -2.57636879479001
C        -1.39482726248260   -1.82713282591147   -2.58441100219157
C        -1.75920923535310   -0.47338229540684   -2.88717579025407
C        -2.37138735201601   -2.66722526521568   -1.94633722655768
C        -0.64400923224732   -3.89330675713292   -0.76218025684372
C        -0.49491639111350   -3.89705305971264    0.67002657126880
C        -1.99244677921701   -3.66907914226838   -1.05822896263208
C        -1.84282704300761   -2.60434889443052    2.21364963387890
C        -1.78477622151106   -3.58785755247339    1.23240433816994
C        -2.73552366956802   -3.52001240598706    0.19447082233480
C        -2.24436601765161   -0.39879254504882    2.74722670830631
C        -2.81939190688875   -1.56437691853933    2.13147683666861
C        -1.67432989200136    1.89124507252205    2.66517216238804
C        -1.61472743172971    3.07294281668526    1.84987164232845
C        -2.64887962870299    0.89696707355258    2.39964317950509
C        -2.04192090070795    3.61498139273144   -0.47512676587197
C        -2.52745285656343    3.25247866997470    0.85492541281253
C        -2.51887429888432    2.25781683199740   -2.44423817195722
C        -2.94687160913683    3.12090513771239   -1.39477587180647
C        -3.12043288827589   -0.09738631970446   -2.66130793756472
C        -3.48912644804643    1.22557483504225   -2.52433614686379
C        -3.55140669814013   -2.07845261862201   -1.34179191471200
C        -3.63166565560622   -2.45705418501585    0.06015753247848
C        -3.70520790974073   -1.41913404096616    1.04071889430385
C        -3.92963801654909   -0.84297107531992   -1.70658217857555
C        -3.65366646731488    1.08721227497514    1.36400527792142
C        -3.64795092050525    2.34566308249726    0.70504455186662
C        -4.02690481819797    2.45562078933721   -0.65648304547904
C        -4.39360241651120    1.33496101287194   -1.36390658001495
C        -4.12788330268488   -0.08246378447617    0.63894835063127
C        -4.47560995910635    0.08208425321569   -0.72799003918211
