76
C76 Isomer 6820 Symmetry C1
C         4.73278599220587   -1.80716621444652    0.68232050955917
C         4.50547865243789   -1.75632077158785   -0.72634407546831
C         3.38437690870919   -2.58605760153674   -1.04935327580352
C         3.70439534470448   -2.56752936431278    1.26220576131901
C         2.90758775923094   -3.12689501833251    0.19842889470011
C         3.03379965270064   -1.75198007777780    2.23145728821472
C         4.62161800997463   -0.45299655455511    1.18640014954454
C         3.60471230284286   -0.42591378940283    2.17670815314677
C         4.48967266741791   -0.38498883190750   -1.10932473554976
C         4.52959526573212    0.44704470758794    0.10597313181806
C         3.62763726328295   -0.01818708616776   -2.12332893429980
C         2.42376674868962   -2.16578448134927   -1.99988313507443
C         2.64725226314397   -0.91882084384165   -2.63740876012488
C         1.06364677835562   -2.60666524614099   -1.88473533673490
C         1.55516566980522   -3.34510866812539    0.40557988271960
C         0.66033375166701   -3.33457889568991   -0.72638527286578
C         1.66745855390281   -1.93558983029015    2.45960320023076
C         1.00079879191069   -2.95713709955514    1.68578136459143
C         0.90612960854825   -0.84234599896322    2.99470010801681
C         2.77930826554607    0.69575201354590    2.31661891264666
C         1.49189542481690    0.47318421347918    2.93949729295568
C         3.73367785523066    1.59803301719557    0.22292528034733
C         2.96877377808305    1.81410508212588    1.42808645161527
C         3.07855946030800    1.31189262105605   -2.13834593001474
C         3.20627892860184    2.16039059598608   -1.01123739125893
C         1.55539094207950   -0.11345845157759   -3.08140167808383
C         1.86008158488971    1.26313955225961   -2.85750323646292
C         0.03159236289380   -1.91834420707111   -2.64073436576647
C         0.23363923867087   -0.55378755173499   -3.09475680890128
C        -1.27177745084665   -2.35930191332844   -2.52548225664528
C        -0.72654803521021   -3.61283775511777   -0.49338165461743
C        -1.65269524962923   -3.31669066918661   -1.52143417992886
C        -0.36347909372316   -3.08115247859928    1.85615757262630
C        -1.22603319618026   -3.59582262609822    0.82641854977324
C        -0.51660557882581   -0.99205370713029    3.13227641378170
C        -1.10371083095300   -2.18633019157009    2.67360240012474
C        -1.37631278966056    0.16134555858375    3.21065723840835
C         0.63876972836903    1.57411105102198    3.02352593408483
C        -0.78157270432332    1.42713576157931    3.15190539055088
C         2.01811673823368    2.89240445838267    1.46785603053212
C         0.91474352989930    2.79910788308083    2.35297493504672
C         2.29471266781460    3.20582371157512   -0.95256768465767
C         1.83460576559128    3.71278373405726    0.32493594970154
C         0.83930916557086    2.21715102400324   -2.69684519613018
C         1.21181264681217    3.32384991721544   -1.89052964935588
C        -0.83238058910162    0.41690751810442   -3.06320587517033
C        -0.53141022593880    1.80572082553151   -2.80345503645087
C        -2.38728832566512   -1.47479686599368   -2.76416987867048
C        -2.17516404393764   -0.07456566416912   -2.88380276353160
C        -3.00595746164765   -3.09340725536552   -1.22487328163033
C        -3.47301489635415   -1.97425491474807   -2.02556153723402
C        -2.55702921184053   -3.17709744793798    1.12846275847779
C        -2.47667776030620   -2.27217931680690    2.24810800128965
C        -3.46690519851195   -2.92041012514751    0.09740188280273
C        -2.71523311454753    0.08831181992787    2.75498158949775
C        -3.27407408668875   -1.14766149236592    2.28217115389899
C        -3.29502060486740    1.15481133200589    2.01673490957892
C        -1.40134098661927    2.53149421344183    2.51221433460514
C        -0.35774538194907    3.41009670777883    2.06801839236276
C        -2.60576922624232    2.36485592663633    1.79251190652846
C         0.60739367502315    4.36049989623657    0.09815828327535
C         0.21437767060972    4.08411270463824   -1.25861499434779
C        -0.53200696204114    4.14294730337321    0.90549527775361
C        -1.52521559358281    2.61452749258512   -2.13715084219623
C        -2.69349402478941    2.97796418336586    0.48105557862048
C        -1.13685901894623    3.69077106359270   -1.29662682556314
C        -1.65362963330173    3.80833806293850    0.04092202230450
C        -3.14849613495876    0.74767034534841   -2.27269041357205
C        -2.75980171066248    2.03986112506310   -1.79313372079252
C        -3.37196555529203    2.26396370391933   -0.53586614700715
C        -4.27470984594399   -1.14728837719454   -1.21409987372678
C        -4.28509622697791   -1.71652772052718    0.12313294221587
C        -4.18794143882145   -0.86009946788308    1.20434862964927
C        -4.16949708210607    0.57398402534900    1.02108845352357
C        -4.14385369309989    0.22952364962254   -1.38730852029794
C        -4.18593845021275    1.10951777134195   -0.24985964450514
