52
C52 Isomer 344 Symmetry C1
C        -3.81252406887139    0.55350096701943   -0.26466772742258
C        -3.44837749085714   -0.36113002704276   -1.22889478749723
C        -2.51756994465797    0.28928864896769   -2.15908639274685
C        -3.18784352998632    1.83517847598593   -0.62728802774702
C        -2.28078944412882    1.62025904787811   -1.72341090736360
C        -2.70420299440444    2.40003605377758    0.53362502903399
C        -3.50361759081543    0.27846314858246    1.11764874793583
C        -2.86632984110179    1.43686927935176    1.62878053339760
C        -2.91816885223590   -0.95009866754490    1.45217102548422
C        -2.92644687797002   -1.64500899368425   -0.90227809449557
C        -2.75303598057739   -1.97860130717240    0.44614758795087
C        -1.48656071237625   -0.60060588419821   -2.44527778782531
C        -1.81166952129313   -1.86994843307285   -1.80279247511575
C        -0.14424291966649   -0.13877350700889   -2.54759685830776
C        -0.95060871218008    2.10407881616988   -1.68701724634418
C         0.08480679351936    1.27405630702059   -2.29699261140624
C        -1.40902853349362    2.95361603378142    0.59248974525562
C        -0.58292401819919    2.96124112206423   -0.55997064724846
C        -1.65941106780144    1.39570040320477    2.34043260562133
C        -0.83958774596350    2.47800341254659    1.84968209349171
C        -1.76064017586398   -1.00529888682788    2.31732467264968
C        -1.04640670076060    0.15492531624229    2.70445656718172
C        -1.64457582588721   -2.80683302668407    0.83255316921853
C        -1.05977984259547   -2.22906305048024    2.03132666324787
C        -0.81142713496132   -2.73316586470930   -1.45694442166575
C        -0.80637035069604   -3.35241126286072   -0.13921833622128
C         0.89319430208288   -1.12789319594930   -2.32950160554569
C         0.55655560500048   -2.41911388773714   -1.81936151193249
C         2.19287885300494   -0.65947015347037   -1.98228947996680
C         1.43501007633146    1.67999291523117   -2.09804941580304
C         2.45445407379075    0.70408217370054   -2.00393678288240
C         0.80011696991651    3.19575566985312   -0.29324182823481
C         1.77492884020824    2.71762110357430   -1.17318109325417
C         0.52021767543803    2.45589795438879    2.03107748203787
C         1.32367013383997    3.08241315076833    1.04707695114360
C         0.41331660238793    0.10035227190548    2.79090496421535
C         1.18657781732794    1.25420157079314    2.49942957528868
C         0.30073332734463   -2.33241265243961    2.27444551605240
C         1.06287008044231   -1.13731654012344    2.58849468493616
C         0.55764193134849   -3.57741423026782    0.18315785242283
C         1.38982450633731   -3.06891908402160   -0.88342815714762
C         1.09564281981953   -3.13957059855726    1.40474512918671
C         2.92983836806062   -1.21840720721989   -0.84914087678022
C         2.30698300895546   -1.21028593209300    1.87165878174483
C         2.50767579174472   -2.40086899384627   -0.28119676769170
C         2.31338576540903   -2.42687994002411    1.13867212108936
C         3.30594420659679    1.02980508263034   -0.84163243740017
C         2.92000008866875    2.26254513986698   -0.36104962838079
C         2.56065673855351    2.37698076084738    1.00171445905174
C         2.45316639630477    1.20044978162415    1.82215782991917
C         3.38888851525946   -0.12391360547164   -0.01997907148570
C         2.94716058965105   -0.04990967526850    1.34025119035553
