56
C56 Isomer 259 Symmetry C1
C         4.43087001771870   -0.69793672242229    0.22887021464839
C         4.25483489145118    0.70792116947851   -0.04892703303485
C         3.76291973104176    0.81287842958230   -1.34953078504464
C         3.85839072546798   -1.46729947364152   -0.87286793417805
C         3.47016959179276   -0.54332568020007   -1.84654771407886
C         2.87337715275719   -2.36317912159628   -0.36722348724230
C         3.65413998541098   -0.99167800097837    1.35864730707389
C         2.83836489838557   -2.13704484107909    1.07484661266430
C         3.46122285172835    1.27588506089906    1.02664380436249
C         3.03001867402368    0.20503227510020    1.88656845193153
C         2.52657377105482    2.24711019288366    0.71333068126614
C         2.64013349567655    1.63082653326013   -1.64907945223457
C         2.17602552099899    2.51057395623808   -0.66496416121748
C         2.14656045220218   -0.52963094321216   -2.34317731090803
C         1.65543885601237    0.82949699082549   -2.33093378603219
C         1.63481701429390   -2.52261900658516   -1.02697331517884
C         1.24242166365262   -1.56763689580033   -2.03986450504680
C         0.56304791898391   -3.12010047271908   -0.25630882253267
C         1.64436950367219   -2.23122476822274    1.74397247453083
C         0.56852082390932   -2.96014670883911    1.14859485467430
C         1.69938501975305    0.15569257462831    2.39004741799437
C         1.08110243823991   -1.11717385745551    2.46574198662011
C         1.29941514289245    2.34823969915777    1.46027658530563
C         0.80160200489798    1.28364409649477    2.23494938045293
C         0.82261903057718    2.93780210880713   -0.71728067276798
C         0.38788708015364    3.09892835186641    0.64524182597442
C         0.28045154125558    1.13282265247190   -2.29335652660129
C        -0.10481652795788    2.37196176707267   -1.63497983832934
C        -0.15656055789365   -1.29985424441670   -2.29935172650257
C        -0.66568546569321    0.05836462104609   -2.43410223908970
C        -0.69534772389818   -3.24248432459216   -0.86770694535691
C        -1.05082160418089   -2.33319671807359   -1.97383980918461
C        -1.85005515595299   -3.39269476806305   -0.07428934299800
C        -0.63038360485052   -2.55026830183040    1.81328433456974
C        -0.33663478162431   -1.28547211959863    2.45824174904762
C        -1.85117118163191   -2.80097086277594    1.23317106764400
C        -0.65333362092167    1.11747120216574    2.34569720854366
C        -1.24344529830464   -0.21304615883658    2.39962796850047
C        -0.94126919210551    3.13648821595643    0.95713376074176
C        -1.47463760720181    2.16691370295593    1.88769240955184
C        -1.46718088995741    2.59374408229520   -1.36016863411790
C        -1.85942030679231    3.22392778427763   -0.14297298700641
C        -2.07738103073078    0.32342279711375   -2.20257546373981
C        -2.46769646807468    1.60076374451790   -1.68988570559106
C        -2.43866854952540   -2.08851015507703   -1.90539794023013
C        -2.95375283190580   -2.80494593408442   -0.78079492507372
C        -2.95003268919283   -0.75391426055207   -1.89842128000315
C        -2.86698546255527   -1.76134049333452    1.27753265528902
C        -2.57640054994451   -0.48406512997093    1.84639484399853
C        -3.58933265307159   -1.84731120981367    0.04995266863015
C        -3.80936093273951   -0.66436424491048   -0.72889534724157
C        -2.82320061401407    1.91592938622591    1.45294184077996
C        -3.09760660508503    2.66222767118835    0.26386972986469
C        -3.50823466208626    1.70612352586608   -0.71998514867454
C        -3.32641069643978    0.59841359306917    1.31932145535107
C        -3.88985253367238    0.51682923323735   -0.03019045077392
