72
C72 Isomer 8133 Symmetry C1
C         3.98297141894610   -1.55228816199998    1.73565188037402
C         4.31701923461654   -1.88634271817769    0.42505376284618
C         4.86623499662314   -0.69434843141599   -0.21761392493080
C         4.25075492464940   -0.12710311061725    1.91420135885182
C         4.83484848248660    0.38553494542624    0.71860519070883
C         3.09098665953613    0.44255555539707    2.45478044536725
C         2.69449745773716   -1.83399054259846    2.22280913247418
C         2.13982108032534   -0.60930792564458    2.75023378016810
C         1.83244123657805   -2.67244257520598    1.49973811384317
C         3.34081448668313   -2.46316995172218   -0.41752235584361
C         2.15447177754526   -2.97523755554242    0.13353429180491
C         4.23405642549243   -0.57738732032510   -1.47073510366940
C         3.26699803890922   -1.64209964286716   -1.61667845824619
C         3.89787728253800    0.70012950971552   -1.94608629174610
C         4.40032993524838    1.64542959782920    0.27437560889679
C         4.15567086927092    1.81232841157732   -1.12029740505548
C         2.59587834981749    1.69240110247836    1.98691477735076
C         3.33171168286277    2.32745959504715    0.96625862479006
C         1.18486507713181    1.96315050862088    2.15384614761245
C         0.77163298644004   -0.38385200864958    2.79494336500875
C         0.28216046049009    0.97245263973615    2.64968691670550
C         0.45971129118325   -2.64596699940174    1.90164895987381
C        -0.11163349871445   -1.51047047215837    2.56754765164962
C        -0.37407063563936   -3.49987445732199    1.15457390626378
C         1.06802613784617   -3.18518587476077   -0.79033811056427
C        -0.10509497097283   -3.70201635179710   -0.25604728077688
C         2.04898183259938   -1.44068175696786   -2.26876708300209
C         0.99761743349863   -2.38429681067214   -1.98684696417260
C         2.62502326222048    0.90967954856066   -2.60848369598104
C         1.69775961358806   -0.11983920636876   -2.77262290593743
C         3.06096726762681    2.73564566951207   -1.29591475248037
C         2.58483113146151    3.07529012685320   -0.02978227251832
C         2.13995488867198    2.20946471222681   -2.24962691420459
C         0.62410512748145    3.04679522218343    1.38880663641429
C         1.23415848540622    3.38495310450440    0.13400595198910
C        -0.73330808631600    3.31028487975187    1.51858627118426
C        -1.14823166041650    1.17330897735358    2.62209987341298
C        -1.62208778739647    2.42760195678928    2.21251803697367
C        -1.52718014800481   -1.30761240711803    2.55316047834463
C        -2.06921602458326    0.03626113214438    2.60679296107412
C        -1.74986451368213   -3.41334610652712    1.31432833338979
C        -2.34030480666812   -2.33705800223348    1.99673589902740
C        -1.36943312301574   -3.62494264114672   -0.94862051463896
C        -2.40135117446900   -3.56259260173614    0.01320749175420
C        -0.26566200642314   -2.13623987815500   -2.52733866578575
C        -1.45119990161496   -2.77352313985192   -2.05455203938516
C         0.30614798060135    0.24928640063590   -2.92628229059394
C        -0.62938973907653   -0.80955938566184   -2.95252300818120
C         0.78011022176315    2.50166747729134   -2.12846204273749
C         0.40323640308557    3.36283341513761   -1.04205671713829
C        -0.18702503442567    1.55275985555379   -2.62405876859023
C        -1.44852552123279    3.84788722040278    0.41467990972229
C        -0.95746423287462    3.60187078082367   -0.86911267797961
C        -2.93743836062839    2.59041875175609    1.62599118257269
C        -2.81643115992344    3.39141318769565    0.47487756028867
C        -3.38911325167116    0.24276041439504    2.15837059220322
C        -3.80302384734321    1.49789687183317    1.58647970911290
C        -3.53521861615908   -2.02320588596728    1.25752285753427
C        -3.44862052333252   -2.64303679645378   -0.06067163912777
C        -4.07991687984296   -0.77953808758595    1.38982539993404
C        -2.54074120377129   -1.85257485321154   -2.16913309127512
C        -2.00735460217971   -0.63049050541283   -2.73288980137187
C        -3.57888196248458   -1.79987176258451   -1.21759463418178
C        -1.60326124468945    1.76138451321432   -2.36900610704534
C        -1.98036811605229    2.88212383452060   -1.61406201308500
C        -3.17107269240099    2.87358170423167   -0.80502942683601
C        -2.54083775835744    0.64639207500470   -2.43589375542368
C        -4.51812556714641    1.25452116586514    0.38626014428825
C        -4.66382996034539   -0.16447314663724    0.23979408580540
C        -4.20977828328384   -0.53895715324741   -1.03767568131522
C        -4.03832489166125    1.78200745108255   -0.84560958919339
C        -3.74329215416226    0.67039191259429   -1.70351130660113
