68
C68 Isomer 1019 Symmetry C1
C         4.92098028852508   -0.34935014619637    1.66498909876377
C         4.99986825681350   -0.98227582054505    0.36135052959406
C         5.15611210660647    0.05883576405280   -0.58381810566819
C         4.69657916183217    1.06560950406110    1.45351528329607
C         4.90909754250744    1.35266570023049    0.11438732572601
C         3.42766288185256    1.42960729835538    2.05381567973095
C         3.77043251958843   -0.83337779910457    2.30264175442879
C         2.88218295514621    0.24897336886587    2.64389459169097
C         3.89759925785559   -1.88105970755888    0.21929551926014
C         3.19697382630891   -1.86789783739117    1.49857861162366
C         3.08415214132604   -1.88072243878146   -0.95911636590139
C         4.37410893006654    0.06711804458543   -1.72683684801959
C         3.36694644278719   -0.90786683121973   -1.96090592508094
C         3.92341655859767    2.08008796595633   -0.62340325538027
C         3.71535484626972    1.37501670536775   -1.83004841779045
C         2.52067150414682    2.27765968991394    1.39008989442398
C         2.76295798853841    2.61935077073909    0.01016826989674
C         1.16066546297388    2.24737977100885    1.88501582237830
C         1.49446711595338    0.01311090428519    2.73172327606253
C         0.60213317324021    1.11870784467043    2.57797150416600
C         1.84408403101499   -2.11296885949096    1.59303009143684
C         0.99092461678185   -1.28400697637817    2.42239808685265
C         1.72512065395623   -2.33885479540461   -0.86271266573273
C         1.22237837226265   -2.70088034904027    0.43496755748507
C         0.71208966539154   -1.95044118207591   -1.80261433598851
C         2.23572768554714   -0.21511361518300   -2.52564621873788
C         2.43975294381347    1.19632833535656   -2.38885591818046
C         0.94102070443297   -0.71659329839671   -2.49909343010853
C         1.60446555278306    2.81181500965213   -0.82473067551921
C         1.36723285189280    2.02525984688312   -1.99833931820765
C         0.25683247814024    3.05577336487403    1.19913885488569
C         0.45244317132180    3.27613572486150   -0.19193472853899
C        -1.13971927018969    3.02417389185871    1.46165206238244
C        -0.81778894356127    0.91134983710073    2.64049470083572
C        -1.69086112592419    2.00484902871766    2.27155791022973
C        -0.41192013829083   -1.49572152530864    2.42520579428870
C        -1.34768312366641   -0.42390014584512    2.64479997166328
C        -0.08711173048938   -3.08198457276921    0.59350779332273
C        -0.85564655723476   -2.65737922434584    1.73439811400984
C        -0.63951392225630   -2.41011487487155   -1.66864689523991
C        -0.98227500965147   -3.19145198530085   -0.53174482603515
C        -1.69489883656521   -1.65888490111208   -2.24275059411678
C        -0.14349248582862    0.22333566979376   -2.66957372086547
C         0.03649966151452    1.60127907482213   -2.33203650705120
C        -1.44429210783382   -0.30027024297277   -2.65403238608286
C        -0.83397973618105    3.24610348699282   -0.80597776194597
C        -1.80357091103751    3.40377283947075    0.24714414992585
C        -1.10159991302615    2.34495599060047   -1.84845118271996
C        -3.12190025394700    3.08582006690691    0.04999045070625
C        -3.08219145238520    1.80140289758035    2.13137667949358
C        -3.81454011338973    2.53020910370697    1.16786567992581
C        -2.76426994941414   -0.64266098294515    2.35341184564622
C        -3.63531921702835    0.44920113562031    2.19218032047271
C        -2.20002907991562   -2.80859564509092    1.38898329216059
C        -2.28441538356429   -3.17916578722648   -0.02273407174187
C        -3.16336873409780   -1.83879506725638    1.66303434357554
C        -3.03648346328151   -1.70467330488216   -1.75664247468100
C        -3.33031697504219   -2.43207412252962   -0.59792187049717
C        -4.02834996866288   -1.76130985394422    0.48825072134301
C        -2.59657621043249    0.49113951346456   -2.41963273701125
C        -2.45927227612268    1.83172463806354   -1.96997096346710
C        -3.49520236535287    2.33548258203923   -1.14360852577509
C        -3.62465135778393   -0.38950771845014   -1.91954964262854
C        -4.81136821009005    1.64510743675325    0.63636740869689
C        -4.73417538142765    0.38080568357370    1.27977864022983
C        -4.74349554059198   -0.61637879264663    0.25257102838942
C        -4.57875554205694    1.48398203591472   -0.75831214049657
C        -4.57790006346555    0.08114787756403   -1.03590014978968
