80
C80 Isomer 23181 Symmetry C1
C         5.06253583228015   -0.86611079458375    0.60309037669360
C         4.84201601809631   -1.26494907367577   -0.70692029457159
C         4.72909857798041   -0.07401040461354   -1.54332734348599
C         5.08878858696246    0.59006330785827    0.63115143378008
C         4.90201235359013    1.06536907363097   -0.70728183835490
C         4.22585130969355    1.00058572845742    1.65332509546960
C         4.19455572932377   -1.33245243090659    1.62669937651658
C         3.70830949267365   -0.17864769995540    2.32062049273557
C         3.32260157298865   -2.42282085837153    1.36126392824049
C         3.77840089699633   -2.15555972709011   -1.02108110613696
C         3.08558845368892   -2.84094814840078   -0.00728821808376
C         3.56334369665998   -0.21390436987796   -2.31089877009714
C         3.03952243882671   -1.53458489902615   -2.09144884186435
C         2.63705042733169    0.85273550703627   -2.49838918770486
C         4.03639086757313    2.12979599811741   -0.89018033731522
C         2.99803954441593    2.07227687445328   -1.89489218138639
C         3.38295657392529    2.13161057432839    1.50327744353885
C         3.45233866733984    2.78250035915714    0.24983575489324
C         2.13939552718885    2.19071058445510    2.26877174618799
C         2.43944076612564   -0.16237358189609    2.92513039830119
C         1.61293733713040    1.01925972758656    2.94239404321848
C         2.23503676345612   -2.51771489602055    2.23570994124116
C         1.81267639764756   -1.41772299542951    3.02779546570706
C         1.08532751652607   -3.31000690391258    1.93226103185898
C         1.81960010418309   -3.40445209552157   -0.37767024761106
C         0.92355864154645   -3.87771208001737    0.64827368775963
C         1.70615383025069   -1.81854180511551   -2.29772640431958
C         1.22912312870956   -2.99308218492841   -1.61641872751931
C         1.23743267543107    0.56645514428380   -2.72764405128888
C         0.78775169132340   -0.78607772193831   -2.74505027960139
C         0.25321693290499    1.61270057905406   -2.57339342965179
C         1.97914710000924    2.99631884004078   -1.53730584189951
C         2.31024108091231    3.49152359665763   -0.23787553221843
C         0.64223896196203    2.83783301821502   -1.92557963655200
C         1.23355590947758    3.18932723611813    1.91745562853666
C         1.31171147931953    3.84046197104142    0.63678078583376
C        -0.14869988599502    3.12268170070584    2.24790903845989
C         0.20457104778951    0.88873056994984    3.18696574173446
C        -0.67090147654381    1.99470133046838    2.90238696326293
C         0.41083993765114   -1.53851607197493    3.22098347562507
C        -0.02419023836684   -2.77682497874050    2.62723499012014
C        -0.41578200717005   -0.42480784713564    3.29466759282022
C        -1.34858539193568   -2.96626239139383    2.20082569679800
C        -0.39310889100539   -4.24976956416271    0.32371508176705
C        -1.52243530510054   -3.85870507499749    1.12133976876629
C        -0.08536435120440   -3.35941855060717   -1.90640051959574
C        -0.79997775762239   -4.18502870042793   -1.03828304943548
C        -0.61696563129594   -1.09037714615957   -2.77699541294992
C        -1.01315992990678   -2.40967855753575   -2.50851976784713
C        -1.14510847533778    1.30655242073060   -2.68258178907832
C        -1.61993179296194   -0.05252925921614   -2.73161129588165
C        -2.06394336268927    2.31754055397147   -2.29819680104774
C        -0.32875004283722    3.59914108337656   -1.16386322138503
C         0.00054601614001    4.03922090633532    0.14724567975137
C        -0.90513707777015    3.77617116794954    1.22414001634571
C        -1.67271216992978    3.37014863192287   -1.41080721678197
C        -2.25777180568403    3.49282385243276    0.99358536515392
C        -2.68177376276632    3.50067508062481   -0.37172209825739
C        -2.06229573611629    1.79127814564990    2.76355133411036
C        -2.87551585530760    2.57389632175931    1.87866828167666
C        -1.82748938186569   -0.64850149000101    3.02765923198162
C        -2.29433587919819   -1.90129266313718    2.46808068805150
C        -2.63374046182677    0.48809239527673    2.87304278122538
C        -3.47217421112263   -1.87795337434065    1.69130930649546
C        -2.63402206715653   -3.65401293408084    0.22068162418854
C        -2.18140130849950   -3.79867413578148   -1.10277595888513
C        -2.31431434905771   -2.71658750280952   -2.01455526813512
C        -3.55668204144819   -2.65408973114098    0.47953961181573
C        -2.95337365185508   -0.38139516796457   -2.29116383463065
C        -3.25096785404269   -1.69145463788124   -1.76809302222329
C        -4.01394345316737   -1.80193086680108   -0.57373157022297
C        -3.38610838683803    1.98430555429298   -1.95860347223475
C        -3.76565685179049    2.71554465084773   -0.75636661337197
C        -3.80644219276324    0.66519087557740   -1.84799056349681
C        -3.97828931510473    1.75946893751897    1.45251601961097
C        -3.84031462076026    0.48470556061964    2.10213121378146
C        -4.20552659681338   -0.68045207826657    1.46083083401814
C        -4.55311253202709   -0.63259752030099    0.05731574288420
C        -4.40547945283984    1.80552951528639    0.12200219283837
C        -4.56941833030755    0.56260554035052   -0.60953115867216
