68
C68 Isomer 702 Symmetry C1
C         5.37148743060766    0.00194092953099    0.74169819344624
C         4.76917365056154   -1.29123913454132    0.75804233241775
C         4.52691061275817   -1.69106998705907   -0.57160091535554
C         5.29670631041453    0.50165261974475   -0.62625988626336
C         4.77772776796866   -0.52528073804092   -1.44068649065780
C         4.58738523623706    1.72489239087423   -0.60561348555107
C         4.54056299537036    0.84316032671801    1.54824170275541
C         4.18482875582618    1.97185285323369    0.79640242083060
C         3.63739183892968   -1.27767020581787    1.65460407615024
C         3.46742610641325    0.06386453737042    2.13842776105076
C         2.49122746927893   -2.03919896549241    1.36492445861914
C         3.29788909348200   -2.25733915780235   -0.92506371041472
C         2.35193037619863   -2.63252476518869    0.06520022194027
C         3.61119462374350   -0.34120321842529   -2.21628473953508
C         2.77471516941345   -1.50925095994319   -2.04134076176095
C         3.44571528450134    1.92848489479505   -1.39936216018446
C         2.91939223271960    0.90713197992571   -2.25856366161221
C         2.86207751209319    2.43009923092453    0.81052022304630
C         2.46401298121284    2.58956069434064   -0.55592975598587
C         2.16657546773507    0.60462921262615    2.29182018659317
C         1.87840263798568    1.87210457751482    1.67727787989287
C         1.28156536263788   -1.65841222753159    2.04556028353082
C         1.06270195502282   -0.31287300386311    2.45796132295135
C         0.15063681042954   -2.43416168867285    1.77976413196012
C         1.05278394071288   -2.97155907222509   -0.41108214768006
C         0.06385091748599   -3.17584541274890    0.56115777238334
C         1.42070166406835   -1.51929684567247   -2.35416164824932
C         0.60847227948696   -2.52153638926327   -1.70687025223204
C         1.51299765773207    0.90614672513078   -2.55692737457763
C         0.79514150871878   -0.31049673637518   -2.81268912524976
C         1.13700702928039    2.66659520020435   -0.89977065013345
C         0.70150779968080    2.00120449627387   -2.09559490933310
C         0.52965250800648    2.20921001139031    1.40721585915675
C         0.17889116936898    2.80996542618138    0.16478677568175
C        -0.28177498631783    0.17463951741917    2.56106457701014
C        -0.51121432778312    1.52802559543982    2.14061617712725
C        -1.15809390814315   -2.04150956718692    2.16925965855001
C        -1.42184634568581   -0.71566285575079    2.56728326419850
C        -1.31933916525694   -3.30296101704450    0.23559890871677
C        -2.08742514103825   -2.74314709328082    1.32598921383577
C        -0.75739248438159   -2.54175459420017   -1.98567682814631
C        -1.72334474259459   -3.06385193189295   -1.06543617534303
C        -0.63460236663160   -0.30631757045597   -2.97975436438095
C        -1.38946193406481   -1.46350548776292   -2.68214200032749
C        -0.66637986661809    2.01658166484268   -2.34232268161808
C        -1.34733100906734    0.90862022857454   -2.89251000770124
C        -1.18401005004933    2.99871224630536   -0.17892164760937
C        -1.59942334514139    2.71689473774480   -1.49451484513260
C        -1.81582400267020    1.97393983238428    1.97340261852208
C        -2.14995959211754    2.84682068393651    0.85718211534420
C        -2.78872455933235   -0.23138115474717    2.43795830438911
C        -2.96215182964519    1.17448098844558    2.28249207798839
C        -3.34521936843725   -2.25142525590462    1.11531766608281
C        -3.77755845020193   -1.06569716809094    1.82409599974232
C        -2.98375909629129   -2.40919309423365   -1.30904024955472
C        -2.77578600628066   -1.39631780685783   -2.29928199293520
C        -3.86436504215392   -2.19144279232475   -0.24450204352252
C        -2.74102313335375    0.99810095157717   -2.52740191831827
C        -2.90549569862409    2.19532086464566   -1.75400543733859
C        -3.49264133252457   -0.16690903253213   -2.24124309075495
C        -3.49165888499837    2.67155792920131    0.55633637691351
C        -4.04271377309386    1.71041736134184    1.52029827547436
C        -3.89802845556958    2.26739296657478   -0.75780337478764
C        -4.80877494902348   -0.49790708006858    1.02213702049826
C        -4.72736641570956   -1.08752509769883   -0.30035575779389
C        -4.55874267440881   -0.04761695256335   -1.27512014256671
C        -4.92018538881788    0.88204428828198    0.84170706592489
C        -4.78802583005512    1.17603809776530   -0.60851069011730
