78
C78 Isomer 8565 Symmetry C1
C         4.58808275531412   -2.30401774725212    0.41919739299639
C         4.67124703726256   -1.03878243890839   -0.24254752217245
C         3.95201662852187   -1.10361735467557   -1.47055623909691
C         3.72593529168968   -3.12129464251179   -0.34078645886298
C         3.31544968291897   -2.40980608143681   -1.51275573139426
C         2.67816451037236   -3.61074256683363    0.50531695630928
C         3.92276303985297   -2.07494748871613    1.67288218882942
C         2.79855094774646   -2.93457223933174    1.77520578454130
C         4.25744491872926   -0.03519146784642    0.66932758713548
C         3.69906973067227   -0.69155909871457    1.85477721995020
C         3.66614886055501    1.13141677366740    0.20934556755706
C         3.28443409197763    0.05173773037603   -1.93333943164116
C         3.27549403670362    1.26599137573983   -1.15649799672085
C         2.14538698279215   -0.17324744423775   -2.72130527343625
C         1.99558794878998   -2.54941513469485   -2.00282947763583
C         1.51120367578334   -1.45805929695787   -2.74807256954615
C         1.40800357786768   -3.88101647891238   -0.03058789830332
C         1.00993678582026   -3.37435267975032   -1.33089292324060
C         0.41306896771930   -3.99724415868272    0.95123300336135
C         1.63934603817979   -2.47814277569170    2.44314927250519
C         0.51425658728234   -3.25517315538432    2.17005152090887
C         2.49572245965556   -0.19828817943888    2.41733995394834
C         1.42454588432807   -1.09121888599302    2.77321641728358
C         2.96247294313211    1.88568997241499    1.21941764636972
C         2.22218420656350    1.18662953321127    2.22392168819314
C         2.59521924349900    3.16221767854403    0.83061256220332
C         2.37094263325232    2.33487676222746   -1.48880242038644
C         2.30594180915447    3.40830377904296   -0.57909245543038
C         1.14186003975402    0.81924163349262   -2.89857111197110
C         1.23078337831811    2.10043314725011   -2.33641983215494
C         0.12717922553496   -1.25346337603009   -2.95003796750030
C        -0.09961236619769    0.16675518509963   -3.09686081305086
C        -0.38092716724206   -3.20212088357573   -1.59989116146121
C        -0.83877599386433   -2.10740377226425   -2.43410065359732
C        -0.95134754696837   -4.09806812869510    0.60747642617523
C        -1.36562804211115   -3.76585368884195   -0.70092334944815
C        -0.78700561745058   -2.83508065053727    2.53003678012790
C        -1.69472959930436   -3.60475447421793    1.73127153982434
C         0.07819186137051   -0.58610879566487    2.90367159233542
C        -1.05304116414539   -1.49024288923475    2.83735075398676
C         0.95554804880601    1.72452762732779    2.62868376929436
C        -0.16785034962175    0.82962404699128    2.80564726946294
C         1.64958057221819    3.86468547973253    1.60334117259043
C         0.72922385971674    3.09212499423645    2.37176157923389
C         1.22969818009595    4.32082593508125   -0.62569196528060
C         0.91592787665624    4.73376233978230    0.72264451491971
C        -0.01280553614671    2.80220316281662   -2.12792972976398
C         0.02065859221266    3.94392914929201   -1.28992054491168
C        -1.31207712473740    0.75953431125661   -2.78421640822701
C        -1.26938371357333    2.11456710417722   -2.28863451763394
C        -2.19267724837032   -1.58122676827645   -2.39126955454663
C        -2.42864064937997   -0.14655200895354   -2.57582522429179
C        -2.72637312452063   -3.40679245727595   -0.84194956105727
C        -3.16074144434651   -2.34215856838649   -1.74001841163476
C        -2.98413498828087   -3.18836980991456    1.57517772335670
C        -3.56438372510373   -3.34832581949109    0.28587771758061
C        -2.40800523757725   -1.01796060901127    2.60582511031954
C        -3.38280269613398   -1.91068736028445    2.11066500480535
C        -1.49500674150076    1.31045163900054    2.52686038303984
C        -2.61393627996700    0.40386965489980    2.41957183662495
C        -0.58468830489363    3.53135536400059    1.98990042716652
C        -0.44778347866050    4.50238822921517    0.93095949077371
C        -1.03364713396223    4.14771823517323   -0.33742491828797
C        -1.64217340459273    2.63400635378449    1.97000107521214
C        -2.39268898095601    2.53144311990384   -1.51011281921770
C        -2.15987997902223    3.34996048790543   -0.34546780546333
C        -2.62328340615913    2.84371985414345    0.92603428821805
C        -3.60654380059160    0.41331522357347   -2.09230525199740
C        -3.54409189158862    1.73435827541860   -1.49629266198022
C        -4.33890700728698   -1.73672086415290   -1.17981012794533
C        -4.52298470990343   -2.29143764067298    0.11336155952934
C        -4.46206214726765   -1.45600007797673    1.26041870603557
C        -4.55951535014124   -0.36908210214376   -1.34432880969311
C        -3.77626457052836    0.83514191926967    1.75018130299756
C        -3.70815580034044    2.00103893878039    0.90662443185260
C        -4.33071849007123    1.69119894295836   -0.33006100516755
C        -4.66486965162775   -0.09165014494074    1.09423119305723
C        -4.93812844668215    0.39470624672638   -0.21343980646159
