74
C74 Isomer 8532 Symmetry Cs
C         4.96125970304147    0.02736967878691    0.97146831145175
C         4.45740162010167   -1.16167811762483    1.47971952610062
C         4.11714142069694   -2.00029855391868    0.33546178411154
C         4.73578686718673    0.02467628061495   -0.50080265962554
C         4.12438758501474   -1.19526790718513   -0.84553879776393
C         4.12547143643748    1.24392653582553   -0.85014968156500
C         4.45845775636863    1.21893634351531    1.47511691777699
C         4.11868423857409    2.05315724354955    0.32792613408439
C         3.33985601871281    1.23520749962958    2.36117576216755
C         3.33862272307510   -1.17360296789895    2.36570268960278
C         2.69184427577716    0.03195195181602    2.76970352757302
C         2.97940111766681   -2.73188006995339    0.65919678331450
C         2.51091791007507   -2.26260141655377    1.93798346660389
C         2.07180935823751   -3.08579988741709   -0.36612589566566
C         3.00549363487823   -1.22870917658420   -1.74211359100368
C         2.10673394009140   -2.34309617043403   -1.61061166167727
C         3.00659246006711    1.27489385518969   -1.74691791158615
C         2.51695332530965    0.02228255152695   -2.27804768787234
C         2.10891035273700    2.39060852282390   -1.61986792398306
C         2.98182594121433    2.78760558398801    0.64854541083284
C         2.51296908990957    2.32341530554482    1.92902665944528
C         2.07476551413416    3.13820687103708   -0.37825057869151
C         1.15315198628632    2.38532034905263    2.23344212823642
C         1.23765726191364    0.03288293303280    2.95815197842466
C         0.48996494329411    1.25395202086604    2.84129723911289
C         1.15096652014686   -2.32237767187498    2.24272947421573
C         0.48889272216670   -1.18792666240259    2.84604554258297
C         0.84766110714345   -3.55680916842320    0.11683494734952
C         0.41570816268654   -3.20836809613610    1.42883393558129
C        -0.33268644265195   -3.62171856021623   -0.69617172065867
C         0.90317853900179   -2.33036893643045   -2.34477813670629
C        -0.29018096407933   -3.02550763472417   -1.93667347958649
C         1.23505782680831    0.02161455456620   -2.94015348975874
C         0.48852955673426   -1.17217024953361   -3.03509388548057
C         0.90530698898874    2.37613739229712   -2.35391379723827
C         0.48951468111292    1.21569062727650   -3.03962113496100
C        -0.28764368710177    3.07405768440243   -1.94867858199497
C         0.85084505036218    3.61200010756792    0.10281073752117
C         0.41862717157222    3.26852682385942    1.41578478541457
C        -0.32940941794399    3.67517658218991   -0.71048615684836
C        -0.99957713970090    3.22615983061019    1.42059138784855
C        -1.48755972315122    3.52813495550862    0.11192921028037
C        -0.93994723040255    1.26056449777565    2.89968895654948
C        -1.66965176707481    2.34576283260619    2.27301866181876
C        -0.94113929959476   -1.19290197765424    2.90445382494863
C        -1.64832332839563    0.03460521105970    3.13395178877882
C        -1.00245083690292   -3.16438961334928    1.43322467633163
C        -1.49069218574182   -3.47082841371590    0.12563930744787
C        -1.67182956882607   -2.27985006417720    2.28216410944430
C        -2.68450097271539   -2.89329371705423   -0.35986469175507
C        -1.44307105959067   -2.30116867954424   -2.40225650880016
C        -0.95876051699854   -1.17822267016728   -3.10692550254674
C        -2.66233024048891   -2.26280210263193   -1.66766881491556
C        -0.95779334040097    1.22278279800852   -3.11158531754181
C        -1.44117149307698    2.34898963687452   -2.41145551968039
C        -1.69553525012872    0.02255727010008   -3.12621475946320
C        -2.68187264905327    2.94964508287520   -0.37131367455522
C        -2.66043670764363    2.31426845476363   -1.67661152805876
C        -3.04684705512533    2.20717852276068    1.95722828971899
C        -3.54623990856835    2.46093732354219    0.62169492029572
C        -3.07613108012388    0.03509477818574    3.04169620286537
C        -3.77016284377129    1.16382610712510    2.52646210697746
C        -3.04893733753274   -2.14165568810477    1.96593530260037
C        -3.54834907489791   -2.39958009561879    0.63114082933480
C        -3.77103441537870   -1.09495468024515    2.53095918642790
C        -4.53720472354107    1.45411095519553    0.33701806378993
C        -4.76243385795966    0.72313200405459    1.54305835504091
C        -4.53819776860005   -1.39320388942645    0.34269917628886
C        -4.76309793807003   -0.65725976197478    1.54583986992809
C        -3.48202953777505   -1.13212379051562   -1.85532931085406
C        -2.97411888897207    0.02421413399210   -2.52637880357095
C        -3.48111217309614    1.18364490074799   -1.85989181437823
C        -4.42966727268213   -0.69258243791534   -0.85998280551567
C        -4.42922110976649    0.74879223466113   -0.86287614391785
