78
C78 Isomer 17469 Symmetry C1
C         3.70231704247453   -2.95142720849623    0.31348632427262
C         4.41580175848359   -2.15460879991240   -0.55691085703597
C         4.92546743309259   -1.00898953323102    0.20413335958645
C         3.66341956877806   -2.26985608059087    1.61305689824829
C         4.30634645310179   -1.01800188388664    1.49344094726523
C         2.36168420451114   -2.36786966613928    2.10069159863768
C         2.39491969163216   -3.35889964234026   -0.01085784365910
C         1.61137525567107   -3.18888325162499    1.19209785151060
C         1.80654103501803   -2.97981848292735   -1.24167290814765
C         3.82471231852207   -1.68026649367548   -1.76192205094420
C         2.49829580404528   -2.05678704037947   -2.11030778695021
C         4.85727353205883    0.10911723141917   -0.62111596592263
C         4.25784617450333   -0.30809079694647   -1.88492923364972
C         4.45431051121326    1.32598536183748   -0.05054510685593
C         3.62859741485195    0.14590161696342    1.98151306906966
C         3.86929350098003    1.33747447748319    1.25607892484834
C         1.69920236157860   -1.26807048173478    2.70200030054125
C         2.35305513385546    0.00833625948935    2.66529345669265
C         0.26662878389236   -1.40164818175063    2.82209325224279
C         0.23714833450562   -3.15791960397148    1.14221955721425
C        -0.48982923720081   -2.38045068964260    2.10709642552916
C         0.38735108606504   -3.09832464756954   -1.31575339524968
C        -0.34307428237415   -3.45848726895868   -0.13414847484001
C        -0.33823545908484   -2.41592294292824   -2.34690193573607
C         1.68260678798616   -1.11196665138936   -2.85485924539446
C         0.24641017081848   -1.25224879041449   -2.94212294162893
C         3.47225020169161    0.58087230666446   -2.56590917177699
C         2.22471529185724    0.15138759978177   -3.12387854172744
C         3.75678740291459    2.29166633520877   -0.84378672939262
C         3.29930974347560    1.94098387074912   -2.10378380331313
C         2.93921459792003    2.42998536333586    1.29441375348624
C         2.87753217335964    3.04315246588837    0.01645780472626
C         1.53475006159685    1.18442646679751    2.85550539199381
C         1.83109116048205    2.41612999292514    2.15485661676357
C        -0.42620088487535   -0.26421405396992    3.27691177869740
C         0.21750711364317    1.00912955991368    3.28667204986302
C        -1.81499692257351   -0.09024695120363    3.07870072308281
C        -1.92174351284190   -2.25805900136141    1.95235694802625
C        -2.60586027084730   -1.08108806519890    2.46302702762066
C        -1.73175118439860   -3.51293192152190   -0.16252095260091
C        -2.54220827528686   -2.97295886935308    0.91660515635833
C        -1.73748972922205   -2.54544874926894   -2.36957923343840
C        -2.39583050527941   -3.29107904405083   -1.37084391934893
C        -2.60386056246893   -1.45417961589515   -2.72612804466522
C        -0.60889993466582   -0.13457242654939   -3.21882338082694
C        -2.04365522737494   -0.21120257469118   -3.00351414154638
C         1.37909733648534    1.29717778414341   -3.20484335601647
C         2.01892528286057    2.39118559267729   -2.54500329442689
C        -0.01503051573261    1.17063158242861   -3.27112556816320
C         1.69061963721824    3.63721906494662   -0.45546325688440
C         1.25786827937045    3.32050956389895   -1.80234404629764
C         0.78614405033596    3.30325616517817    1.81302812354576
C         0.70600598408301    3.89319153896466    0.52319323479963
C        -0.81582663477426    1.98043962448871    3.04549344659405
C        -2.06564438130830    1.31419148418376    2.90080710877248
C        -0.55708923996041    3.09266135427992    2.27734521635491
C        -3.04309608470596    1.76122419127716    1.99968697458415
C        -3.80878927913590   -0.63738103236374    1.88615504556804
C        -3.99951818883385    0.77972998795048    1.62261839786879
C        -3.78506370459136   -2.52788481053876    0.33319301414401
C        -3.67115716314099   -2.67742261782341   -1.07959618411346
C        -3.83238342637575   -1.58657779925781   -1.95617180771645
C        -4.41931601036098   -1.38038122782174    0.81689942276476
C        -4.66111099602410    0.89062900163990    0.39623796631985
C        -4.48186283279784   -0.45107660239815   -1.46367040412388
C        -4.91296854939537   -0.43887064264682   -0.12495756816203
C        -2.79151497385054    0.97286835848259   -2.57863321309241
C        -3.94429206670181    0.85785079310186   -1.78222988503309
C        -4.10903688780832    1.69930967591139   -0.62793269451189
C        -0.73988606181163    2.30644623066809   -2.84572248226988
C        -0.11762055769509    3.33185787378989   -2.08171215331913
C        -2.09675322751877    2.18753264979011   -2.43470975160934
C        -0.69081986471313    4.00395676399502    0.18746328055996
C        -1.49188029354030    3.50418130443582    1.27518065794029
C        -2.70902803174694    2.82780011750316    1.07207317298791
C        -3.18499867102758    2.71213495311419   -0.29361626278049
C        -1.08580742291599    3.75962153093661   -1.10798067702171
C        -2.31729161997155    3.07395804818134   -1.34255600888804
