68
C68 Isomer 5399 Symmetry C2
C         3.68249706343501   -1.69122376725493    1.78757881698498
C         4.27362156626459   -0.49478382750222    1.44558882826929
C         4.52492241141952   -0.50178157393868    0.00900545833489
C         3.49800391173424   -2.46238414232901    0.54594864809198
C         3.87665703160739   -1.64657814886652   -0.54783941884461
C         2.25191762745943   -3.06844264514777    0.60389522237468
C         2.48739427121298   -1.74771467522851    2.54319586768770
C         1.71686663935239   -2.79526672003598    1.93129251442361
C         1.83696837981035   -0.56334553318215    2.98800172257476
C         3.63938681517364    0.72622428022161    1.79772361886165
C         2.46815289615489    0.68957990150522    2.61060972725492
C         4.24613920517197    0.78262993534466   -0.46116762135961
C         3.72484105402480    1.58252888413610    0.63739656238343
C         3.65295128511705    0.89283475110624   -1.72985158452964
C         2.95261024299518   -1.49716951720867   -1.63660896442510
C         2.98126529888983   -0.25570534983157   -2.30382880902452
C         1.36227827602085   -3.06957914511564   -0.50953536489477
C         1.70692496820193   -2.24952524143207   -1.63641012515328
C        -0.02335895865609   -3.39498772708785   -0.21015879539868
C         0.37662594719896   -2.84600987351154    2.14311456949309
C        -0.50101355887087   -3.32574541788286    1.12559692052343
C         0.39339395804166   -0.61827240767626    3.19153093796883
C        -0.28285186707930   -1.81394658917364    2.88956427236825
C        -0.43477657705002    0.56925562465021    3.18029006897258
C         1.60973849132736    1.79800742371626    2.46835773034150
C         0.24182502159867    1.75918361609194    2.85723403581057
C         2.74670318889926    2.56477730153129    0.39268674815377
C         1.75157394815638    2.73070065968764    1.38309225821191
C         2.86426980947102    2.02995132287256   -1.99052952646618
C         2.34142446296985    2.82783202562152   -0.95306134814754
C         1.80299299190689    0.24461400128397   -2.97417237565183
C         1.76280938571798    1.63924631459837   -2.83821019564922
C         0.62133426888611   -1.80451215890315   -2.48672988672023
C         0.59770549120164   -0.46833091320782   -3.02865213755647
C        -0.98572476847149   -3.20470774273707   -1.20463702441392
C        -0.62258640121976   -2.44259019470801   -2.36310048148507
C        -2.37757701803435   -2.95145317412826   -0.90349065227578
C        -1.79062330633828   -2.81195804577232    1.43124061262034
C        -1.65025551186970   -1.85976037009010    2.49961366916354
C        -2.78455150681085   -2.66402744915590    0.43677020857509
C        -1.87811208973138    0.51066669769841    2.97596209608673
C        -2.50883217970099   -0.74891150961625    2.62053958076859
C        -2.52796423830442    1.68670589366273    2.50882300427036
C        -0.41655845264770    2.77758165749252    2.09138721303664
C         0.46225158074030    3.23886065056863    1.06652981672869
C        -1.75656178648426    2.72284029568511    1.87885714333594
C         0.95005276322715    3.07555151848188   -1.26057076089556
C         0.58836887244381    2.29228709376379   -2.40533984243056
C        -0.01362891343825    3.28377148589281   -0.27089342966401
C        -0.63104812270154    0.30618018207286   -3.03650647560161
C        -0.65536763492712    1.65201316883798   -2.51899403284934
C        -1.79644559598487   -1.79760058043546   -2.80937246922980
C        -2.89890125944919   -2.17261877515841   -1.95590311457305
C        -1.83636626751573   -0.40573516894895   -2.97060442493335
C        -3.68813245582262   -1.03109853234637   -1.71712204844453
C        -3.01565773646344    0.10673009652436   -2.31100102618795
C        -3.76295141167010   -1.67752904183061    0.66225136181102
C        -3.67903955046183   -0.80015302729432    1.80702103729811
C        -4.28271869286172   -0.89778114436771   -0.45132834458273
C        -3.72220815927687    1.61669448792416    1.75289035739855
C        -4.31282183502537    0.41418354253991    1.43188096133170
C        -4.56226515196446    0.39495736264917   -0.00497168421051
C        -2.28991314123288    2.97195932141975    0.54604235540406
C        -1.39879103569880    2.95283689063992   -0.56613686353329
C        -1.74205397754094    2.11240544743270   -1.67828449184801
C        -2.98776449052075    1.36014420571440   -1.66642215112197
C        -3.53601213601310    2.36518094313278    0.49755554225641
C        -3.91303333599404    1.52931314660511   -0.58163401706888
