78
C78 Isomer 3522 Symmetry C1
C         5.33066616077594    0.66090351932795   -0.37751894805918
C         5.15459583054881   -0.02481074529135    0.88757159698589
C         4.62660332474481    0.88900799867544    1.80232545932137
C         4.65693019947544    1.93496755708994   -0.28048278233126
C         4.31434949040187    2.13341522457811    1.06197214235320
C         3.58805120975338    1.99536571673757   -1.24987138542834
C         4.60368519971959   -0.08613980307696   -1.31730055471802
C         3.60792144502925    0.74045330830117   -1.94581230482575
C         4.41574573953200   -1.24066310769276    0.67526613812207
C         4.13340132559229   -1.31115633449632   -0.73919617000507
C         3.39588923750628   -1.64737600349227    1.56286719565999
C         3.50041340341002    0.56476061863619    2.57980499775801
C         2.92542031469719   -0.73136403048875    2.57217452045334
C         3.02142588634721    2.53963865903998    1.42165911691984
C         2.58112740633011    1.66242842632102    2.47251533623229
C         2.33148376271604    2.56348123287870   -0.92898978771122
C         2.05830196724665    2.91597140865030    0.43547166011936
C         1.20491803747951    2.21318103352097   -1.74957366469323
C         2.44236077121735    0.16319665920947   -2.43849145621647
C         1.31513354626551    1.04765737736233   -2.59162751961203
C         2.97674872236087   -1.91207644603573   -1.23684686883600
C         2.21000040419870   -1.24676633078637   -2.25782295034250
C         2.48108480318077   -2.64314722567486    1.06286158217367
C         2.30682771234946   -2.83393241278977   -0.35504748658720
C         1.41152404499588   -2.99829408064908    1.89678559101445
C         1.57591900574313   -0.84650568365130    3.05953747644362
C         0.93218978363633   -2.07364311073632    2.88198373042262
C         1.23226437462430    1.54165066193750    2.78056901941557
C         0.72078669805503    0.29328686521413    3.25120421379374
C         0.71301666793296    3.02267286815292    0.86425196191118
C         0.36317394997971    2.49058742873058    2.15199495911484
C        -0.09209997691303    2.70749636287718   -1.41651048594317
C        -0.33990097805777    3.18565858321669   -0.08743460672607
C        -1.23232414172906    2.27000778161679   -2.19289024995739
C         0.15795367374613    0.49055711104855   -3.11948133834636
C        -1.10091087775017    1.11789762104316   -2.99501994448143
C         0.93311417644374   -1.77442221426698   -2.60532621774522
C        -0.04308431979713   -0.92593636778310   -3.15890381835738
C         1.13297472598395   -3.44056694763214   -0.81541452217178
C         0.43830866492000   -2.92847083973996   -1.96156635386253
C         0.28701612456520   -3.74106458028688    1.42805673672798
C         0.15531916932403   -3.98073433497505    0.06839424148585
C        -0.48583116500658   -2.23616341032278    3.01206321345598
C        -0.86476310185685   -3.33535015527767    2.18060249945555
C        -0.70096063355465    0.13389963415463    3.37578471463439
C        -1.34422576088713   -1.14774318665791    3.23249701518365
C        -0.96866306956499    2.41306158001128    2.50682498738885
C        -1.49691403451593    1.26952991568276    3.16086302532069
C        -1.69399290787076    3.34558725942073    0.38487759554617
C        -1.99672595225760    3.01585047075470    1.71982634081088
C        -2.53652899127531    2.55512984933967   -1.79408135553775
C        -2.77994804578965    3.22785089147172   -0.53375482270094
C        -3.62371863280845    1.65493582330924   -2.04868979058482
C        -2.10323446765933    0.10672948160908   -3.00586595981596
C        -1.43559827515855   -1.16078120541018   -3.02387655636080
C        -3.36265006807274    0.30340630153195   -2.42030499867162
C        -0.96197225794133   -3.16028491796410   -1.81062015806678
C        -1.13185708732497   -3.85164980400353   -0.56435468159208
C        -1.93909611033867   -2.24022407590549   -2.26953248012155
C        -2.11884425590877   -3.32986849635163    1.59918740143426
C        -2.25733850720931   -3.59816287842159    0.18532627595841
C        -2.71468863294803   -1.22061925261282    2.76219237956942
C        -3.05847217267335   -2.32794756166191    1.96232095925486
C        -2.90217609619159    1.21830369323300    2.86004542566766
C        -3.23379918119461    2.39864884968046    2.10170034273936
C        -3.51656226912682   -0.01989639519304    2.61300591051282
C        -4.06525470460041    2.90451722284926   -0.10474089173836
C        -4.60829967370459    1.93871561718559   -1.06742651824790
C        -4.30308775570743    2.39527844752421    1.20904241085325
C        -4.61105766236156    0.00053382098800    1.68138285100025
C        -5.18888872974523    0.90403365728585   -0.37141711319847
C        -5.02946002264273    1.17789596681918    1.06626008666077
C        -3.93554682443739   -0.79778165313837   -1.66710470555354
C        -3.17093263921273   -2.03209420355637   -1.52874614405384
C        -3.29923313327440   -2.75635679191546   -0.32781467028834
C        -3.91942827472054   -2.15487787531157    0.81535290762979
C        -4.83560114595467   -0.45264351545602   -0.63021263740339
C        -4.68397442308461   -1.04163652831157    0.67024888138784
