78
C78 Isomer 16125 Symmetry C1
C         4.85717848092591    1.16555301789754   -0.04320321096435
C         4.88062259949156    0.15262969786597   -0.98496910977101
C         4.80850943275883   -1.11548428439814   -0.27881719233373
C         4.59020132206730    0.54456576928694    1.26034898310261
C         4.44803055937029   -0.84437092553559    1.08355607342923
C         3.60399611936226    1.29552623205260    1.90615301393873
C         3.99969587112160    2.26687705115653   -0.19949431758948
C         3.44201394121401    2.49875722246761    1.11902024266009
C         3.12766897159456    2.36438590436314   -1.31202247068680
C         3.91343694205694    0.13784963483721   -2.03096229214506
C         3.02881983483081    1.21977273454038   -2.20328646568531
C         4.01936169961311   -1.96684646167132   -1.05333831490870
C         3.42289800088119   -1.21501769918925   -2.14418421158822
C         3.24147413590617   -2.88961393528721   -0.37116277927131
C         3.32491029484601   -1.49938935217572    1.68428337779059
C         2.93204104856444   -2.67599664068320    1.02062407522531
C         2.45800327534141    0.68541631609113    2.50411078384435
C         2.30213256418060   -0.73985976692468    2.40490638189280
C         1.30443724423012    1.52150916108101    2.71694231725788
C         2.31437370824928    3.23406300476471    1.26106926121580
C         1.32761702188915    2.84235106046404    2.21659246990407
C         1.98911240070127    3.23882379494179   -1.15360830604140
C         1.65182967358675    3.78356035387917    0.10785692986887
C         0.90840077392249    3.10431616670303   -2.03940688090159
C         1.75744106077059    0.90664842007074   -2.82391529113103
C         0.79878083836663    1.92757039146990   -2.86531917908165
C         2.13250767029274   -1.52372045653254   -2.58348583221427
C         1.28111549116394   -0.43768805505197   -3.01023153373107
C         2.09433235508258   -3.42056214358875   -0.99721084468020
C         1.54162859802236   -2.77181874635990   -2.12768309999473
C         1.67204673701297   -3.26684118288232    1.25693746725843
C         1.21680745204780   -3.86576459968176    0.04264315859170
C         0.99243667437191   -1.31655006370336    2.61394113961916
C         0.74733412083521   -2.66575445064746    2.14085484990562
C         0.01474172795955    0.93072077011374    2.96904626273598
C        -0.15568996908136   -0.49350398412066    2.91305520053252
C        -1.12835208921381    1.74736133481779    2.84519949262918
C         0.13825415341051    3.51722744825294    1.81321781942648
C         0.30655635951514    4.04147073144711    0.48235898710668
C        -1.07318757348802    3.02359910624908    2.20932582185154
C        -0.39772108342107    3.56216491290776   -1.73463786537056
C        -0.76896262469216    3.97041471834045   -0.43223978796669
C        -0.57342189499272    1.69068595953261   -3.12306200507690
C        -1.30490297241057    2.76665639873042   -2.52141897524359
C        -0.13230083034177   -0.67388630513901   -3.17609306343016
C        -1.09884118264965    0.39119695110697   -3.19819831401628
C         0.17229705387461   -2.97727714150570   -2.33799025100275
C        -0.64263162192463   -1.95643082813907   -2.89608278348226
C        -0.13740844019730   -4.12969075319537   -0.18859165200834
C        -0.64593282870212   -3.76868391085398   -1.46140811132666
C        -0.55611998575752   -3.16364895768100    2.05537044478220
C        -0.98400820716741   -4.00158124788474    0.94387481152176
C        -1.50404024952821   -1.01208048010220    2.78770121857106
C        -1.66630316708048   -2.37287253903727    2.46250403295570
C        -2.42906480599944    1.22217558265082    2.57569761623653
C        -2.63788108035182   -0.15382822276310    2.49635184106193
C        -2.24377534545853    3.21417720912920    1.39335942160993
C        -2.10170550668572    3.65353928047636    0.05560154382152
C        -3.14628327471509    2.17026782087616    1.76321523730722
C        -2.60222873192590    2.59127733486380   -2.14721509637518
C        -3.05247745883556    3.12602053857911   -0.87239603364261
C        -2.47717540710406    0.18399902123826   -2.80025059386232
C        -3.22626776088624    1.30892857115797   -2.38052199719082
C        -1.99366388847435   -2.16809299032642   -2.46187872385049
C        -1.99627864885058   -3.31475637829964   -1.60091644352717
C        -2.89570392542430   -1.10540109900771   -2.30515891776620
C        -2.35145843861319   -3.79034044000981    0.74989907507343
C        -2.79781440445891   -2.82819029730078    1.73101820387129
C        -2.85927454652831   -3.36876288706267   -0.50776134454819
C        -3.70195889101480   -0.59688832271015    1.60437747269748
C        -3.84256525629831   -1.20266913895264   -1.20699448831425
C        -3.67717524051778   -1.92891589477501    1.12966812312482
C        -3.73323183505247   -2.24717271687648   -0.28069357275496
C        -4.09545218996835    1.71947222656672    0.85407510405454
C        -4.07809676903315    2.28169609854263   -0.44403290690010
C        -4.22562301438534    1.18189567042734   -1.38791814800180
C        -4.32095191291868    0.31084164203054    0.73692035917490
C        -4.39411315528290   -0.00501196191464   -0.67891620727373
