78
C78 Isomer 12618 Symmetry C1
C         5.13144800325495    1.70322260239929   -0.91485584194269
C         4.89001486413157    2.03423874403367    0.42004839720297
C         3.88539966815049    3.08662538000395    0.41601441805729
C         4.10334630600651    2.38069128172393   -1.73911946274473
C         3.32047255929551    3.18645108773320   -0.89399235022417
C         3.48646305140888    1.39966124800929   -2.55760785016559
C         5.15143086818059    0.36261702840294   -1.26552197040801
C         4.22753567900188    0.19566220391613   -2.39334884453162
C         4.84645884562442   -0.65224137773942   -0.31770029866354
C         4.46016271716624    1.04361650355637    1.35410384636623
C         4.38552159284844   -0.33000645376770    1.00163789843152
C         3.02198654392266    2.86998301742352    1.48575092112928
C         3.36942139588852    1.61054619770715    2.09691711817153
C         1.67892957101406    3.29919630620084    1.38405154302182
C         1.90569260491071    3.22200730501396   -1.05494231799866
C         1.09505934097020    3.54265577429788    0.08191201909317
C         2.07508297232478    1.32879835144898   -2.67263227027652
C         1.30450466992331    2.38757182759782   -2.04997912515072
C         1.45507339951065    0.03989136791361   -2.84482680553180
C         3.58171411192524   -1.03033224781158   -2.27922177603204
C         4.10377988422186   -1.63233213575068   -1.06834945106796
C         2.20284252248493   -1.15951257324212   -2.59044988152676
C         3.31823299224897   -2.52224337472095   -0.41731036692673
C         3.32333986809277   -1.14514367599941    1.60829206376264
C         3.00627095912757   -2.35493123589245    0.97732443052824
C         2.35284889106535    0.82962919735039    2.67709748945734
C         2.27794956640804   -0.58729882488145    2.45123638147722
C         0.85657472543091    2.78063375449412    2.38150048504671
C         1.17390943844405    1.52438413611374    2.99262484864157
C        -0.54542939294962    2.90644596685020    2.29630982607954
C        -0.31702309022638    3.55662966800024   -0.05071927233304
C        -1.13079893202969    3.47539406631868    1.13986184499245
C        -0.10417297620194    2.33263717836672   -2.12759640284581
C        -0.93127229504769    3.12989136062991   -1.27211983883979
C         0.02963694541281   -0.03681302371279   -2.87964743077376
C        -0.69859892385947    1.20499299759017   -2.79091302443410
C        -0.66310472198389   -1.27075154959416   -2.67802857767760
C         1.51619461265564   -2.31697617818263   -2.08875246679715
C         2.15581020423464   -3.05146377051733   -1.06757558392694
C         0.08169867363070   -2.40830135802540   -2.19256861907834
C         1.79500702805764   -3.05987418825236    1.21232530850048
C         1.38642972700273   -3.65622509278565   -0.03809802950766
C         1.00954326781919   -1.25230370534731    2.64232058421262
C         0.81310423038875   -2.56340474143195    2.09259364286295
C        -0.05665636571795    0.85865457433737    3.20301205005581
C        -1.13106272678381    1.76791816669011    2.90727397053424
C        -0.19702416155249   -0.50623258067475    2.98641498445657
C        -2.42274515903620    1.35971801879928    2.58203605847188
C        -2.49970952104822    3.29322522675958    1.03067148265047
C        -3.17865442032712    2.33414943039586    1.86869944567275
C        -2.37059740823387    3.08602419222456   -1.39900725184212
C        -3.17036541469165    3.33820133022827   -0.24477033476825
C        -2.07369862938832    1.18349099741017   -2.92295190196128
C        -2.92942292105083    2.21783447082598   -2.37887901660320
C        -2.08986915702574   -1.24910972972903   -2.52589905972442
C        -2.76793711680671   -0.06551821151765   -2.87617881460190
C        -2.73761892252895   -2.09871691859437   -1.55954249137835
C        -0.59408506200723   -3.36131513628653   -1.41853344411249
C         0.06720507983628   -3.95242652821934   -0.27911284021225
C        -1.96618549731044   -3.14411915354587   -1.03152432304098
C        -0.50816283279391   -3.06531572682718    1.91688977593809
C        -0.81855762385307   -3.88485016871782    0.82328497127954
C        -2.11270407234520   -3.49427267020600    0.32007186150735
C        -1.54993230202426   -0.95410898915462    2.65291215359946
C        -2.66538882024272   -0.04221493083005    2.39026095442929
C        -1.68012337178957   -2.24835407650957    2.17798811170085
C        -2.68458469028188   -2.55811294211811    1.20198121157003
C        -3.77510767771571   -1.55413134993892   -0.71991484698884
C        -3.73372798637669   -0.41132459398636    1.50432732328691
C        -3.58014334024661   -1.60310602641085    0.70955992770005
C        -4.34541253444771    1.96400983963632    1.20878144046700
C        -4.41840531079163    2.69404920384145   -0.06114575901824
C        -4.60510416426937    0.59298205630693    0.96748149691764
C        -4.20739568371320    1.63156251109263   -2.20387377168175
C        -4.06363223843156    0.19546917587839   -2.40288728213095
C        -4.52645214472710   -0.47197865152781   -1.23679482482297
C        -4.92273628919499    1.81195843504691   -1.01236969576260
C        -5.08149348296904    0.49304170987964   -0.36930676921718
