68
C68 Isomer 2383 Symmetry C1
C         4.71445831886081   -0.66428114348334   -0.47331527159849
C         4.47160541088239    0.20468088376896    0.60546712923296
C         3.71058829904987   -0.48199647272639    1.62064534129666
C         4.06988910133068   -1.91614092924734   -0.18748193483974
C         3.56688095255362   -1.84123084703944    1.16055176444189
C         3.14494804558832   -2.17056644490130   -1.21482140461005
C         4.07301873372740   -0.07790392333158   -1.62443479303759
C         3.10685163043080   -0.99211082561771   -2.09063506856302
C         4.00017459597451    1.45335899338148    0.07542270746432
C         3.67693199480757    1.25620473364245   -1.32880573238555
C         3.11908182997652    2.15695675418312    0.85328870732264
C         2.61895894394270    0.16667629234505    2.25790164972309
C         2.46670386039260    1.54871948259270    1.98922008651274
C         1.40777482313262   -0.55908823956480    2.60431422900278
C         2.39697705526147   -2.51040246269029    1.44170000489820
C         1.37646660157912   -1.92850547159474    2.27550548281129
C         1.95584919400642   -2.88551688312725   -0.94270022412560
C         1.71976215789520   -3.23686776987256    0.40449156239913
C         0.82828640422572   -2.68240443794788   -1.82286331612987
C         1.87963506520881   -0.52959537517747   -2.59912779841247
C         0.79627792438581   -1.49468710463899   -2.64887695043749
C         2.47706607434880    1.76776507655679   -1.85268798181461
C         1.61116374810255    0.88792204216207   -2.60378195561231
C         2.19022640373817    3.04799116481185    0.23013404425037
C         1.88381224892369    2.89499452704158   -1.14856038671444
C         1.22040632847840    2.19920047052664    2.15286609092129
C         1.14938858665553    3.27647202353181    1.18038631997553
C         0.13287051344982    0.10069915939159    2.76906217253840
C         0.05381861408981    1.52749596052118    2.55973057606526
C        -1.08883855062564   -0.67647411973321    2.74031668296270
C         0.14872920706706   -2.60002257287606    1.99859095386928
C         0.37622264860469   -3.42941013657902    0.85391328381807
C        -1.10319241978531   -2.03291741261372    2.25041362908923
C        -0.39729804125405   -3.25406930905011   -1.43578388534256
C        -0.63138866803346   -3.59713768203039   -0.06166248436306
C        -1.66054538241096   -2.81202092618427   -1.94107617409276
C        -0.45892046653176   -1.03820630377964   -3.07525458242078
C        -1.68168218245499   -1.71406954161277   -2.78033467084018
C         0.26260939120240    1.32310808779333   -2.86992842636586
C        -0.74124195041685    0.36233091884616   -3.14589911528475
C         0.61747464634178    3.36163140701541   -1.54855639281016
C        -0.21016658259295    2.56687223792956   -2.42733526589853
C        -0.05999817078977    3.77732204810917    0.75962458177554
C        -0.24101759052361    3.98965854820545   -0.62555583376832
C        -1.21685418305604    2.15493279457232    2.22504837647031
C        -1.28379614234681    3.23025433507209    1.30691184277535
C        -2.33059537634354    0.00929198889428    2.71687078353521
C        -2.38691204623466    1.40712096765905    2.34004556285999
C        -3.50338688357363   -0.61312149805828    2.27253041251630
C        -2.24278437531814   -2.56294211607930    1.50496074050824
C        -1.97947646605213   -3.26130116018127    0.29824517577765
C        -2.66521526779737   -2.93487780672488   -0.91519874320219
C        -3.46443478157950   -1.84721416788262    1.54978119589080
C        -3.74457782016873   -2.05022496735318   -0.88207995592261
C        -4.23516811720716   -1.66287838753101    0.37456707873531
C        -2.71755404110828   -0.71890690975296   -2.64438485582386
C        -2.12202416316231    0.56735151495129   -2.84104514027619
C        -3.74206333499756   -0.87166239822564   -1.73804556472579
C        -1.58860037772587    2.73464586720788   -2.03397096554024
C        -1.59506531201254    3.59973508898258   -0.92695322473114
C        -2.25937742613299    3.20234901241989    0.25951386238137
C        -2.54901558445887    1.69246001249849   -2.10331941808983
C        -3.48989171259546    1.57091564013994    1.44179147709213
C        -4.22244209592804    0.35825982932554    1.47706977804868
C        -4.60713784437792   -0.24886869749263    0.29090341181386
C        -4.18755728639460    0.26823253586954   -0.96143414098224
C        -3.29059676041903    2.23688199883206    0.20564564141355
C        -3.52309194980516    1.52413204592076   -1.04052068142782
