78
C78 Isomer 942 Symmetry C1
C         5.55085537785582    0.40743423380335   -0.18060202045345
C         5.28342917026405   -0.61982311746925   -1.04366437216176
C         4.60668824629077   -1.69225871849970   -0.32706417648696
C         4.98889079915440    0.03856679028510    1.13014297133622
C         4.35179548575281   -1.26267517456524    1.02596754207430
C         4.16373005575461    1.08297112506375    1.50015422562867
C         4.84022842609375    1.57963165342343   -0.68267164352758
C         4.09890487099358    2.06009555306353    0.38221386567740
C         4.39990667729502   -0.14888547556678   -2.12869466205481
C         4.08600071144157    1.21894144962952   -1.88296631393985
C         3.52027005737814   -2.04488775820165   -1.12134907423832
C         3.35519046280989   -1.07136193125798   -2.21660198665202
C         2.36764428950746   -2.53991696154706   -0.51261177778489
C         3.07475058785030   -1.49159137532149    1.59013688349820
C         2.18990971969628   -2.38444560818673    0.89059355587962
C         2.97934555932507    0.84840908176339    2.26192166914917
C         2.40856285627783   -0.45857818766846    2.37335286127613
C         2.11866334647816    1.94323251177991    2.33413538887991
C         2.90016529122003    2.76785759899032    0.14869442912499
C         2.12282714500858    2.96149054510595    1.29304091765382
C         2.74927698577769    1.65393767119704   -2.03103939043189
C         2.22831685028118    2.65239493559503   -1.12607437772045
C         2.04911955674180   -0.65084697275167   -2.55343037891562
C         1.76298497542328    0.74543029016855   -2.56410655647363
C         1.21444818019530   -2.60461016342933   -1.35431435040192
C         0.98480816145786   -1.59025047325517   -2.33345558857139
C         0.12414280210752   -3.25271664371831   -0.80929196212735
C         0.89936669093267   -2.66226657652499    1.42956604781053
C         0.01327519213096   -3.39175036262410    0.62105742730220
C         1.02246473719322   -0.58041170184157    2.74034321454089
C         0.33806873720253   -1.81211411821119    2.44348022600173
C         0.79524718893582    1.82376074864065    2.78630644214245
C         0.20027610972613    0.57264543546404    3.00482702324310
C         0.83326832410634    3.47955729323684    1.19365757264692
C         0.02354062794363    2.88254288841523    2.21407840182137
C         0.87709232709992    3.05314180996836   -1.22341820693913
C         0.26545769774987    3.70711701190027   -0.08694691170505
C         0.39439198143418    1.14147425661730   -2.66175426395306
C        -0.01444613458083    2.41374827055200   -2.16247271448594
C        -0.34731174993154   -1.24915110901549   -2.66450358048501
C        -0.60324354393207    0.14051945037569   -2.95410225348646
C        -1.16293040819857   -3.14449539223540   -1.37089968405034
C        -1.44163381981162   -2.11522030619371   -2.29309701917294
C        -1.36668567758641   -3.52128083243455    0.91599023642816
C        -2.09826225698040   -3.50462733128647   -0.33362620637889
C        -1.03698186038629   -1.89624513062075    2.68548695862732
C        -1.88332750295296   -2.82786187886446    2.00379606147542
C        -1.25332411705932    0.53852224123065    2.96255329830926
C        -1.83837518868334   -0.72702553922290    2.94163405812235
C        -1.36221494933861    2.84961798890477    2.11932688131995
C        -2.06867090586443    1.65652106190744    2.52296790310480
C        -1.09561746352663    3.95638089521267   -0.06917554283062
C        -1.88404200981776    3.69552242577059    1.10575242974388
C        -1.40430974034832    2.78171446177435   -2.20130719498760
C        -1.91516954851276    3.68729915053416   -1.22251029959180
C        -1.93562861060563    0.53988764916610   -3.06246285971854
C        -2.34060860330849    1.87842075519677   -2.74697615319613
C        -2.81139848654024   -1.67124949246435   -2.38423977726156
C        -3.03457552790429   -0.35352881186975   -2.83728102221740
C        -3.38661526406432   -3.05750251656176   -0.38932783707777
C        -3.79364056285099   -2.23024576539580   -1.50935058716159
C        -3.20740302955652   -2.28122550826271    1.92801888797627
C        -3.16952881323268   -0.95488529216277    2.48181854930199
C        -4.00712865790146   -2.53780140742728    0.81700202719266
C        -3.39770277037270    1.43556744875364    2.01939386207546
C        -3.95453087598006    0.10430752045800    1.97298483057398
C        -3.19861810455327    3.49524986932738    0.68207327032167
C        -3.23692819482600    3.58184097145873   -0.77462884563941
C        -3.94361807383990    2.39081819584157    1.09629437732086
C        -3.70753682018534    1.81235431282648   -2.31339517940180
C        -4.13390716289879    0.43960219735797   -2.37687329881193
C        -4.12845804042020    2.60295604476771   -1.24590134456585
C        -4.70194194353394    1.95527094878453   -0.07079006293720
C        -4.84561576771407   -1.42129130077688   -1.04422324302803
C        -4.89867135772798   -1.52805688850553    0.40761906533139
C        -4.89959030131846   -0.23663758583720    0.95404743838123
C        -4.98795441096531   -0.07034609706185   -1.39892185589121
C        -5.14315800507549    0.67131476252756   -0.15230622437712
