68
C68 Isomer 5080 Symmetry C2
C         3.26289388761952    2.30551313135911   -1.57885620205734
C         3.47799592465567    1.11378572469717   -2.26681313883030
C         4.20170459121599    0.21990730772746   -1.38159425321768
C         3.83112266408241    2.14564360656433   -0.23708475740288
C         4.34208882845678    0.82746871308329   -0.09783540290184
C         2.89601127876214    2.66273918809008    0.67258998029385
C         1.96781938081911    2.83121248476475   -1.46578215776263
C         1.75599131797594    3.16424957397237   -0.06867566208002
C         0.90127728111539    2.26775681659757   -2.21378136508747
C         2.39234350696792    0.41047241832392   -2.83453297824597
C         1.11830024625764    1.01648210391600   -2.89899179371235
C         3.64036510460046   -1.06625864287997   -1.53181656393731
C         2.51766820717135   -0.98128583284791   -2.44556302667398
C         3.56528016027753   -1.89035853832735   -0.42268298118682
C         4.05782648431733    0.06052558438824    1.08180917882440
C         3.85358593822075   -1.34686961570210    0.89717869715877
C         2.66688024847174    1.97136323196603    1.86395635473073
C         3.27886833969996    0.68670390661227    2.09415785898987
C         1.35603480020330    1.97601235039214    2.41748702715435
C         0.48139159112298    3.16662760821798    0.47278127482883
C         0.27586439182322    2.62706588208800    1.79991585477055
C        -0.41691571036417    2.61614659716160   -1.78756119818745
C        -0.62702449027306    3.15975760798372   -0.46276384788737
C        -1.49140072196054    1.95295384524782   -2.40209046561510
C         0.00658258215597    0.13303844598624   -3.11065090569418
C        -1.27553453461679    0.69382026703938   -3.05482217790459
C         1.39267452453629   -1.78583223733226   -2.28911832709778
C         0.15145747743359   -1.28317670046926   -2.84986706003074
C         2.46347935552812   -2.80568725667248   -0.32459834065244
C         1.36486986941524   -2.75212681374962   -1.20673068101437
C         3.04078420955777   -2.06358967209516    1.78903733370840
C         2.21700935009628   -3.00084164373365    1.05467694876475
C         2.33980701679480   -0.05471403536981    2.89517934610723
C         1.15105695676689    0.71788661288671    3.07564351674531
C         2.21180724969425   -1.43083726930492    2.74940260928129
C        -0.12612513186936    0.14621780910105    3.13397149476763
C        -1.03929154339559    2.26905813672398    2.22767349381351
C        -1.24550349344516    1.01903122674320    2.91838378534848
C        -1.90160765708749    3.14850766643970    0.07870121878642
C        -2.11070991595497    2.81997032482967    1.47729025608527
C        -2.80213620830105    1.93939804137366   -1.84856344851175
C        -3.03721852386355    2.63388481084823   -0.66020536830171
C        -2.45753095727298   -0.08824936076342   -2.87098339533538
C        -3.40299522725697    0.64856238801638   -2.07314099236371
C        -0.99898022642455   -2.03453429522940   -2.63364671908833
C        -2.31751501089350   -1.46257133744744   -2.71915629755213
C         0.08801026463810   -3.16325632510920   -0.69045169295525
C        -1.01807923996234   -2.99576922974118   -1.54432816447651
C         0.92579075225167   -2.98041214617974    1.58137180026955
C         0.89829649832118   -2.01456546602281    2.66640139529082
C        -0.25861672098478   -1.27234467550094    2.87945061083491
C        -0.17877867399600   -3.16127459595530    0.72829279058046
C        -1.49542590958730   -1.78823830383952    2.32099731808460
C        -1.45919202787302   -2.75895349485289    1.24280524814172
C        -2.51426840739267    0.40177447834435    2.85675228493936
C        -2.62735481539319   -0.99272692253356    2.47379198310602
C        -3.40134194466222    2.28380572345537    1.59291510222233
C        -3.96792976535973    2.11295310399307    0.25178254227454
C        -3.60609685600740    1.09317948732483    2.28606247871148
C        -4.17642246145263    0.02005789706205   -1.05799699082108
C        -3.74926770427027   -1.09145589642870    1.56058168259793
C        -4.46744482461629    0.78973245187456    0.11829953595233
C        -4.32194603625196    0.18914112636766    1.40479866858682
C        -3.14089212822045   -2.09820766812297   -1.75587661911139
C        -2.30912428871836   -3.02501311043514   -1.01748937347083
C        -2.55730284968751   -2.82594537116273    0.36102168985723
C        -3.96006414347394   -1.38463608811324   -0.86714662503045
C        -3.66690213013750   -1.91967513564125    0.45503761258938
