78
C78 Isomer 5101 Symmetry C1
C         4.69513749227180   -2.50806445374664    0.52737629774722
C         4.96966366138336   -1.49830334062799   -0.40178754011972
C         4.93824007908797   -0.21949559230968    0.25322688408475
C         4.23549925113453   -1.85587153928091    1.72897202816180
C         4.42170428614487   -0.44630441164555    1.57817520097303
C         2.93220210499642   -2.29054472358955    2.01888995890978
C         3.58518953297794   -3.26243296593599    0.00119271744684
C         2.58744781710654   -3.27191142085653    0.99191929316185
C         4.12624369024020   -1.70003612226313   -1.57260404617351
C         3.21912094803078   -2.79473939877397   -1.30009450891674
C         3.62309033878285   -0.59603866669287   -2.20883407076153
C         4.53341413849003    0.91500590927654   -0.47731152526263
C         3.93470534320049    0.74043990242545   -1.76170868823262
C         4.02781702196178    1.97903204249209    0.29226023537302
C         3.48071318269961    0.44553041734057    2.14802984730077
C         3.53699097034026    1.73790203132190    1.61338650036296
C         1.91413676338162   -1.40377595991110    2.50638854868165
C         2.19494790180559   -0.01469527400946    2.65400585508590
C         0.56085858259496   -1.83728789080158    2.41223084860583
C         1.27250177483691   -3.40000658641628    0.60757686168505
C         0.31755411578729   -2.99244811436492    1.60048825204224
C         1.85425045656998   -2.72027864390023   -1.65954304896250
C         0.90157369713381   -3.28219575780026   -0.76413782189802
C         2.26552385826122   -0.59030413408720   -2.71593555916042
C         1.34507831609814   -1.61580215903883   -2.44812338710907
C         2.86493112729090    1.57230971535625   -2.15681382577611
C         1.84516761933129    0.75415817607494   -2.76807868469537
C         3.19445367609679    2.98949711660473   -0.26511325822079
C         2.50392679042760    2.75670411006472   -1.46970686136445
C         2.52525345589647    2.69226132778230    1.92060482156012
C         2.47758191947374    3.59945095596299    0.82113282044644
C         1.08870159995260    0.89381732422488    2.79816443988374
C         1.34253352061754    2.30371132418076    2.58530262537535
C        -0.55263312546354   -0.96708042499277    2.65245241308419
C        -0.27744722377553    0.42664342440546    2.79523313605963
C        -1.91592278083941   -1.44092582926463    2.44672919810579
C        -0.95784445568215   -3.37227504793919    1.32925766283736
C        -2.07403559522051   -2.75989446087777    1.96758774005861
C        -0.48580066045927   -3.19518755788492   -1.06689957860818
C        -1.32533776935572   -3.70004073591257   -0.04051237056849
C        -0.06099555364712   -1.29446094097669   -2.50745212738753
C        -1.02384520290744   -2.23789694556940   -1.97645396861326
C         0.49914788150341    1.11367248392686   -2.77595750925711
C        -0.47909289538241    0.04874687824747   -2.76570333458369
C         1.16701744800753    3.28060277882253   -1.66009960342077
C         0.19656229673539    2.47081077363637   -2.38389104467876
C         1.33909115880735    4.32031927443888    0.56274606304577
C         0.69746763330922    4.23230498973799   -0.73672730451199
C         0.25069517908727    3.18821398060170    2.44123427943872
C         0.33051214605243    4.27884364951156    1.55308061401836
C        -1.38755349402146    1.34638289341142    2.55851096679964
C        -1.10591203181123    2.70110723648540    2.41089510146986
C        -3.01365514063940   -0.51476578318986    2.20643041472556
C        -2.68814587233840    0.88074053520268    2.09335389966373
C        -4.19505217190318   -0.99274239920580    1.54917642226458
C        -3.19612514749344   -3.15537435261191    1.17943169631833
C        -2.69115954645903   -3.58415750336621   -0.13896028066691
C        -4.24786280659659   -2.31441298142564    0.98921485726728
C        -2.44377629446190   -1.95629813095328   -1.95795469164836
C        -3.29101625831810   -2.77291174419272   -1.13858386359815
C        -4.43854664164965   -2.20675239662418   -0.48025395391181
C        -1.86917088589322    0.38876448461605   -2.61574325288381
C        -2.86825854082453   -0.60059119579850   -2.25748307738846
C        -1.15568054143185    2.76547068392130   -2.25367821574459
C        -2.15572761678660    1.75311676167501   -2.42665337495455
C        -0.70963680111242    4.40400105633981   -0.49780310405650
C        -0.94662271364192    4.43097433540751    0.90190660936931
C        -1.84688855505563    3.52671487802267    1.48087355943723
C        -1.62601034586162    3.71526497238170   -1.28118505694147
C        -3.42107468728337    1.71761880589259    1.18655280137394
C        -3.23906100586236    2.13526811371665   -1.57749252417513
C        -2.86004593033785    2.94508262048257    0.69966841718888
C        -2.80605132537380    3.18350488851798   -0.69579621009031
C        -4.79179885847068   -0.17539702372773    0.55467654432368
C        -4.78564543896349   -0.91518940060099   -0.72691061816263
C        -4.07517155644923   -0.12592159259005   -1.67490696708564
C        -4.35213904740508    1.10345248612031    0.30742772312891
C        -4.11090425872932    1.19937026512689   -1.12886929727613
