80
C80 Isomer 29164 Symmetry C1
C         4.25900058957407   -1.06382326245617    1.59640745207650
C         3.50136596048049   -0.34461640178385    2.55780812957743
C         2.38878819510027   -1.18265512404698    2.92036358040707
C         3.62094138969739   -2.31214990032059    1.34443183308548
C         2.45079309371669   -2.38191009620817    2.12991956434734
C         3.55977454454696   -2.52547803187445   -0.05904910930596
C         4.59377998080896   -0.49171206430261    0.34101094779372
C         4.16780781270860   -1.40295722940452   -0.70987046842889
C         4.42208642556778    0.86802404757607    0.17876003453091
C         3.32941877042568    1.05150037162917    2.40211295962277
C         3.86644394978776    1.66929588083455    1.23130141269350
C         2.12799683002469    1.59215982190307    2.91574704967122
C         1.13795696635140   -0.64537557807365    3.25319455448080
C         1.07490007722153    0.76167685034752    3.37365748638768
C        -0.06560682565796   -1.36790779478426    2.95979092263703
C         1.28641741865123   -2.99584247609810    1.64449849740105
C         0.02278626286628   -2.59411651174817    2.21732245736054
C         2.43431001735995   -3.18834063184255   -0.58331640199830
C         1.34774324751203   -3.55758405877464    0.31001297287378
C         2.14587170698833   -2.87732511764112   -1.93092341518466
C         3.65534136851825   -0.91285394336140   -1.92639149183460
C         2.71394938251220   -1.74852957330480   -2.57368801272875
C         3.96394089856132    1.39086805320379   -1.08778226172151
C         3.57117746146497    0.52932362107949   -2.13729426042110
C         3.19004880276612    2.75623484468574    0.61276203458182
C         3.27842419932937    2.60256053319506   -0.81705319422814
C         1.53754945249832    2.78604451102952    2.37869394367882
C         2.05168954574184    3.36746454242989    1.19714689610524
C        -0.16278076330442    1.46747247757467    3.19905488033523
C         0.13648234726824    2.73689604525287    2.61646095958286
C        -1.32239244026092   -0.64402819433853    3.01431071662777
C        -1.36801480278423    0.81536969576581    2.99223642072694
C        -2.48046962444227   -1.31437902176379    2.65676316950513
C        -1.17446263673710   -3.16414977518514    1.67415061841325
C        -2.41994838330012   -2.60388757130895    2.03139753195016
C         0.13036320299372   -3.90768989880485   -0.27931327381785
C        -1.10558642017758   -3.80854988520027    0.41613592835060
C         0.81283966084079   -3.04380076687992   -2.44425780430798
C        -0.14148950361419   -3.62497508538372   -1.66108736548035
C         1.67393123813548   -1.19723536175684   -3.41220455044882
C         0.46211673126652   -1.94137744216815   -3.27580739297381
C         2.56692746082073    1.02830032115211   -2.99967251237870
C         1.59654345849867    0.15428832546425   -3.60515031970794
C         2.24489471686792    3.06924915604443   -1.65866887745259
C         1.90771089996497    2.26193564546524   -2.76897072900551
C         1.11183782134475    3.99227727126353    0.34631625624578
C         1.20659711305863    3.83529537991606   -1.09199094813092
C        -0.80214705466053    3.36644750903494    1.78920657398057
C        -0.25634873563453    4.08014233801658    0.69269573394500
C        -2.44640401473512    1.54867081513243    2.34019312754311
C        -2.13948950000238    2.81406149593305    1.72390250803675
C        -3.63447207207145   -0.59613239158982    2.15022722733252
C        -3.59962529067991    0.80128610413284    1.91496840625547
C        -3.52300322400567   -2.67549347520567    1.15280732244311
C        -4.27579141719055   -1.45417412436872    1.24381884955202
C        -2.12723358236400   -3.56421294080522   -0.56272113517214
C        -1.50253895767689   -3.20681343017468   -1.79332888583520
C        -3.31491338007392   -2.95523520940843   -0.21669830481129
C        -0.81397807836182   -1.32981061218394   -3.20128313406318
C        -1.85142319829015   -2.02165903110470   -2.47571473199965
C         0.31753251971108    0.79054634219859   -3.62898219663704
C         0.53859256295009    2.12659316627633   -3.18431707856222
C        -0.88794294298402    0.10264672252227   -3.37499863378515
C        -0.10080895739340    3.81350706299119   -1.62883002523744
C        -0.98746144077577    4.11515536889110   -0.54527375919921
C        -0.49701937003775    2.85981634129590   -2.61023311324036
C        -2.93064154510590    3.22707842017701    0.61384943910308
C        -2.27897220195245    3.70865303706706   -0.59109193462032
C        -4.34759047881866    1.23607843477044    0.77915198213676
C        -3.99331037889982    2.44134026607481    0.17474895073302
C        -4.54914137520626   -1.02557661062927   -0.08860152755595
C        -3.81753734002672   -1.86223805765585   -1.01475402004180
C        -3.03013055599976   -1.29705091672627   -2.04070658490655
C        -4.62796051900479    0.31690553404180   -0.30859890453189
C        -2.01092077943215    0.86014305334318   -2.86905503062021
C        -1.81394922997796    2.26326280801298   -2.57210434877574
C        -2.74002600611921    2.90875243989868   -1.71675084975769
C        -3.85722854096506    2.22271281951631   -1.26639819135236
C        -3.12361500164003    0.13447222071959   -2.29572481999648
C        -4.06629751413865    0.86213790280886   -1.52567973185360
