78
C78 Isomer 9039 Symmetry C1
C         2.62226053918872   -4.36127382549849   -0.31719018062246
C         3.54671106682349   -3.29252306800625   -0.51446886343797
C         3.65599420745979   -2.53472448961056    0.69372059303740
C         1.99658899681419   -4.12524111486047    0.92673834623439
C         2.63702870256200   -3.03344025435142    1.58778852856359
C         0.57440770690046   -4.06352916172934    0.76326533428687
C         1.58774461954643   -4.23332387256104   -1.31085462002472
C         0.33027397920167   -4.20463900521687   -0.65726656566526
C         3.13041958135131   -2.55677804730591   -1.64857375961263
C         1.88410275916649   -3.13058804973508   -2.14660802092474
C         3.33757369799402   -1.17090498956902   -1.73929908381858
C         3.94109678982658   -1.15822527141028    0.61920498672392
C         3.92129678222312   -0.45396584003207   -0.64130391224946
C         3.55644073581744   -0.42736617925387    1.75596071309152
C         1.86246772734755   -2.13178024189848    2.34267477277515
C         2.49209754086295   -0.90018960337422    2.57659020209770
C        -0.20401730834442   -3.15736996112781    1.50323353831939
C         0.41268495268571   -2.15946186052585    2.33912461634834
C        -1.53575613607060   -2.93978037357302    1.02721224695351
C        -0.72056417665436   -3.49549075497540   -1.23044668400825
C        -1.80638517953677   -3.24915127548792   -0.33425659079825
C         0.85550258572845   -2.29878225241526   -2.64450586652025
C        -0.50272311770232   -2.58685239583945   -2.31370525198917
C         2.51302634933677   -0.48017730344159   -2.69509097096913
C         1.21087524697106   -0.96881326806636   -3.05329646985632
C         2.80342072934574    0.88664685512996   -2.83364195736835
C         3.90852990359307    0.98748009150367   -0.63583175381263
C         3.50353785513759    1.62497267729611   -1.81688703656113
C         3.55722179566894    1.00103329274582    1.78052479220011
C         3.81222304254733    1.73987511903411    0.60866128179911
C         1.76746670718114    0.23021721892438    3.03278185106742
C         2.55470106135596    1.39262162357261    2.72219268060990
C        -0.33074971667737   -0.97901347986315    2.65409780746138
C         0.36736181236222    0.24357222446337    3.00135079241889
C        -2.38263850920682   -1.99713253322107    1.69395224479555
C        -1.75025737262400   -0.90476031899196    2.38094368316939
C        -3.70704693240338   -1.85151549036943    1.17762791295001
C        -2.95245963198298   -2.73588562308581   -0.94394045588740
C        -3.99718145017504   -2.28728518507662   -0.15388533602478
C        -1.54076118578634   -1.62359124258017   -2.59807445286072
C        -2.81196226493200   -1.85816882721190   -2.08436802176104
C         0.16216403175258   -0.02972550452153   -3.35136295430141
C        -1.21052476264829   -0.29021795970311   -3.02032183832368
C         1.85767331397300    1.72835127717337   -3.43512653303617
C         0.52399293971197    1.31523703258201   -3.55524232813951
C         2.94117538745455    2.96669301870354   -1.81948653487320
C         1.90106943986218    3.01403490932920   -2.78735078226434
C         3.27750179042246    3.06553720694058    0.58461057727789
C         2.74814588340563    3.64297339212227   -0.63817197819138
C         1.94661720399983    2.62209353963935    2.61032068713563
C         2.44383323004364    3.50438372244888    1.62067849302948
C        -0.26536781413768    1.52635128809771    2.79055950885920
C         0.51019386504945    2.68001408280688    2.61761453979790
C        -2.41759623842083    0.37848231329560    2.38737790744715
C        -1.62294863167272    1.57301407398065    2.33337220392507
C        -4.42145607577287   -0.65487235321318    1.37149295343604
C        -3.75983037273312    0.47344018284615    1.90001974730590
C        -4.65950293129851   -1.20463899784598   -0.86857518052243
C        -3.81113267885449   -0.83088165206506   -1.95220950909739
C        -5.04877613241275   -0.27122534081396    0.08825862742899
C        -2.10394794612805    0.78206446489046   -2.68799829547651
C        -3.41106899106226    0.52469602922465   -2.13303703955523
C        -0.28580875308525    2.37237177519900   -3.02080540647685
C         0.58924093038903    3.38438086398024   -2.45954480195800
C        -1.52753267903844    2.09747990949366   -2.49098049724651
C         1.45148970003432    4.22996851105213   -0.36409742404539
C         1.30418660608705    4.18142236797977    1.03352969542048
C         0.14634254912575    3.66682220027427    1.62184597129244
C         0.31540721343080    3.95724848269887   -1.18721600010423
C        -1.98818573416642    2.62741337332754    1.44354070477508
C        -1.92835271452883    2.89559434736393   -1.35125206067573
C        -1.00312790969731    3.46742350650401    0.84224243554130
C        -0.93392968976108    3.62186418857325   -0.57806635023249
C        -4.13267750998221    1.58303118123534    1.08138388990635
C        -4.76282730107787    1.07265666014747   -0.13769389165781
C        -3.96618759704598    1.48680316560392   -1.23391280350969
C        -3.18013174847237    2.50996223164029    0.70898411833928
C        -3.10267436564869    2.53805856660396   -0.73153092136050
