80
C80 Isomer 3558 Symmetry C1
C         5.81758540995911    0.35036853750557   -0.34698547789327
C         5.30709888048063    1.44101544602583    0.44645993965172
C         4.84192501709206    0.91060565066736    1.65199119523928
C         5.42501252105557   -0.88978455565396    0.29914782328686
C         4.90657906148989   -0.56091258155186    1.55262473669181
C         4.61074048514877   -1.66981573421033   -0.60041215419420
C         5.12502204394886    0.38790800247916   -1.56896022012805
C         4.53858589646322   -0.90162452215493   -1.82510223300533
C         4.35476043469464    2.18066842276776   -0.35109017816795
C         4.26263505302083    1.54460179894162   -1.63399156515595
C         3.16801218410229    2.66821889094380    0.22083184339410
C         3.56738590296215    1.24611385441805    2.15164429805982
C         2.77954220537444    2.24828237558053    1.54408421900397
C         3.65497809720882   -1.05817890317604    1.96360863851855
C         2.86765520872287    0.03778954911710    2.47413970396561
C         3.43668840733036   -2.30846066623650   -0.14083900448280
C         2.97124798131869   -2.02459746516818    1.19626146330337
C         2.39877470062539   -2.60074657756042   -1.11406354286656
C         3.39995722770771   -0.93612592015211   -2.59878870588665
C         2.41103458431598   -1.92993891611317   -2.34460503702833
C         3.03597876941553    1.48151625350540   -2.35006372805903
C         2.70392615377300    0.26645278197072   -2.97918628089708
C         2.10244849406543    2.98120446036762   -0.69764873830545
C         1.93797069874910    2.31414841010142   -1.94856032893772
C         0.96466584550654    3.51764671226670   -0.11108112624805
C         1.39785987107591    2.27678389434816    1.92613543297810
C         0.62214667321986    3.21108080133421    1.24302119956275
C         1.46904871210511   -0.02946544730552    2.56852974139248
C         0.68611678770675    1.16246015345150    2.47611150012124
C         1.59776613426641   -2.21666098621203    1.52357243585802
C         0.84929708891295   -1.27867691387060    2.29667066374931
C         1.14553421098046   -3.11642259004144   -0.69645030882450
C         0.85804803536797   -3.12179767528634    0.70776116792512
C         0.00575205034612   -3.04430016671587   -1.56968267100686
C         1.17526043509274   -1.45949918494719   -2.89519240164284
C         1.33639924952256   -0.08024577594022   -3.18754767238751
C        -0.05088757560395   -1.98309455325243   -2.53087282091651
C         0.59346708868893    2.06258997500301   -2.41536486615842
C         0.25948390985952    0.79126628945826   -2.97216110362643
C        -0.24514013026894    3.66665094912142   -0.82639416827568
C        -0.50424068266882    2.83569939992116   -1.92585877282054
C        -0.78073624176309    3.27183408314284    1.39220776923977
C        -1.26480982528183    3.83195862239038    0.16823003700163
C        -0.76236656099449    1.09375890054719    2.43897869500905
C        -1.52081420514287    2.24285168939287    2.00840529631858
C        -0.58399949937377   -1.35656290800562    2.40475259726369
C        -1.42309449225279   -0.17277596013162    2.47859644338865
C        -0.41816984296209   -3.44025728150993    1.14756056827190
C        -1.14156017682002   -2.57998170859699    2.03870782654392
C        -1.22383758283678   -3.52315311587630   -1.11703310701162
C        -1.36448715668832   -3.94178302710800    0.22191919596089
C        -2.47119910529573   -2.94259843490868   -1.56298878029504
C        -1.23670561588345   -1.17242006625898   -2.69313712624942
C        -1.08057227913111    0.22918174327950   -2.86522061307351
C        -2.50078470534121   -1.71680462683048   -2.25833570515475
C        -1.87363915324485    2.44283729879384   -2.19354253884083
C        -2.19784494741704    1.11083426426003   -2.61407871982689
C        -2.55705371313731    3.67796503536928   -0.17285120859164
C        -2.87864789705107    3.17094226952965   -1.49721071029973
C        -2.93476333016115    2.16528586326737    1.72565855799778
C        -3.45967008062701    3.09295628333824    0.77636818936124
C        -2.85600882043993   -0.27189207809285    2.22511334808382
C        -3.63821981358841    0.91707780019416    1.93115742048332
C        -2.53846822479452   -2.68076721521877    1.73214716801976
C        -2.67652678545943   -3.58951894201362    0.65780712428343
C        -3.40628541791206   -3.16921393729907   -0.49397724795920
C        -3.39243711610850   -1.56207722699663    1.85841626182378
C        -4.41694138658037   -2.28226813113696   -0.29085174264392
C        -4.54237366235600   -1.62658807230927    1.00987075161466
C        -3.66282013502790   -0.86122122105224   -2.15515108845959
C        -3.52804546760774    0.56223906035281   -2.41066598839987
C        -4.70922774936231   -1.30311858166238   -1.29728025507159
C        -4.17697159936950    2.69740512960545   -1.41680602068946
C        -4.60202364573319    2.78194659569218   -0.00117751195087
C        -4.55475039699005    1.43171888159645   -1.91528431831172
C        -4.92824867173438    0.77112970049079    1.31272508829495
C        -5.30609863979130   -0.49453981407154    0.80882061033144
C        -5.55256987946495   -0.36782517076157   -0.64124409277332
C        -5.36621761867491    1.69459706605016    0.29409363275710
C        -5.53513168073403    0.95112375880110   -0.97339270223279
