74
C74 Isomer 11866 Symmetry C1
C         4.42645570477152   -1.32901157126034    0.71300384653981
C         3.68155048661554   -2.26215746141542    1.37373344319595
C         3.10831692368880   -3.15852809647378    0.36033181992418
C         4.27014587438261   -1.56759484453568   -0.73478698514678
C         3.28345663031619   -2.58333993098416   -0.92534160396505
C         4.16199128649598   -0.33711107187987   -1.33800478005952
C         4.24235479684779    0.05336343218486    0.97180867904793
C         4.42766035024339    0.67575658951058   -0.30953707059093
C         3.20897351001957    0.50871969852974    1.83501060233881
C         2.62516621704592   -1.85497679659064    2.23802167849798
C         2.33251161295302   -0.48352619223219    2.44801837015797
C         1.84715889649751   -3.52022285563104    0.79661920966426
C         1.55349189086469   -2.77120424218420    1.99372086491526
C         0.83435939685969   -3.73647302039587   -0.16011115134172
C         2.13620118488488   -2.33877549198430   -1.74654515963808
C         0.93135366201152   -3.07699276819941   -1.43954121323044
C         3.11722565448383   -0.09698817741200   -2.29697966761616
C         2.04778695854399   -1.07173287507477   -2.44464305256602
C         2.87517525946388    1.25529939126050   -2.55984767804013
C         4.02319543907238    1.95890498257190   -0.50200485390599
C         3.48188247152612    2.29440553123998   -1.77619390149728
C         2.72348551317731    1.85695638452024    1.60510655160188
C         3.24938258140236    2.61385279781342    0.53246128245281
C         1.44346585196944    2.24411827336516    2.15226720419973
C         0.96312977657441   -0.14288840603063    2.79036664364826
C         0.60212685275683    1.25387996546159    2.80494055904300
C         0.22989440749798   -2.45045321994364    2.30603095624335
C        -0.08058586939377   -1.13291597215508    2.77920732659475
C        -0.41994367123804   -3.91706311670975    0.44642152387954
C        -0.74719400818344   -3.23372226679639    1.66856187416861
C        -1.56024572291717   -3.89578402167607   -0.35417981392116
C        -0.29372289008393   -2.74059598060638   -2.11080708119049
C        -1.51539672529162   -3.29583337512701   -1.62603624762480
C         0.76839139724930   -0.61474215644810   -2.90611602400470
C        -0.36599082484752   -1.50274475157554   -2.85170131666188
C         1.55952163993306    1.70703141251363   -2.89696387422071
C         0.52021973714091    0.80247028256705   -3.07017117921160
C         2.51698857708460    3.30435949364022   -1.57028294070381
C         2.43003642814524    3.56456054625027   -0.16799374425836
C         1.32538751704936    2.97945706947989   -2.28250837303891
C         0.80431413287442    3.37375894723319    1.60487374801797
C         1.20170898578287    3.90222252023904    0.33883360028374
C        -0.61329987905007    3.54656756459199    1.66679347936002
C        -0.73834402108555    1.57007008991756    3.05986001713767
C        -1.34602822415346    2.77037429991898    2.53312494429296
C        -1.47901082482052   -0.77108659890677    2.76739336362280
C        -1.76313811224226    0.56429975448510    3.06119680417296
C        -2.11975881461695   -2.80179971211518    1.57990466912903
C        -2.66144116983922   -3.31827278660021    0.39174038891954
C        -2.49198484638341   -1.52899845442644    2.05063219090454
C        -2.77836247784337   -2.61654396804796   -1.77459092380100
C        -3.42324827418772   -2.52296680819432   -0.47914857452529
C        -1.63359895909305   -0.96538908473559   -3.15374575773853
C        -2.85062073417777   -1.54143903585575   -2.62922283815114
C        -0.80715785216479    1.36083572679720   -2.95057791601521
C        -1.84569815909633    0.45437098984694   -3.18942608301853
C         0.05806967576256    3.32133638859030   -1.76206278419859
C         0.02607998021534    3.95339051365159   -0.49893502826932
C        -1.10875499200046    3.81217342071034    0.34371294548081
C        -1.07752531815886    2.54627159682621   -2.18498575686617
C        -2.31480980399423    3.24261503898909   -0.12473895546405
C        -2.31561328475891    2.66723350175051   -1.45063060599529
C        -2.68164869899416    2.49064184964149    2.17528918329593
C        -2.96894437537396    1.13233891043193    2.58571668444226
C        -3.16492349050691    2.67509381341953    0.87341518979710
C        -3.56566318502664   -0.86141287798322    1.32893245730794
C        -3.96376560450217   -1.30693396415205    0.01045585455514
C        -3.76456241594406    0.50680749249074    1.62699865083019
C        -3.97834986595500    1.50245068266795    0.58596857183803
C        -3.74588558967467   -0.49795317670554   -2.28743024220971
C        -3.13269888572128    0.74803410793722   -2.70596938542637
C        -3.34120688606992    1.73867648015195   -1.74583436838406
C        -4.23988609224005   -0.32450159994481   -0.99044778006914
C        -4.12660671257359    1.09797718979216   -0.70143046693578
