78
C78 Isomer 5037 Symmetry C1
C         4.17669488264532   -3.03288704168448   -0.36816878327665
C         4.82497196056783   -1.80925363582808   -0.16565399800376
C         4.50069998823095   -1.33054779709512    1.14700177166301
C         3.36125862730676   -3.31385505116576    0.78697010057034
C         3.54787859831597   -2.26480497561791    1.73210479381575
C         2.05121457761522   -3.55288531143100    0.33573224427408
C         3.29565496184175   -2.88287393346106   -1.50289772051481
C         2.01252957363630   -3.29028833607812   -1.10708706125505
C         4.51140043843592   -0.96665883892278   -1.30356970045761
C         3.45078565484249   -1.59446185074656   -2.08302434639634
C         4.43997817190506    0.37462986982342   -1.08864360445490
C         4.37374582704517    0.06091990191675    1.36727916944364
C         4.52737408143105    0.94385708857157    0.25159735237467
C         3.45892940157554    0.48129547487519    2.36079255677214
C         2.43479194747412   -1.78515737547823    2.46716169794611
C         2.49637825080866   -0.44429883833123    2.89021675150573
C         0.94599175300592   -3.17303908133287    1.11343810255079
C         1.10686817222582   -2.32531464932289    2.24619141639905
C        -0.30756900168876   -3.18535696689452    0.42391466917940
C         0.89899647917991   -2.64304218533786   -1.63907342019463
C        -0.32289525254841   -2.91343101022175   -0.95656920368605
C         2.31716592892384   -0.84602055420907   -2.49983461410941
C         1.00660872491078   -1.43893461852037   -2.40307895043642
C         3.51886210708024    1.17041298534745   -1.84358396641222
C         2.40000435636559    0.59545811112171   -2.48290551435632
C         3.90437112206420    2.20477582574344    0.21455975759706
C         3.42236102105823    2.40808383739683   -1.14477088194440
C         2.85266837314896    1.76579025042806    2.33865043890676
C         3.09902293067634    2.68094304119582    1.29501504852088
C         1.32152956103833    0.28387423691671    3.20615826634033
C         1.53011049443997    1.64863317294093    2.90434367878971
C        -0.06973523440886   -1.63530679390262    2.71895056009785
C         0.03692103501488   -0.28913269219895    3.16914368061309
C        -1.48680390953812   -2.96793778231018    1.18894952322541
C        -1.36778964176873   -2.12354697669197    2.34430690964986
C        -2.69723824550650   -3.06314565519295    0.50953361789198
C        -1.51397300797818   -2.46766430082485   -1.57049719063750
C        -2.69440929360743   -2.88192549084684   -0.92352257365054
C        -0.19266841167531   -0.65939784436324   -2.58256785218210
C        -1.48701313341699   -1.28188512729106   -2.36366026750304
C         1.19802138287710    1.39047882629777   -2.59074439462861
C        -0.10366806388729    0.75803896516173   -2.67263698898295
C         2.36867990322079    3.23724041411292   -1.40897019674281
C         1.26612143453046    2.73535046006880   -2.18498493092459
C         2.06088052393898    3.61136950068610    1.00694358741568
C         1.83641521202027    4.01814409754843   -0.32880395790980
C         0.45484707795500    2.48257035777200    2.52863597168717
C         0.76973055469652    3.53574798226361    1.65239950651219
C        -1.08061603800488    0.60917368473759    3.05514546213415
C        -0.89014263026709    1.95829885302657    2.59704156311405
C        -2.50546734092911   -1.36691397136403    2.66987653181114
C        -2.34671911686964    0.02597995033622    2.92741103021713
C        -3.91479152917880   -2.49064433659710    1.01797225528946
C        -3.79150505442183   -1.55438587953050    2.04541649297454
C        -3.91018682463084   -2.33498212466219   -1.31335767605376
C        -4.73971756366381   -2.17401276232391   -0.10811921765113
C        -2.71143597668239   -0.54006319461662   -2.49022270704064
C        -3.94577338099309   -1.15709060392797   -2.08918849320397
C        -1.29698505400979    1.50936542056443   -2.38298008974932
C        -2.59070768069139    0.89193531060005   -2.37833622237179
C         0.09437908326321    3.37543834922527   -1.66145169137006
C         0.44180260711686    4.16627357796940   -0.54078815634232
C        -0.22521224189835    3.92196414712657    0.69912404489713
C        -1.15271076597046    2.75929918015491   -1.70565339822457
C        -1.91954737243327    2.51776297216104    1.77733043776517
C        -1.48961717926138    3.35872790923170    0.68943920343564
C        -2.04478887669750    3.06341623105745   -0.61632825269816
C        -3.47338273010559    0.71078067051566    2.37619787742241
C        -4.43372974624631   -0.26636625060377    1.92336997492379
C        -3.21883797008669    1.91271461024876    1.69054575955513
C        -5.41047303324351   -0.97968696739585   -0.20707263879565
C        -5.01250146291151   -0.38219078362177   -1.50584051035904
C        -5.25781030486523    0.01939167246014    0.81922702500429
C        -3.63561213765046    1.60350357356619   -1.73157917062443
C        -3.29050279524138    2.50646346387334   -0.68059852747748
C        -4.01221536598062    2.13429763498539    0.52108056639307
C        -4.82022626111019    0.95299127894247   -1.28782615163789
C        -5.01666715236064    1.24999869897363    0.14342362358090
