68
C68 Isomer 5172 Symmetry C1
C         3.96214869085136   -1.29310151204745    1.54540049521023
C         3.85201810114501   -0.01969631140282    2.04800656214109
C         4.23396207587876    0.92978161163494    1.00340200275533
C         4.25365939784381   -1.16579579610395    0.11995554691110
C         4.30121165131821    0.22798946270999   -0.22104332354273
C         3.40524056176912   -2.02478723335818   -0.54540870452660
C         2.89941140636804   -2.21886002540595    1.71591248756853
C         2.70857306593532   -2.84566111630023    0.44930307246855
C         1.75552726516060   -1.85314375977886    2.47879318147768
C         2.63768723924598    0.44110574721105    2.64455340439433
C         1.56500793239277   -0.45468608339816    2.86935612694767
C         3.41386718747963    2.06258087965363    1.15940115593710
C         2.39832001059390    1.76421438994853    2.16477973856555
C         3.06992265860641    2.75282761303127    0.02010551373319
C         3.56911292971557    0.71447321745214   -1.35059665247758
C         3.21706093758539    2.08824861126614   -1.26073942144206
C         2.67837814936207   -1.57960974559777   -1.70820323991826
C         2.68491311552280   -0.17487464558305   -2.07734336854558
C         1.61093105862892   -2.38047948490005   -2.08499543698577
C         1.53206970679845   -3.52044316741765    0.13300280020722
C         1.11921743400206   -3.47428581226692   -1.23426235919682
C         0.61864746035173   -2.63489963848135    2.21984889178278
C         0.52250354270787   -3.55692777515958    1.12960875281473
C        -0.68523417217800   -2.14739321998836    2.51492652119361
C         0.24935204407355    0.11165225769654    2.92914146994286
C        -0.87730839908208   -0.80539853869018    2.91496050978387
C         1.10643522277578    2.28863456525173    2.06112057849135
C         0.01765339457513    1.49205697879748    2.58370767199020
C         1.84244412102585    3.50406303638880    0.01571566345076
C         0.87240615539875    3.30399329957669    1.04410988850291
C         2.18189131696117    2.59027670272558   -2.06189245033547
C         1.42301105028774    3.57425208562757   -1.32735160497619
C         1.49082904969328    0.34815352225394   -2.70956651247658
C         1.27073208092177    1.74019017816658   -2.71397071290697
C         0.47968337063799   -1.84947822619916   -2.78818112069137
C         0.30307049686345   -0.45192965002434   -2.92065124539349
C        -0.21442827000378   -3.68234537359382   -1.53987139789012
C        -0.60886852165012   -2.69604702019498   -2.53106650270900
C        -0.86626528763884   -3.65802019232388    0.78513731477714
C        -1.62074659995283   -2.81832878308961    1.67424042147446
C        -1.24485874795327   -3.72017728846004   -0.55119819795246
C        -2.83213903792222   -2.20520119274762    1.29808678791638
C        -2.18360836375326   -0.33436070155216    2.77694044867588
C        -3.18296911177119   -1.07427677832861    2.07404691515834
C        -1.33102695412905    1.95527588492299    2.35326597696214
C        -2.43382090976951    1.08169953678011    2.58984262643304
C        -0.46017510344333    3.55039808257348    0.67804960296399
C        -1.55388692272520    2.97864599515233    1.40184908731074
C         0.07276871330744    3.44283826301706   -1.69259719225901
C        -0.05649303277941    2.29430623707952   -2.56744264268705
C        -0.86392592973560    3.63248017215147   -0.69440639269171
C        -1.02790768927443    0.08211124608169   -2.78501262428718
C        -1.19795380545525    1.49661903010691   -2.51696124863659
C        -1.85895902745574   -2.18739247761320   -2.19571652762538
C        -2.32043312061721   -2.87116612804342   -1.00438157208254
C        -3.18003380525305   -2.21360448797799   -0.11749185956659
C        -2.11028838828418   -0.80197130667530   -2.41091759486321
C        -3.83280036529553   -1.06587868311798   -0.66158164539278
C        -3.23694374883958   -0.32379218916791   -1.72908326299322
C        -4.10180286418008   -0.11372443413698    1.55643353967912
C        -3.65313897590333    1.22394264553004    1.92293728836037
C        -4.42253875260439   -0.11441804730974    0.21103848646357
C        -2.68598307966022    2.91618622771803    0.51281065133144
C        -2.14877380020100    3.02347095439233   -0.81879914647433
C        -2.34407569028086    1.98816161865185   -1.75910863244490
C        -3.40525223924209    1.09184906903304   -1.45879427514792
C        -3.73860492090763    2.05378091128439    0.76278797700687
C        -4.19042295784341    1.23489679256944   -0.31394229166466
