48
C48 Isomer 115 Symmetry C2
C         3.83781709908204   -0.78065662669438   -0.29862374112585
C         3.65088140405609   -0.03422378023801    0.95721325951116
C         3.48195497727162    1.29836847531942    0.58233720260362
C         3.35196759742447    0.06543127593836   -1.38666888146084
C         3.24270372191687    1.34761858703197   -0.89548320375834
C         2.22470140347202   -0.59419572729752   -2.01499890851435
C         3.07810081945854   -1.92826132304481   -0.26490217550608
C         2.19896599026775   -1.92244454532942   -1.43672610215899
C         2.63223387191311   -0.68992355617660    1.70892701465490
C         2.43326912451454   -1.97792700070635    1.04064994062494
C         1.47706062318544    0.01278478794989    2.20016027564513
C         2.45233163634559    2.02288123508845    1.16713357111083
C         1.45565362003208    1.41914907621189    1.98298001611940
C         2.04847382391061    2.08786078835148   -1.12894625479547
C         1.74441611490093    2.73087820658558    0.10187760874208
C         1.01298949665433    0.09130727957696   -2.27024949007430
C         0.96599148341129    1.51168243001144   -1.90361823096213
C        -0.24834340996652   -0.66548950487940   -2.28835662457569
C         1.00905836180623   -2.58056520913248   -1.33741346167634
C        -0.19517787484314   -2.01439684065362   -1.88729700537172
C         1.22699189301675   -2.60074034767042    1.13330729714196
C         0.65961315735816   -3.19768198187872   -0.06509409563917
C         0.17178605664192   -0.66341234215989    2.27421363131188
C         0.12821470096264   -2.01271365436300    1.87318405690102
C        -1.09501541108819    0.08439176573621    2.25561129177463
C         0.19719646365324    2.08476393263935    1.67744692129450
C         0.42846688340478    2.90211143674326    0.50476046140979
C        -1.05819082783927    1.50505551651626    1.88855112539936
C        -0.29346791220885    2.08256830648623   -1.69266207873350
C        -0.53058580732777    2.89852354881168   -0.52023392347346
C        -1.55839148538886    0.00140716248884   -2.21479658768866
C        -1.54715029508793    1.40792687379493   -1.99807303677385
C        -2.70861217682428   -0.70935348807679   -1.72334712820792
C        -1.28989252627094   -2.60992274767018   -1.14714402949971
C        -0.71819200578770   -3.20261554057657    0.05128971361588
C        -1.07189828508164   -2.58749419109297    1.32335512528158
C        -2.50059507476588   -1.99575380703335   -1.05480354997456
C        -2.30180557968466   -0.60978935770992    2.00040200189123
C        -2.26646209225654   -1.93786656147084    1.42246739382819
C        -3.14564385268949   -1.95040527779304    0.25070024003222
C        -3.73205097709644   -0.06080466272734   -0.97186076826463
C        -3.43383704200324    0.04162098550787    1.37188390733651
C        -3.91360579833924   -0.80827882515621    0.28418491548074
C        -2.14488070559107    2.07321620415738    1.11360016952302
C        -1.84534925840400    2.71802437193749   -0.11732357141151
C        -2.54820456401913    2.00482926542922   -1.18245167639332
C        -3.33381014178334    1.32441028505901    0.88032656532805
C        -3.57267722031293    1.27310510215866   -0.59748918052224
