80
C80 Isomer 606 Symmetry C1
C         5.79671154975576   -0.91649533039993   -0.71416118584491
C         5.93556612622341    0.49519597284530   -0.69958893143094
C         5.45277291220128    0.97160087971946    0.57497857178932
C         5.18577378791302   -1.29348062858032    0.52116157416080
C         4.93891485327290   -0.12590910768143    1.33417198042454
C         4.07076533133787   -2.14583598139827    0.27373921047345
C         4.82044250910832   -1.25883851305159   -1.72349088206342
C         3.87559427486486   -2.16934845120578   -1.16766572081122
C         4.99596441962198    1.01574944441417   -1.64693279655001
C         4.29067840282062   -0.06339770993702   -2.29569423866529
C         4.57751389070240    2.08583967668591    0.33872719707735
C         4.21174834467837    2.06117041797671   -1.06625761242582
C         3.58531021593031    2.30694315909571    1.26021527929994
C         3.72099181750496   -0.01169154503052    2.07302643955316
C         3.20336679438971    1.29440664729586    2.21518197057501
C         2.93857265851422   -2.10824735940798    1.09124367742928
C         2.72128476834762   -1.06868332492632    2.06007094311181
C         1.78578563344676   -2.76768884097667    0.55274511343720
C         2.58498706261360   -2.18392815986910   -1.66635850777847
C         1.62213196942441   -2.84854889928635   -0.83552110813734
C         2.91134157680095    0.05545077266377   -2.58198099038907
C         2.09767117451996   -1.12183534765278   -2.49912789058135
C         2.87577525407852    2.24576790154424   -1.44953299774389
C         2.22291889890468    1.30178703631604   -2.33050686284634
C         2.38340713037944    2.95243798402035    0.82998995811181
C         2.00938358096273    2.92189480753232   -0.51714717556954
C         1.83637922123737    1.51340407065032    2.52724840554086
C         1.38123846255634    2.65808908983531    1.80906902805153
C         1.36777641109023   -0.84476112883284    2.49367298355677
C         0.90564755919715    0.48634076135891    2.75549135116110
C         0.63188155995306   -2.89681713810463    1.37505863981438
C         0.35010449603611   -1.85651316330257    2.30987195936146
C        -0.40470384090257   -3.66851119328450    0.82627150200744
C         0.34917598450437   -3.10096044159962   -1.40611390381167
C        -0.56937720430739   -3.76851809868156   -0.60264528328668
C         0.70175206605140   -1.04980158235098   -2.74252696184069
C        -0.10197163346741   -2.21101261386127   -2.44482997068095
C         0.82042732985436    1.37353404127743   -2.52225343408144
C         0.07345955936642    0.21713426304324   -2.93161958744102
C         0.62798513285057    3.08332767999336   -0.81578629238852
C         0.05363569559127    2.46153608036691   -1.95351293542624
C         0.05495594961592    2.89522887039517    1.56848340665468
C        -0.25503737055924    3.41636170945757    0.26539791220152
C        -0.49599096821045    0.83205757060852    2.74344844026494
C        -0.92806023408531    2.10487472473035    2.25368401079844
C        -1.02182743848921   -1.58813060367613    2.64309098624699
C        -1.46004157289207   -0.22209510763990    2.83917757810545
C        -1.68219545370645   -3.59183048420323    1.39264185502504
C        -2.01278341634853   -2.52905491677544    2.24296284001431
C        -1.98049593808251   -3.73056161036421   -0.88577846709786
C        -2.68233513056456   -3.68591777510417    0.33903608199129
C        -1.46833124784830   -2.14366208565214   -2.67771161860486
C        -2.43017122339290   -2.90603821295088   -1.91207600407034
C        -1.35290621549826    0.29345124996188   -3.08656145054307
C        -2.07491188662020   -0.91235354824957   -3.06130140785329
C        -1.35086106281658    2.59205415576723   -2.20123532528678
C        -2.07586993501734    1.52429941995593   -2.84792204106285
C        -1.57072136743779    3.65464325936887   -0.02574083736119
C        -2.07405278021500    3.46544911970728   -1.34325527107711
C        -2.29890058548232    2.39104489474140    1.96617517764517
C        -2.61625421922094    3.33926142368298    0.93602041852647
C        -2.81464297093396    0.10444801810360    2.63759266385969
C        -3.25216484278206    1.39375120884646    2.21983529122010
C        -3.34430361785227   -2.11754067990639    1.84051869713911
C        -3.69549804394395   -2.75077995663745    0.58264748601287
C        -3.73727679038748   -0.83546926078965    2.06455628266366
C        -3.60136405989660   -2.11454893526439   -1.73794617024482
C        -3.42856599709407   -0.96574050481460   -2.59452067219444
C        -4.23194733754210   -1.95745620924871   -0.47590217347903
C        -3.48155390014450    1.44949783108033   -2.66968355711372
C        -4.11460610577118    0.19036404917681   -2.37974070393289
C        -3.48305865539510    3.37581485842487   -1.19315914148460
C        -3.81469496764077    3.27882406848906    0.23558118880774
C        -4.17425516785448    2.39392557521673   -1.85954470786263
C        -4.43881284804445    1.24820631820530    1.39918169268205
C        -4.61809120329533   -0.14693227872010    1.15046977664428
C        -4.81300909078202   -0.66679146687230   -0.15137013587251
C        -4.94268671604320    0.31411021576289   -1.18659300430883
C        -4.72085829617266    2.18487186282463    0.40250277277721
C        -5.01760302948173    1.67457710514812   -0.89564238497257
