76
C76 Isomer 9259 Symmetry C1
C         4.99731907964745    1.13818017842049    0.02235330228443
C         5.00988226666709   -0.15017577498927    0.49710136548146
C         4.66109943497862   -1.06198203160792   -0.60226410006390
C         4.68629056025696    1.05404505226288   -1.42534836287073
C         4.29797734408429   -0.29109968151403   -1.73355807696193
C         3.83303475220257    2.08817710958119   -1.71041861802297
C         4.12617919806945    2.09777692457155    0.62180917190026
C         3.54918900664803    2.81234285397545   -0.47124831826998
C         3.29611466996116    1.73875317182168    1.72505222185200
C         4.27286060712844   -0.52728960205121    1.64633390843947
C         3.42028807968921    0.40414992641090    2.29394219282308
C         3.85571210911741   -2.07609297508585   -0.07420549962821
C         3.76887248715734   -1.84870522527508    1.35344956602697
C         2.73108433962453   -2.54311947849017   -0.79464235423034
C         3.04940043093901   -0.56216400342327   -2.36006676298849
C         2.39466063252941   -1.80145599846221   -1.98868822825763
C         2.59844786791849    1.86072937157540   -2.38512036989932
C         2.21192906143528    0.55671507419782   -2.76187328273258
C         2.20090670799209    3.14567611192664   -0.50178128694445
C         1.62102926308058    2.68291933496167   -1.74217196474815
C         2.01065946809743    2.40613317879232    1.81451042716655
C         1.42683851646695    3.08198083599745    0.67483965798499
C         1.09355418493102    1.94170308030157    2.77122164102400
C         2.31475323451159   -0.16545548792018    3.04483317215752
C         1.22098719504219    0.64573626624681    3.36871709166528
C         2.69194302318889   -2.35373364686259    2.01901219604605
C         2.00087731661738   -1.54400636830453    2.98507225444141
C         1.69432577892302   -3.24389301253517   -0.06186455169132
C         1.74733684485966   -3.18598576666211    1.34526626762625
C         0.39897077848262   -3.48202559979015   -0.65642466401771
C         1.10922922095053   -1.99936564816392   -2.49308600697254
C         0.16294871561311   -2.92144034927859   -1.93339686032069
C         0.80096704061064    0.38029493807619   -2.99348444300410
C         0.36499590636558   -0.94577136931106   -3.10014420308416
C         0.25610338202733    2.45462621922712   -1.84044742367661
C        -0.19655343258778    1.36623932716750   -2.65662973955057
C         0.01729911816047    3.18833357271490    0.48983327769358
C        -0.58344558992967    2.96815089929448   -0.79974589173986
C        -0.28054912799730    2.26372766538299    2.72103257831054
C        -0.81352360828546    2.98524700134014    1.63587234776546
C        -0.09491913860854    0.14067128043240    3.58061071612173
C        -1.02878034467712    1.16767623802513    3.26392764799605
C         0.66660921524096   -2.03481111095910    3.07745091269756
C         0.54756325569844   -3.10426655559205    2.12937689101795
C        -0.44864424394566   -1.19622815336531    3.33255801376034
C        -0.74194561383164   -3.65526876779587    0.16534857625152
C        -0.66837938862994   -3.36065024032802    1.56053612091697
C        -2.05095749338885   -3.27472621988868   -0.25158418831661
C        -1.13192425461360   -2.52978041559105   -2.34641998743610
C        -1.00394873089306   -1.27314264710813   -3.04513003174688
C        -2.27252375535292   -2.76461090630487   -1.54713900749158
C        -1.59458143762762    1.07169980796601   -2.67724462706166
C        -1.99153085303678   -0.28450518189175   -2.97462467295728
C        -1.99487070345314    2.82888353048809   -0.95867519562813
C        -2.52534235044990    1.95308213624163   -1.99260274742566
C        -2.18822484638324    2.93511503690778    1.47463608103831
C        -2.78601629805750    3.09879607046099    0.19008460101443
C        -2.34936126213523    0.89876512316273    2.87880483667220
C        -2.99075436964147    1.99347652890894    2.23261319528581
C        -1.75683218656630   -1.48282093489944    2.76160034138035
C        -1.84554666156972   -2.62295842298116    1.94943417647992
C        -2.75052478728140   -2.68794107231601    0.86008962274382
C        -2.75893952076941   -0.44998950335406    2.56090975409818
C        -3.79805217668692   -1.76296059433376    0.70518805930966
C        -3.86365802387913   -0.65488480601512    1.64651272724715
C        -3.38116649130604   -1.92331158317287   -1.71782161757692
C        -3.27453890910294   -0.74371860544851   -2.56802809983687
C        -4.25315885341560   -1.60596625589573   -0.63898146377286
C        -3.88330836070392    1.53027365796446   -1.88062161462355
C        -4.22413126458023    0.17666242388767   -2.17081438585423
C        -4.91575990636493   -0.39930248453758   -1.01183854654244
C        -4.10024510605834    2.57637857158092    0.30057219910922
C        -4.17320606448794    1.78624629413016    1.54418009949642
C        -4.63900243285388    0.48772788571818    1.24202692481313
C        -4.65410782709225    1.84916382036558   -0.71269777528626
C        -5.15128467866986    0.58634998101857   -0.09887916690674
