72
C72 Isomer 7359 Symmetry C1
C         4.56713770142442    1.11613756931601    1.11590881606050
C         4.71896422174689    1.37968690051834   -0.23727925070348
C         4.70965208719106    0.10776311732034   -0.94902941412922
C         4.41340077389035   -0.32594440718177    1.26707298772069
C         4.49785214899633   -0.94424544661535   -0.01402493235055
C         3.30071031515294   -0.54849857154229    2.08445752028181
C         3.53714763626133    1.74679095700875    1.87198479785430
C         2.73676735862878    0.72018597581079    2.50113634639682
C         2.87725173632545    2.82059310236430    1.29622290709133
C         3.82532161413307    2.27297336208339   -0.90837981476056
C         3.01355506830454    3.07542561091842   -0.12612027956737
C         3.83052527743170    0.25735634949656   -2.03445099194340
C         3.22237147981586    1.57240887902523   -2.02101820222678
C         3.05871582884368   -0.84144036843162   -2.40258680091549
C         3.61043034346053   -2.00848156318444   -0.30884276025987
C         3.07288016938701   -2.03538650071938   -1.62133313138834
C         2.47603832863795   -1.67490264196444    1.89176449999137
C         2.75945164763901   -2.51072126179316    0.75247015196094
C         1.15666138220112   -1.60808772330882    2.47898149550014
C         1.35798580231862    0.85953902049944    2.71142584162065
C         0.53884283196755   -0.33635956669703    2.80365654764267
C         1.51578381213844    3.05058789126848    1.65217177519411
C         0.74012402783025    2.12373597502356    2.38133053530481
C         1.72407622755565    3.43507363593344   -0.62521384143999
C         0.91483448710710    3.69274010365500    0.52472697044337
C         1.86825292751513    1.73957760106873   -2.37007109918378
C         1.12097972919265    2.79874680342689   -1.73031657419766
C         1.74323237611722   -0.64828887684970   -2.92754509066591
C         1.11605383383521    0.60688437388010   -2.89165353218449
C         1.84172308585269   -2.71179857439592   -1.91208416416060
C         1.01225810687300   -1.86382588055919   -2.70556617836776
C         1.76197604008520   -3.44131238469123    0.38105311300581
C         1.25954443026854   -3.53461940872459   -0.98128338342243
C         0.32037830910050   -2.70884342017096    2.22761900858388
C         0.67645606799689   -3.65339008459597    1.22124969391203
C        -1.08450383816526   -2.56708073565377    2.18825601248781
C        -0.88839754105580   -0.20997358913003    2.84145494094052
C        -1.70048093717190   -1.37731938038405    2.56902955560751
C        -0.69431477267584    2.21893977524790    2.30175019155030
C        -1.51537404941318    1.09347953151587    2.66692803454286
C        -0.43716244890983    3.73565184080593    0.40681762935076
C        -1.25817681982404    3.18541661557500    1.43913911328103
C        -0.31765128699294    2.84096429118586   -1.85468578391185
C        -1.05768435995425    3.52041479693506   -0.86296504188362
C        -0.32129877581191    0.61652324184254   -2.94820380923519
C        -1.02341983406109    1.82662450176914   -2.60303765816129
C        -0.37320113227632   -1.87192289408842   -2.58123661219705
C        -1.03365945525838   -0.63852105864893   -2.91898635034345
C        -0.16888889674637   -3.66942185788512   -0.94250782669356
C        -0.50291624926063   -3.92527881154870    0.43114798009105
C        -1.58098249556909   -3.30266004764542    1.02947466144415
C        -1.00673010928777   -2.83965018799247   -1.70722256086480
C        -2.62105925311359   -2.77169256357780    0.22142711183994
C        -2.33726052160850   -2.55491787595927   -1.19062467569201
C        -3.04155340020410   -1.25484406632452    2.11061915027914
C        -3.50031715140441   -1.92923465370239    0.89498714399707
C        -2.89127322820152    1.16402588617104    2.33848164958695
C        -3.65290886306782   -0.01685353050135    2.14403895125595
C        -2.55358214931103    3.04106666726021    0.86284330200204
C        -2.42844660343521    3.23502779341232   -0.57547681209172
C        -3.41546833479236    2.10763073202981    1.37312781902263
C        -2.43400333655907    1.77932372220763   -2.49024509308613
C        -3.16202979109875    2.46555185450189   -1.43920612465276
C        -2.42672561137736   -0.64315858830650   -2.74548303684899
C        -3.08650557417668   -1.58463059344783   -1.84667649281425
C        -3.11731868528095    0.56600854838988   -2.68872623306377
C        -4.36162832610573   -1.02877005340131    0.18529287253903
C        -4.52113181877436    0.13371050424723    0.98123942201434
C        -4.34492601614714    1.42914100799397    0.47779248219757
C        -4.20311496369664    1.59275317239796   -0.92131066969084
C        -4.16368785940903   -0.87650353260495   -1.19701367508138
C        -4.19955272502778    0.44011899012167   -1.72567313441555
