78
C78 Isomer 8424 Symmetry C1
C         5.41577251310782    0.47542875495031   -0.25341830758860
C         4.91400448347055   -0.43865204690622    0.67262321999823
C         4.14157106531457    0.22175397308245    1.69119762143169
C         4.80134198459395    1.73611617325378    0.07218209669553
C         4.06505413637636    1.60431732730102    1.31609809843173
C         4.02190154231195    2.11180528019548   -1.01713223087859
C         4.90794522592053    0.03008464119527   -1.53671873230662
C         4.07065061200507    1.02315340025515   -2.02414793850550
C         4.32439475054953   -1.57554796477564    0.01436859126211
C         4.28794046022840   -1.26497405344429   -1.38279755909690
C         3.27590316388148   -2.27388760051640    0.63719841583000
C         3.04725734065147   -0.45408841996077    2.27031948813047
C         2.58627152030494   -1.74573728013161    1.80589845465463
C         2.09551851373098    0.39600081840897    2.84978660949976
C         2.87276715765066    2.33299583603576    1.52271886985386
C         2.02832831548805    1.77234213408795    2.49183850867756
C         2.83536713871393    2.87656807513318   -0.84644074160421
C         2.24546782592272    3.09212789761536    0.44597792843546
C         1.98989703639044    2.87545767179508   -1.95537108944099
C         2.89722182857903    0.70974186145853   -2.77865927960177
C         2.00133505103819    1.76111491026605   -2.89736448190892
C         3.13965775059560   -1.60732214838853   -2.14257332493871
C         2.38133592744906   -0.63116246167109   -2.88387773916786
C         2.53533581638112   -3.06308356447264   -0.25530131109548
C         2.43396050901694   -2.69506247834480   -1.62612424206003
C         1.31881323327504   -3.66998399798739    0.13105575578238
C         1.24706907138493   -2.16679503060524    2.07293415889523
C         0.68286557176283   -3.27029488197033    1.32567015153185
C         0.77391081801025   -0.03516539754867    3.12306291387433
C         0.29623928672205   -1.27828854053309    2.73427031377806
C         0.68032367889128    2.20339103213769    2.63152176614721
C        -0.08047132482380    1.11806969359657    3.11830900144513
C         0.87091014386399    3.48832021890152    0.53702797068913
C         0.12991661450758    3.15514612450047    1.74304517171884
C         0.68192401806186    3.36763555248132   -1.87464166681829
C         0.08320735219669    3.72535348674041   -0.64779426799652
C         0.68300826863668    1.55297019383384   -3.34056111485120
C        -0.07596381234486    2.67680288143127   -2.88041914340444
C         0.97620535862892   -0.85256648924147   -3.15715669522244
C         0.11642418935377    0.26367511596170   -3.43532063500665
C         1.12024523037073   -3.02741293332348   -2.07686823517390
C         0.55571281096707   -3.86540961135110   -1.06758688817194
C         0.33912842107182   -2.10429342104777   -2.78438500501213
C        -0.80175471996408   -4.03516171477637   -1.00064333506095
C        -0.70920365065348   -3.51358215968340    1.38935607078619
C        -1.37916784028748   -4.08397884497126    0.29435481451473
C        -1.15287867293901   -1.39817559834392    2.57777316661754
C        -1.62842347069946   -2.56441262723219    1.99740548102976
C        -1.46344590797882    1.03405163934984    2.92401845090635
C        -2.04704725690466   -0.23918960718910    2.61164048892060
C        -1.25948453222913    3.23358660471081    1.77870855355780
C        -2.04162991712632    2.24630030136184    2.47666360499666
C        -1.37107343513696    3.76127358790805   -0.62550725963504
C        -2.02471208745993    3.67101441747332    0.62982269556298
C        -1.42479411630232    2.59650664267118   -2.79805089094405
C        -2.11843297395644    3.26865460030342   -1.73165109491825
C        -1.33154830237694    0.17286764265064   -3.32882148699940
C        -2.07082186882917    1.36321713453695   -3.13985032813981
C        -1.11191819715761   -2.22379792829151   -2.66654265820866
C        -1.64679047510440   -3.26083454170993   -1.87445497737759
C        -1.94970030863687   -1.06884549826719   -2.93688979155753
C        -2.68864821260955   -3.49424103259667    0.19916487687021
C        -2.86320696856676   -2.58320678456866    1.25894245838292
C        -2.87511227218287   -3.06953837288925   -1.13550912652418
C        -3.28346512126451   -0.25804689641866    1.87804693716588
C        -3.61805882523333   -1.40464713274559    1.07049981400783
C        -3.30012304931960    2.19570633481952    1.86202047069727
C        -3.30649840669573    3.11610813547862    0.73698322026806
C        -3.87728311920425    0.98238485800189    1.49086817570585
C        -3.36021648860230    2.57786933158920   -1.59039685395025
C        -3.32040382093202    1.41184687393429   -2.44972367510819
C        -3.95961001122679    2.47424797464368   -0.33471432672294
C        -4.41322887132980    1.18321261494956    0.14641174705155
C        -3.23850406236407   -1.00581015578587   -2.36153451382545
C        -3.62463440650635   -1.93117744273731   -1.33304885197506
C        -4.15885488195991   -1.20396905823179   -0.22529517934555
C        -3.88584620118868    0.22656986382578   -2.04282365433223
C        -4.44014814728060    0.11455210583149   -0.71066749932858
