78
C78 Isomer 1128 Symmetry C1
C         5.29019321300117    1.57415126728164    0.40813482011978
C         5.54511722536280    0.71202088975837   -0.65684654996823
C         5.18294248620918   -0.61886994532515   -0.26614446589755
C         4.66864445078316    0.79587161509674    1.48987066806595
C         4.62927533305432   -0.56298169027876    1.08594063862050
C         3.44266096923715    1.40659851105284    1.82250670115188
C         4.34976991519185    2.56270365567782   -0.02155759333404
C         3.30494767974302    2.55147231034907    0.93107633934252
C         4.69607575698181    1.10830889446286   -1.79135510632929
C         3.98492750872756    2.28007550249464   -1.40859065421816
C         4.32189146080141   -1.09347477622660   -1.27338887613293
C         3.93788188520358   -0.00952358534551   -2.18014005926954
C         3.38078233245243   -2.06232255216730   -0.96668564685925
C         3.49064722889659   -1.32358152913020    1.37751146158686
C         3.19167502269056   -2.36185009887383    0.42288116965419
C         2.27593882259036    0.65606171230347    2.13701050328394
C         2.33617670857201   -0.76156464927072    2.04148236295538
C         0.98060774277429    1.29576293183517    2.04323844812663
C         2.03293081728921    2.94388149473213    0.54786823939094
C         0.90970586869294    2.52680557902342    1.33614882231703
C         2.64721874539899    2.40534877537422   -1.78302411352289
C         1.81650691238199    3.12949519901271   -0.85447126390375
C         2.57031850188890    0.09076733227145   -2.57066157057400
C         1.94761761036909    1.36563951191744   -2.50994120942296
C         2.26046964745379   -2.22790469907351   -1.86066150477429
C         1.71890254518974   -1.07848118794188   -2.53614774514504
C         1.42574892227227   -3.30137973711922   -1.56258946144001
C         2.16122720628642   -3.21656293987708    0.74986715840713
C         1.53102971709246   -3.92518166255609   -0.28546880050002
C         1.09712295416032   -1.51413828738385    2.12807645898759
C         1.13928114052202   -2.84223124572974    1.70074962737387
C        -0.24179791653066    0.56310463366233    2.25328800352449
C        -0.20116401298443   -0.86935003783948    2.28310269556220
C        -1.51021200034147    1.23994334886717    2.16190041790233
C        -0.35606546904019    3.06386943758232    0.98467248411994
C        -1.53135071535502    2.56468644935449    1.61030229535694
C         0.52731170632947    3.36834173246663   -1.24473630986218
C        -0.47203714658214    3.66063205307603   -0.29021380568982
C         0.51868455827515    1.44246374006179   -2.70119030371350
C        -0.10159328188135    2.63977403596497   -2.31355166381880
C         0.29952113768128   -0.99532877908634   -2.74596600709164
C        -0.33827860059173    0.29995310680485   -2.85819112386660
C         0.05304706355344   -3.30913459072919   -1.96170526969088
C        -0.53699516577571   -2.15019128532043   -2.49963775554762
C         0.20768386399911   -4.25995946601364    0.14410382511801
C        -0.06118248112143   -3.53515095750549    1.33301180561483
C        -0.65031439722949   -4.08816361293570   -0.96494588476173
C        -1.41914214633468   -1.60621122413371    2.07704641396079
C        -1.32865141147219   -2.95015844631814    1.54186464359096
C        -2.74116758090216    0.48872199409796    2.23231492543212
C        -2.69446085685959   -0.93147253093979    2.02974033510000
C        -3.98307778782381    1.17277018547673    1.98758089439771
C        -2.75638583162170    3.09478440278025    1.12380791707173
C        -3.95500705718208    2.48508148712293    1.43328887870918
C        -1.71412440925449    3.58568979300914   -0.99255393699433
C        -1.49621197566473    2.77526814329522   -2.16805415007629
C        -2.85473367688042    3.48164810627645   -0.27456335598847
C        -1.77910829511567    0.45362838083404   -2.77038060422304
C        -2.38928614603199    1.72911242693434   -2.44693841126604
C        -1.97687982583821   -2.00068163889188   -2.38229458900865
C        -2.61213651919637   -0.71427732356197   -2.60932473535271
C        -1.94564713233557   -3.77703517104522   -0.68447438808696
C        -2.32801230445125   -3.37024130738002    0.63787083051702
C        -2.66728141074102   -2.93831184334030   -1.59229430120086
C        -3.82177454574774   -1.56362399149248    1.36094519351708
C        -3.53658465411869   -2.64811978400403    0.51450085222348
C        -3.83801634121230   -2.55073128236883   -0.88673282503282
C        -5.08933019420181    0.52172862495903    1.38838974818954
C        -4.95625898788658   -0.80132757496335    0.94252831482738
C        -4.82246726261397    2.50366574458001    0.23848343369543
C        -3.99410715970982    2.82851741732191   -0.86385243626439
C        -3.74122229188101    1.87621023536254   -1.91058651241559
C        -5.56198181106399    1.33860686360952    0.25295493665988
C        -3.96413712970780   -0.54611550582053   -2.24658945284836
C        -4.58676863298387   -1.50337924104226   -1.36350204811317
C        -5.38810272386235   -0.83405300007602   -0.42665094829188
C        -4.56542771467546    0.72938206351805   -1.91721924169272
C        -5.53999965630490    0.52251759144558   -0.89023758228426
