80
C80 Isomer 25240 Symmetry C1
C        -4.37761356656411    2.16358111752759    0.58311883468190
C        -3.57278869007663    3.27148035857961    0.69237139510712
C        -3.04777877897822    3.58469317260781   -0.65488952958385
C        -4.42122498619170    1.80488943171607   -0.82585396479539
C        -3.42965379318418    2.55183871320271   -1.53920001280454
C        -4.43159141517245    0.42404138617584   -0.90376675807447
C        -4.06806800241575    0.98120818114279    1.31747611501677
C        -4.31539324369286   -0.11873000249521    0.43034386355496
C        -2.93937475409651    0.92043964045743    2.16601389953282
C        -2.49610349887094    3.28335653620496    1.59809148509237
C        -2.13833190852748    2.11939535922617    2.34308530987266
C        -1.72094558623122    3.96464171844970   -0.52328079822154
C        -1.45922601746636    4.00782291893503    0.90570494994952
C        -0.72221783975697    3.46204951216545   -1.40224594726125
C        -2.42844843840026    1.87472508234612   -2.30418943209852
C        -1.07411441391390    2.38017036657982   -2.28555715718119
C        -3.75710659053430   -0.19900782262836   -1.97585971993816
C        -2.67677317887763    0.49065778586388   -2.63361025663318
C        -3.71701111350566   -1.59352498415801   -1.81677531963675
C        -3.73247791799367   -1.36630314872181    0.63013812695756
C        -3.68890558920188   -2.19082660906882   -0.51879402555052
C        -2.34002307596066   -0.37872876815522    2.40098654858156
C        -2.78302804608624   -1.54828197941989    1.69695117986647
C        -1.07631814069160   -0.42303167451079    3.09185249068200
C        -0.75558428444851    1.99134077297815    2.74092056083131
C        -0.21108992376784    0.72799120343676    3.14226032257223
C        -0.18152845016820    3.91104947927654    1.32594658472621
C         0.17464772018186    2.98057153302965    2.36107598246024
C         0.64347243634824    3.64647521936100   -0.97987418630248
C         0.87915369231718    3.98320833995910    0.36801923221072
C         1.71739808454719    3.04687885512138   -1.72004438875164
C         0.00463940939575    1.56882932056570   -2.80530031348809
C         1.37213434160478    2.01571869053881   -2.67395205402417
C        -1.59757516880533   -0.30690322894372   -3.14256059053542
C        -0.27142099733863    0.21300773561354   -3.18953539895455
C        -2.86086658880846   -2.34681764737465   -2.63788495644118
C        -1.74953491196443   -1.72796545470942   -3.20762283134991
C        -2.84292215874717   -3.35403658648203   -0.57284348569427
C        -2.42999959961413   -3.52257854188149   -1.90625286997225
C        -1.99850548203245   -2.76823182482252    1.67705335248189
C        -1.97131665379097   -3.64565003779893    0.50605061600449
C        -0.50957559094542   -1.69286372473425    3.29947869165494
C        -0.93577331625089   -2.85464382850260    2.56705115517489
C         0.87582604788609   -1.81425348378230    3.51817620425819
C         1.21985311924626    0.54679437768057    3.12624371926712
C         1.73873065684630   -0.75037205172605    3.27032420418398
C         1.56112169687820    2.72355057582030    2.19408562796143
C         2.01424603291129    3.46291180728355    1.04763353087141
C         2.11506795625238    1.47245156653434    2.48987509993714
C         3.00011097935039    3.02745443443051   -1.10651780612998
C         3.09294971219542    3.04595588955585    0.32909980309672
C         3.99013678473985    2.09854346185212   -1.51427341485341
C         2.40202292578910    1.11319726307080   -3.05219730113348
C         3.70991500460237    1.19467816820191   -2.51758067237649
C         0.81624389329018   -0.74354068103078   -3.22085239977280
C         2.10465607090627   -0.28267449513636   -3.15349654317272
C        -0.63033602794365   -2.64565276466725   -3.02542316027557
C        -1.07651467194952   -3.74649427636904   -2.21214248812396
C         0.64469992269407   -2.14743477436521   -2.89367870268396
C        -0.75302393564813   -4.27410203295405    0.15597081494208
C        -0.26208898595693   -4.21163930237532   -1.19149824962718
C         0.25185711323692   -3.64186080188299    2.27108679117017
C         1.36442249872153   -2.98830053488667    2.82580925177150
C         0.39776799460886   -4.18394204361459    1.00416617576888
C         2.79209936542849   -1.24118929157966    2.41173809894110
C         2.47633826545430   -2.60473051350989    2.05488715603054
C         3.27039571429000    1.02099681418642    1.74484902556351
C         3.82744408728997    1.88133623388568    0.77292276639004
C         4.47507118495673    1.35662237981432   -0.35760595518303
C         3.48047530876091   -0.40376103259226    1.55097920745117
C         4.10179917760971   -0.13458833063288   -2.03807513039500
C         3.12709200366492   -1.03080053350498   -2.43206603639044
C         4.45037230858797   -0.03546076822082   -0.65982234771754
C         3.90615838634356   -0.94425217369648    0.26805777118632
C         1.58408877384087   -2.80283178794125   -1.99570811462456
C         1.10072617999088   -3.79752056130276   -1.14144231115943
C         1.55194604656673   -3.86002700264598    0.21954136770745
C         2.56182311149336   -2.99249115655242    0.69180613712694
C         2.76553693633065   -2.10768497309242   -1.59422731727236
C         3.22473438941233   -2.11682417090790   -0.23474150245309
