78
C78 Isomer 17815 Symmetry C1
C         4.36547371982115   -2.41168836191489    0.75498243321154
C         4.24056214754048   -2.68983949585022   -0.59154779047813
C         4.61217918699749   -1.49203942073011   -1.35542011691667
C         4.93615541838872   -1.07627643141466    0.89212759331913
C         5.05732055700969   -0.51111509330868   -0.43001809203001
C         4.20241347118680   -0.40886567929837    1.86276794482560
C         3.23929312461788   -2.52963744603734    1.63960133462133
C         3.17624272553271   -1.32227728450509    2.37429248916200
C         2.04870592569763   -3.17056969341809    1.22882149251923
C         3.01748805076457   -3.19061610127807   -1.07487581059394
C         2.02713724648224   -3.61738699127237   -0.14711352288320
C         3.55008294679927   -1.23509180029618   -2.23156748459863
C         2.62543878029718   -2.33899170970516   -2.15833614959643
C         3.01322463504832    0.07398605144312   -2.42805182131214
C         4.61750760775572    0.78518827433978   -0.63846568019424
C         3.71268198513624    1.08023432362300   -1.71556706252340
C         3.92113815606054    0.99223970837411    1.73094166520459
C         4.21915389698042    1.60742166935262    0.47726740678235
C         2.81540220324172    1.46831995289219    2.44617784368038
C         1.94793156554586   -0.84026888759983    2.84598712482306
C         1.86339908538109    0.55674280612112    3.02393179094744
C         0.79979319220123   -2.79310152139250    1.85470221316554
C         0.73590647787141   -1.60008786008849    2.64961840253044
C        -0.43465861738923   -3.32151297061812    1.33064135772172
C         0.78170065157206   -3.78075120028348   -0.73507228670089
C        -0.39037195668989   -3.89048570079046    0.04538892008974
C         1.28730144370017   -2.16457752851201   -2.51506674798333
C         0.42851642511137   -3.14332445361074   -1.97330224775399
C         1.61800243575996    0.26722833234485   -2.76776619914456
C         0.73355545331886   -0.87906846312287   -2.86060668957774
C         1.04355182017377    1.57867504314577   -2.64090412321863
C         3.03696899893209    2.27802721496203   -1.37663916253402
C         3.36338245578078    2.62267560976226   -0.01931166427741
C         1.80426471175070    2.59631971188825   -1.94911792582157
C         2.09545587219179    2.63932030608348    2.05085875062616
C         2.38355004439650    3.23878442200502    0.79779123458015
C         0.61289496587628    1.19348219555444    3.03027641053606
C         0.74467426746007    2.50602258800603    2.46955249663644
C        -0.53269961356803   -0.95148105358452    2.85794738463383
C        -0.58673259175226    0.47792692343678    2.96706005589176
C        -1.71676962821210   -2.86913356560649    1.81326594044462
C        -1.75829259148832   -1.66052479144353    2.59435512176662
C        -2.86825674857488   -3.20459605820901    1.04628416352859
C        -1.48103731724963   -3.68750568135159   -0.86161431673680
C        -0.96469225795121   -3.01552125727286   -2.03077585543453
C        -2.71005039662875   -3.42060036133643   -0.37384900085350
C        -0.69503616419923   -0.73657632485858   -2.86587356212575
C        -1.57534104041030   -1.83842627181013   -2.49527631383227
C        -0.38109897260571    1.74524643871951   -2.77643447584836
C        -1.24846247305310    0.59082212713900   -2.88219913227198
C        -0.95740699788211    2.95738144514646   -2.30844751382887
C         1.13464151458445    3.66387436498698   -1.28613048098123
C         1.32873853036110    3.87595430543589    0.13981696559634
C        -0.19525664310661    3.88747484954386   -1.57161436927460
C        -0.33342462459646    3.14254951546310    1.81704379308824
C         0.03211355459351    3.99746843300383    0.73935538553811
C        -0.89221919492868    4.16415389911191   -0.31398623368895
C        -1.74394356575990    1.23169166726891    2.54429786503980
C        -1.62023927438878    2.49642927451307    1.82923116849288
C        -2.95585577036128   -0.91024709261043    2.64024882155705
C        -2.92483934234345    0.52060811255071    2.45711310760331
C        -4.06534704080192   -2.46982414425112    1.15436325486521
C        -4.12789512860093   -1.36420901903399    1.98007206610614
C        -3.56522117121985   -2.51202289030302   -1.10741591574658
C        -2.95338617477497   -1.64490270563570   -2.08320778311530
C        -4.51378568083864   -2.05226680903365   -0.19161246149482
C        -2.61541474386238    0.73055907299474   -2.56187056316740
C        -3.45481469544099   -0.33982136525165   -2.12934157100771
C        -2.24420376016187    2.94536942381969   -1.66854574618338
C        -2.11430310324490    3.52307186046151   -0.33182584134854
C        -2.56539122057605    2.75578674686092    0.78440185236773
C        -3.06650071478296    1.88705278219517   -1.84763341180588
C        -3.96806549230292    0.89058065029284    1.52670975494019
C        -4.70639847189696   -0.25373053456502    1.22678846909038
C        -4.87394553984453   -0.68312427429144   -0.12542264601733
C        -4.37997880286937    0.16152288827927   -1.12823218924598
C        -3.65901513985137    1.85329807954166    0.52877075484780
C        -3.97059258771133    1.48159722483303   -0.80079486823279
