56
C56 Isomer 839 Symmetry C1
C         3.12217167460089    0.78254042067919    2.11139802099135
C         3.64621708144225    1.15800495287242    0.89278953753821
C         3.84515094594155   -0.04957012363800    0.09362721180959
C         2.92688282082146   -0.66440503827430    2.07806306874910
C         3.30129477552119   -1.16245279334218    0.79261064064183
C         1.65746145161368   -0.92894003277127    2.58896946311070
C         1.92285279264319    1.38523056471895    2.60662338457699
C         1.03446612179197    0.32611940873228    2.98023370019069
C         1.39764173914653    2.48167271847825    1.92307119433111
C         2.98682986772335    2.13337437239549    0.07718226526405
C         1.92888629046944    2.85036956382271    0.63595536252043
C         3.43782941226553    0.24601069900385   -1.21507720448077
C         2.85180797595147    1.58619959768649   -1.24559942202250
C         2.86229702698605   -0.79452133878145   -1.94523815489624
C         2.45405664851177   -2.10696881779612    0.12813825684223
C         2.39067026646040   -1.98925976323948   -1.27950568744172
C         0.89193409851611   -2.01981014116816    2.08952130591301
C         1.30147230727012   -2.65193918738766    0.84924835410172
C        -0.47675761436827   -1.95708134580838    2.46128607645796
C        -0.36737744701903    0.49180413128981    2.92837216883541
C        -1.10582701107202   -0.70653197800902    2.80867419177075
C        -0.02757139506530    2.69297079596764    1.89481253997974
C        -0.92410689790525    1.74371240686322    2.43874172193769
C         0.82048923419207    3.25237173316438   -0.19016859117468
C        -0.32933048525377    3.38105966062079    0.66934688164816
C         1.70362435392094    1.86296223135617   -2.02675328731696
C         0.69013712374853    2.77295182103681   -1.51192400449485
C         1.90004098808150   -0.42873887175303   -2.91531377796371
C         1.28488635502566    0.83478507529317   -2.92530031873819
C         1.19882580141035   -2.40256054764767   -1.99547554022986
C         0.88808908583791   -1.44954863311625   -2.98742240165018
C         0.27154284990600   -3.25826113885636    0.07667298636028
C         0.14512296824178   -2.97883851629109   -1.32136704054701
C        -1.43130043485120   -2.71726422277697    1.74263657522931
C        -1.06551483734030   -3.32427042651656    0.56061955534013
C        -2.42722067690796   -0.69714661042169    2.21462216626005
C        -2.61929394473906   -1.89948192222129    1.50305880070287
C        -2.24670950665294    1.72108736937145    1.88168802436780
C        -2.93672608256106    0.46370333185810    1.66696794576418
C        -1.61547343409258    3.33431829003174    0.13951799993130
C        -2.59881959407091    2.57101660708909    0.83042536828341
C        -0.65316644377638    2.65185549683170   -2.00936212272691
C        -1.74801367629096    3.03959596892879   -1.24683202945552
C        -0.12447961053689    0.58030115327649   -3.17304072068825
C        -0.38979177524798   -0.83773556672373   -3.07141933707092
C        -1.06638762063662    1.45516070654911   -2.73527605016552
C        -1.22611757346101   -2.53269353915512   -1.59332955849177
C        -1.98256886371905   -2.84179579493744   -0.46915663804086
C        -2.87621621689895   -1.88482858228439    0.11342570690850
C        -1.48586581410592   -1.32553793578006   -2.32510102708517
C        -3.45607397711592    0.43921826909766    0.31621873634344
C        -3.33840467561485    1.77080334195167   -0.14847279768311
C        -2.80487307293044    2.02307003109632   -1.39557827192211
C        -2.32835878252058    0.97098207581391   -2.21142923806298
C        -3.16063000784093   -0.65459241400115   -0.55708406196936
C        -2.48870458544559   -0.38847751317886   -1.82229192838286
