76
C76 Isomer 5595 Symmetry C1
C         5.04441194458846   -2.12127007868614   -0.09485090882015
C         4.07159464891117   -2.96454483239647    0.51966409631969
C         3.47579643384728   -2.26105324520712    1.60537614050999
C         5.07517629130718   -0.89353798756725    0.61316357251728
C         4.07764280786374   -0.94374858605438    1.63957070702925
C         4.93906209103642    0.16899636707898   -0.33399752502388
C         4.52971627697258   -1.81537993482049   -1.39918576823456
C         4.50185717499427   -0.40727004087429   -1.57619880165589
C         3.19601425085273   -3.43408302427537   -0.51355229780435
C         3.34819583820190   -2.56191511981372   -1.66525465018662
C         1.93929121863948   -3.78359909531372   -0.12154829213745
C         2.11045242261969   -2.43733301630728    1.91984545964687
C         1.45836850607241   -3.45536045146431    1.19124922897354
C         1.30572761082783   -1.31342103221911    2.38259231565075
C         3.28979759969798    0.18016254310536    1.94375807834813
C         1.91708101041251   -0.01082529877917    2.38154343895401
C         4.44144613817932    1.39769548667594    0.09781848884651
C         3.70499569523280    1.44309119372527    1.34517867848275
C         3.99958326431057    2.21247397259757   -0.98082048812841
C         3.42073913743950    0.19180172875367   -2.26711584829736
C         3.33962273842373    1.57659395804471   -2.07827695985631
C         2.19323979365091   -1.95131438694269   -2.23631576260681
C         2.21389608549469   -0.55212853138540   -2.56775369197608
C         0.83860233711090   -3.58743462126312   -1.01971568240077
C         0.90872761864130   -2.58246381745418   -1.99764008385616
C         0.04694381854645   -3.47696390071719    1.11721411289376
C        -0.33915793420428   -3.71627181957408   -0.23232913020370
C        -0.12507497945676   -1.44253779698275    2.44779046968140
C        -0.74681784513101   -2.62286078169528    1.89842783390277
C        -0.99381392850363   -0.30195470947003    2.60471241654112
C         1.04065860139431    1.12589780459206    2.43891732015792
C        -0.38984327469664    0.98099633789141    2.51416110155845
C         2.87555203184420    2.55039070348793    1.54611340155193
C         1.56612261687127    2.38709406618684    2.07917860341230
C         3.29439235499233    3.40416493134689   -0.70913426837510
C         2.81738047804159    3.61440940377405    0.57036557290338
C         2.12773609727828    2.30804804659039   -2.34965832139965
C         2.16234789407588    3.51136871032771   -1.63131461793583
C         0.97246166317064    0.16674394412016   -2.70855675120027
C         0.91711079491235    1.59729814394230   -2.56817602889378
C        -0.32084178423478   -1.91932359419414   -2.34164386596045
C        -0.28336647527699   -0.54295523709145   -2.69852947199221
C        -1.57337007774659   -3.32268104050546   -0.71922088934346
C        -1.57397542170141   -2.50048844782858   -1.89992707611971
C        -2.10688662963366   -2.64116049033158    1.54400674933178
C        -2.54884909224915   -3.09882721780541    0.27278870006104
C        -2.44649389407430   -0.43916424505369    2.46867503147166
C        -3.01598986646377   -1.62870672331592    1.96856255894638
C        -3.25617209803267    0.71544571674771    2.25669591746828
C        -1.21150639916789    2.06359988374234    2.02628245660145
C        -2.57670754544379    1.92175220526463    1.87193395389901
C         0.71581127819771    3.35598109540751    1.42267957268569
C         1.43794619259164    4.06082004085650    0.46375735948316
C         1.02403314115224    3.91482695925103   -0.89798496344463
C        -0.62934445573916    3.06383760550428    1.19188906623549
C        -0.29640326472429    2.24141565930888   -2.13369246622152
C        -0.21510227445813    3.31713917750313   -1.19185332092609
C        -1.16119600689289    3.23629622764750   -0.11630443011889
C        -1.51387917385810    0.20762397835505   -2.71995647350437
C        -1.54509597706835    1.56603770630941   -2.28483283432892
C        -2.76956669225376   -1.85063307667244   -2.17671666036571
C        -2.73693390899400   -0.50774373730471   -2.68707331588333
C        -3.78721744655238   -2.46023625712780   -0.03717605477714
C        -4.16784725156885   -1.65284538301134    1.09400267500011
C        -3.94855728260199   -1.98411520222267   -1.34159299956196
C        -4.48208391329508    0.66898815668193    1.57029641419135
C        -4.92530800047590   -0.49371191965389    0.89537508907288
C        -3.25266167783502    2.48224389303005    0.73865082675166
C        -2.46730117768688    2.78382700436417   -0.39700508412788
C        -2.72323502487430    2.09611781658637   -1.63369979905966
C        -4.46584670788008    1.76881458821571    0.59789838758311
C        -3.93772569826399    0.12668967462926   -2.34761946923156
C        -4.72269563962905   -0.80106508917948   -1.52300332532704
C        -5.25389177180602   -0.10310544564658   -0.45851364338401
C        -3.95595180506940    1.40517811012617   -1.75361420468036
C        -4.86582350085336    1.30817237443579   -0.63777956931281
