76
C76 Isomer 316 Symmetry C1
C         6.09540642134330    0.64970719154861    0.21903095022264
C         6.13007881907775   -0.41779906561286   -0.70011905193464
C         5.48356996334394   -1.54466038503840   -0.08291313126560
C         5.33866064633437    0.20982585681727    1.37356661432989
C         4.97533744232504   -1.16816966641455    1.20531215255362
C         4.31520183537620    1.14486671497252    1.68838589089123
C         5.31800535043203    1.70978532456246   -0.35618695828365
C         4.40325883777063    2.16895534203727    0.64403116676016
C         5.26902992142847   -0.05790021255581   -1.80552148482333
C         4.77115738896871    1.27366116737203   -1.61305121381146
C         4.56262395260638   -2.09805513262881   -1.02831107003296
C         4.32536608144445   -1.09282765711852   -2.05836972149616
C         3.48716746998899   -2.77105471346435   -0.51697597570984
C         3.69771921081287   -1.60625386966562    1.63565640310502
C         3.12142656266555   -2.65013213718015    0.86875947582652
C         3.04660208640563    0.73339731189996    2.15665330972133
C         2.74953764763414   -0.67926868410981    2.23267717288377
C         1.92570773621669    1.65305034599962    1.98189007987652
C         3.24322309618463    2.72823529515546    0.19928528009913
C         2.06776761885287    2.66568693123682    1.02647425613125
C         3.43251859612548    1.58058735683390   -1.96863264309103
C         2.80725269157364    2.57137705542308   -1.16717434579147
C         2.99702886312902   -0.80626668815062   -2.45064512150267
C         2.54378224717189    0.56275176356425   -2.50967080748176
C         2.26469340437216   -2.82853041011787   -1.27109288328978
C         1.99166813352686   -1.82309305920452   -2.20792688781203
C         1.74133970189924   -2.94006235984750    0.94529927089150
C         1.23477063178923   -3.21426353991794   -0.36304754864875
C         1.38567368531816   -1.06816210969551    2.40287368069715
C         0.87502812847198   -2.28064051492708    1.82431949022270
C         0.59125194089487    1.27852448867652    2.32481694581744
C         0.38371161642537   -0.07979476554098    2.71710476546034
C        -0.54370051603573    1.98544758079987    1.79729624455352
C         0.96207060462752    2.95426265358455    0.19123968957527
C         1.41045146660092    2.72546297632344   -1.15667346496121
C        -0.33408008690563    2.68942548169572    0.57822264150015
C         1.13366227604083    0.80941991655687   -2.59203213579970
C         0.56215839167939    1.97334167854787   -1.97901192373854
C         0.61280337924919   -1.57123382918199   -2.48557651199585
C         0.19398885059777   -0.26108448283354   -2.82329782929500
C        -0.10522687929442   -3.08436849794429   -0.67888901688572
C        -0.38141389832989   -2.44471720110516   -1.92648938898463
C        -0.53071165931310   -2.52079931544060    1.62583112404314
C        -1.06229984292902   -2.98701620146003    0.38385181006847
C        -0.93150285457882   -0.49738772637538    2.88509892735829
C        -1.40947072301949   -1.77119153836749    2.42160945675127
C        -1.88890979789518    1.58586232202951    2.07670536256110
C        -2.03940322086697    0.39632117526163    2.79275140438430
C        -3.00034675820548    2.05162219158182    1.25439033672266
C        -1.31053726846974    2.57439383170710   -0.46517489603422
C        -0.83709435618991    2.09537220299464   -1.71747919372283
C        -2.67336265791355    2.46869612796072   -0.09155388944467
C        -1.20902655159392    0.02836091405023   -2.93540877080269
C        -1.72980994717250    1.29442785568004   -2.49348730534060
C        -1.71514340235736   -2.20580012301374   -2.19600413032372
C        -2.13152102427164   -1.03858782277309   -2.89007217437473
C        -2.45269014044508   -2.80300579038994    0.05994972866377
C        -2.76749763363463   -2.57936461060910   -1.29674680961856
C        -2.79973086680164   -1.70724428345537    2.19434625467254
C        -3.22234930955863   -0.39293704732895    2.60958795446388
C        -3.39145522065570   -2.29575539945307    1.04007572182408
C        -4.27994472201021    1.49350627480370    1.47765526237403
C        -4.35589963179793    0.18388465793030    2.10415903111328
C        -5.27524573335187    1.48090006344254    0.44319696999303
C        -3.58694551841752    2.20907982454990   -1.14510230073689
C        -3.09738690991012    1.46668268330297   -2.28440253130676
C        -4.90302811587859    1.79693473511200   -0.86717170247432
C        -3.53437283613516   -0.87267806678124   -2.66192304128513
C        -3.95308559640720   -1.87725714053691   -1.70373763755121
C        -4.05360388120056    0.41663043954786   -2.54545706094451
C        -5.19344497099110    0.63447575305615   -1.72564750417753
C        -4.64267940564451   -1.78541420001590    0.62207482077573
C        -5.21256772247615   -0.64662752549512    1.29930225728116
C        -5.90997615543115    0.17348414744541    0.39769889774062
C        -4.95716307283021   -1.60765263649080   -0.78100911216215
C        -5.71507380978585   -0.38134922382201   -0.92019362497416
