74
C74 Isomer 11413 Symmetry C1
C         4.39768829088870   -0.88122584583058    1.55920885001123
C         4.20154739506248   -2.08555105169484    0.93309621134255
C         4.38038106913950   -1.90747488980942   -0.51706783260756
C         4.81337039146137    0.08992698144515    0.55424490932718
C         4.68059595923444   -0.53815012996405   -0.74787333612882
C         4.17360005776197    1.27878115934290    0.83648914704790
C         3.34916874076114   -0.30784686737266    2.35162322068393
C         3.33074502692847    1.07267963964175    2.02202434552413
C         2.13144028820366   -0.98529814440546    2.59738484740514
C         3.01983302684041   -2.82142964111939    1.18108493302495
C         2.01511338446450   -2.32933475456206    2.05313289550284
C         3.31528415597210   -2.55668272496874   -1.14533735093809
C         2.63573280823265   -3.32048364698054   -0.11477001954733
C         2.49260779501497   -1.89398319708041   -2.11443088888240
C         3.92435483715599    0.11516720357335   -1.71814180774416
C         2.86835345007932   -0.56866359659076   -2.40897031367012
C         3.66177687719920    2.08695168529787   -0.23101252053563
C         3.48945080936650    1.47939804492179   -1.50671926794764
C         2.74230544679060    3.05668864900367    0.13421356778491
C         2.20740707800634    1.85071391025896    2.25866498797222
C         2.15943480260298    3.04925588081192    1.47740230827431
C         0.93681459796075   -0.19676832497133    2.84622323174499
C         0.98866360572442    1.23502815080366    2.74582041961328
C        -0.35292443077283   -0.86567714494137    2.90908732581833
C         0.70776035153930   -2.89108528354601    1.90318090658840
C        -0.42819000947484   -2.25156695885248    2.52219353502675
C         1.35527927031241   -3.70973670411130   -0.31165062233224
C         0.46571280071756   -3.73518300662072    0.80312095905964
C         1.09598759864728   -2.24272395783224   -2.25788243038946
C         0.59771902552193   -3.31729014793393   -1.48218898785516
C         0.11062071628364   -1.29930941443005   -2.70219053685162
C         1.86174249669597    0.39535387850506   -2.72452222195994
C         2.27153239516653    1.67661439838499   -2.20454234191142
C         0.51748259065820    0.08163407390417   -2.87221841419389
C         1.72202119915126    3.50259767368861   -0.76534438656269
C         1.33122977953377    2.66940074620338   -1.84526422269143
C         0.98304746041440    3.75326274270628    1.42125773201098
C         0.71039872869724    4.08640940064646    0.02597018203906
C        -0.24133420742775    1.99749801617657    2.64668276182342
C        -0.20890290902216    3.25998415769490    2.00777164661422
C        -1.56516174154792   -0.08836965387312    2.95875975049190
C        -1.51453059012070    1.33190890480774    2.71825467435537
C        -2.82291541090157   -0.72382258362398    2.74319054390295
C        -1.68960610654744   -2.81602952756298    2.22402306206482
C        -2.86035383847045   -2.08605170692806    2.42986259160305
C        -0.83575234171752   -3.85491746685435    0.22961257663479
C        -0.76370988484448   -3.47284441410083   -1.16389063618473
C        -1.91410850214438   -3.54081263806065    0.98638480010496
C        -1.28777900228173   -1.59766380228306   -2.55506780104298
C        -1.77549171759534   -2.67004730211224   -1.72313548581460
C        -2.19580247432319   -0.54671689346841   -2.82130876459858
C        -0.43206199652519    1.17511844590777   -2.73335514936744
C        -0.06937278541231    2.43672254014286   -2.10836551292544
C        -1.76870201220004    0.84109789434427   -2.82767944275281
C        -0.63357981755664    3.88032831569738   -0.21952301715744
C        -1.24498134388600    3.61132027556152    1.07802034695510
C        -1.07357841566371    3.11821160511281   -1.34386961926784
C        -2.63506480674056    1.93971974345808    2.10366244873147
C        -2.43558768724383    2.96908065141789    1.13674148061621
C        -3.90230002723664   -0.10715619391531    1.99266382833300
C        -3.76634587026475    1.20150331749733    1.62479955266219
C        -3.77949864089420   -2.29766698109965    1.31573087614767
C        -3.10596669687988   -3.04528661508137    0.34035377113889
C        -3.04072325647311   -2.57775655759424   -1.00955303303301
C        -4.41645411363227   -1.07360984980103    1.03489189377311
C        -3.49546920692603   -0.58748886361643   -2.32041845356885
C        -3.90465879108003   -1.49747769991475   -1.31649180397809
C        -4.58066742976836   -0.71836760972384   -0.30033653567764
C        -2.80306806015063    1.62557564645294   -2.20739495435117
C        -2.43624708513485    2.63902771545753   -1.29393248236765
C        -3.16422267715812    2.65561762344584   -0.07221113071431
C        -4.09218267621772    1.64048614174626    0.27958892454982
C        -3.87607716744235    0.76058746610122   -1.93220962266377
C        -4.48283057651245    0.68389911306975   -0.66754909808972
