78
C78 Isomer 14005 Symmetry C1
C         5.05594235430718    0.09247270056692    0.94895082625213
C         5.09700507826666    0.81818522225820   -0.23397314213634
C         4.77286389756027   -0.09373494702466   -1.33546865655449
C         4.75765554704904   -1.29660523601426    0.62436928023656
C         4.62581756074611   -1.39760352864305   -0.79359098270995
C         3.69828507508873   -1.70698767086812    1.44692659678280
C         4.18686103139194    0.49227874905279    2.01400655902221
C         3.32498396820854   -0.61980072610103    2.32617823795237
C         3.62333400653145    1.75310934706634    1.96726680108821
C         4.31952206490304    1.99703710950149   -0.38141810906974
C         3.74143024847809    2.54400497080232    0.76671089478507
C         3.73182090842936    0.49250842984111   -2.07350359138611
C         3.49007944462965    1.81607347709927   -1.55365954330591
C         2.62980267550050   -0.27480530606688   -2.56808505443822
C         3.58846040244830   -2.17716289618602   -1.29335952831500
C         2.70380026988518   -1.65176780739200   -2.29713399716014
C         2.69250941067204   -2.59091133684623    0.96136127197240
C         2.77171077237683   -2.93997622743014   -0.40286837747805
C         1.41353202206792   -2.59814687006072    1.61417614780806
C         1.99089393228388   -0.44610011643778    2.71087314426518
C         1.06544526521285   -1.53104543231292    2.49439937530341
C         2.29631140982440    1.95566848213440    2.48910784026321
C         1.45868757078933    0.89028939743840    2.87960749799606
C         2.53110672323203    3.26609309658559    0.61954742894549
C         1.72456965021844    3.05197478267942    1.78780721632576
C         2.22709903670252    2.39059083698444   -1.66607888605090
C         1.86506620804010    3.31763357878321   -0.62110314313806
C         1.33067586821354    0.34521996036966   -2.76910700103525
C         1.16333237141362    1.71330052031023   -2.39492384067417
C         0.15129791860438   -0.47695287560388   -2.94796314736612
C         1.49613027998629   -2.40749865498176   -2.24141384498377
C         1.55539278178228   -3.24018305176747   -1.09800646814577
C         0.27257108462478   -1.88840384708172   -2.68237377379230
C         0.35585015140634   -3.38107053304190    1.01189115000300
C         0.40794816529272   -3.63000073591158   -0.41437047665799
C        -0.88993002822748   -3.36890481876284    1.60882967138235
C        -0.29976038435198   -1.32754431403371    2.88095194567684
C        -1.18997012029974   -2.39215639252595    2.62106576566628
C         0.03623346606425    1.11990003720258    2.94520100274085
C        -0.84619035165177   -0.00164003347133    3.07532626650339
C         0.35523513751999    3.29645725975835    1.80346338258793
C        -0.49526368149668    2.39503264178254    2.53370298906500
C         0.54681036838921    3.76689773309400   -0.57497434771531
C        -0.15680875908220    3.95778832788082    0.66182005455071
C        -0.15607290505270    2.27867859452205   -2.38690132337099
C        -0.38756114068340    3.41974462705646   -1.57829744110461
C        -1.16603908312884    0.08661087819987   -2.97271761643062
C        -1.30670445987409    1.50565921949638   -2.78675428415326
C        -2.32245777900953   -0.77339009668158   -2.73972694000216
C        -0.84295504609229   -2.64000143905469   -2.26425921856923
C        -0.77932759525520   -3.53988354823208   -1.16047638467569
C        -2.14557396013021   -2.09620482933563   -2.30895937127725
C        -2.11953888303291   -3.60224402657423    0.85308451051946
C        -2.06378101566883   -3.56258852093748   -0.54029426911002
C        -2.93831905776174   -2.69455393317101   -1.26428792163394
C        -2.58061263761144   -2.18509916976312    2.60272399563450
C        -3.16204586341485   -2.91206553461694    1.49676874887579
C        -2.26982985702929    0.19772631181822    2.92242391173477
C        -3.12212581858808   -0.89818075655173    2.62778197045287
C        -1.87576972618096    2.53070311246050    2.30362301966494
C        -2.75957008188088    1.44197075918365    2.48489648198041
C        -1.53812861844557    3.96802960147270    0.37484498158217
C        -1.68814516194942    3.72829108505642   -1.04808952447400
C        -2.41317827277799    3.35450611776740    1.25356753642077
C        -2.59863901214009    2.02857248112908   -2.49134169251945
C        -2.78972932642009    3.08954619679659   -1.52645171286378
C        -3.56017579809278   -0.21481983542800   -2.33324850917267
C        -3.69765355020389    1.17357629327230   -2.32803700929501
C        -3.95472532421148   -1.94875611213177   -0.60837200490008
C        -4.03880434839885   -2.04259777883809    0.81758187176865
C        -4.12229982209345   -0.82724876786006    1.59139584424718
C        -4.29923013993193   -0.72835030741516   -1.20645399502986
C        -3.85559872972977    1.56067116501935    1.55232073335586
C        -3.61504043240323    2.73478874309656    0.76868588520704
C        -3.86477069808913    2.70398742470369   -0.60896841432253
C        -4.47002039173558    1.56236511022617   -1.15735878558243
C        -4.45645614720052    0.40026773745755    0.99488202478944
C        -4.72927011881294    0.40177589523048   -0.41175053280799
