70
C70 Isomer 2289 Symmetry C1
C         4.90519594046696    0.78132624103613    1.11030715814986
C         4.79738488706616    0.94527145768633   -0.28415586615885
C         3.91262498335097    2.03790901052558   -0.57058549014534
C         3.94458440852961    1.64561681658952    1.70866455055745
C         3.39139454611857    2.49883805481942    0.69577441552839
C         3.03085579854976    0.84023245336339    2.42236002804117
C         4.53239120283842   -0.58522964423629    1.41028823300255
C         3.40197422289379   -0.56208271244966    2.26119354367976
C         4.58980550456516   -0.34772211725812   -0.90027001499948
C         4.48044314517312   -1.31566000963978    0.18550970458489
C         3.70189674244395   -0.42945376503922   -1.96079037865150
C         3.04504733731616    1.95258682268205   -1.68257296752804
C         2.95398777457437    0.72829565143214   -2.40166325957482
C         1.85396619773345    2.70936287590807   -1.61534506115067
C         2.06327096097681    2.93113061499076    0.82456068262697
C         1.41664800878219    3.27622658708294   -0.37933571123075
C         1.67304589049961    1.19800751750228    2.52518562844607
C         1.20541046257116    2.38350298578802    1.86915495270491
C         0.74400674327883    0.13915926927424    2.84713378383346
C         2.39533525576387   -1.55391312324475    2.15806951068564
C         1.03928547876237   -1.23688343333469    2.57072257173626
C         3.53794271006626   -2.32757087485327    0.10021606946138
C         2.59887583202219   -2.53373717269553    1.16193669520306
C         2.83612675876617   -1.57603775391570   -2.11268652611093
C         2.80830556523042   -2.54432705582641   -1.12776753821032
C         1.69423319486817    0.27715030198276   -2.87888060116480
C         1.60050057404236   -1.14102940215552   -2.71549560145527
C         0.67362567306415    2.34623167133698   -2.32066218551183
C         0.51075345999624    1.05943781140920   -2.85233602811407
C         0.00594465337218    3.46991374257128   -0.43652682924042
C        -0.44850914248753    2.97028217473457   -1.67608531818943
C        -0.19827983517474    2.66064754644995    1.83944747384955
C        -0.80362528638578    3.34443758876342    0.70972719226044
C        -0.59018072376868    0.52677373089914    2.97139350306099
C        -1.04480504047010    1.81353910137758    2.56856230370656
C        -1.67596429454973   -0.38339492498755    2.86071266649589
C        -0.05109842383582   -2.11638920749908    2.25653820217652
C        -1.42539472066460   -1.69853146989323    2.46512560522478
C         1.44160407391267   -3.15568554955550    0.60409405318965
C         1.54797645014450   -3.13070671496468   -0.81280731404518
C         0.19435631595325   -3.11446117713212    1.24579636843365
C         0.36648333186637   -1.75154597601169   -2.48943430780625
C         0.38610415158289   -2.88602220595923   -1.58778956893426
C        -0.79175898609607    0.42769273882827   -2.82017417207033
C        -0.86448650361879   -0.98953365389616   -2.65609090795358
C        -1.75724838411070    2.53577333333199   -1.87835448076772
C        -1.95207619569635    1.25178122867127   -2.53350661369615
C        -2.17461254510161    3.23409642112006    0.45229753260988
C        -2.66067996285583    2.98716630276405   -0.87167892427011
C        -2.46203931545051    1.70966683818872    2.33274561450622
C        -2.86155701298752    0.35825122081365    2.48762228572261
C        -3.06826333741395    2.51937507348573    1.36199542781115
C        -3.88603376446500   -0.21478744027612    1.67491462883481
C        -2.50850930810874   -2.31770612512259    1.75373768860234
C        -3.67478110199874   -1.56053416422797    1.29533718155154
C        -0.86945710341395   -3.52860472702055    0.41632108346689
C        -0.79573033800820   -3.29910392359627   -0.98613392848985
C        -2.20931206484313   -3.27504918206649    0.79175729449312
C        -2.10862604435531   -1.59088795750015   -2.22999350910680
C        -3.94708469113602   -1.98583186729767   -0.04840402474981
C        -2.07654974411738   -2.77809875848109   -1.42437573262138
C        -2.99016539868608   -2.97186661753032   -0.39052897909999
C        -3.18874374400585    0.61667995589472   -2.32185391540712
C        -3.25799919998635   -0.79662236888660   -2.09587201496683
C        -4.23492532721933   -1.03286290547635   -1.02871340276433
C        -3.92354327447244    2.35384641170339   -0.74790395211385
C        -4.16409069871664    2.02426698988033    0.65361121948165
C        -4.55722206403276    0.64808303097396    0.74344656834473
C        -4.18710759167669    1.22731939085411   -1.49575550714096
C        -4.71992706723217    0.20599501731434   -0.59973078862376
