80
C80 Isomer 9074 Symmetry C1
C         5.25291166475896    0.14580797814243   -0.50195643894940
C         4.87968469723029    1.40917938168846   -0.05263269733631
C         4.20529588314534    1.26839334388374    1.22370277726599
C         4.77144238510526   -0.81809471872468    0.45857886612414
C         4.07918969654272   -0.13765396240172    1.51265094693733
C         4.04418918092524   -1.77058003656033   -0.26008315159059
C         4.54970168116829   -0.09044055849093   -1.75764314027669
C         3.83941465296466   -1.28168930942245   -1.63107849009819
C         4.17531455185877    2.07386773084413   -1.12443186183354
C         3.84142179193685    1.09514669211805   -2.13482349792464
C         3.24504383387072    3.00485558112422   -0.75396948186350
C         3.16899053418995    2.13658951773655    1.56248486124684
C         2.89182786192562    3.18524609612080    0.63068045592586
C         2.07137709873547    1.63127968763556    2.37396774722037
C         2.87023517900649   -0.66360461117095    2.03549021086676
C         1.84997196013729    0.21783228830816    2.53959369335334
C         3.00162223403605   -2.43433475755721    0.36206851908867
C         2.45939165882458   -1.96177639631783    1.58776728737371
C         2.16477480341659   -3.17467503393905   -0.54028187908676
C         2.54768829732100   -1.41930743685952   -2.20441045637274
C         1.79877281640865   -2.55571405683400   -1.78602060782734
C         2.51379072219966    1.01988253123740   -2.62125851266708
C         1.89386057550166   -0.27657919349204   -2.76054872883569
C         2.05371432070938    3.18069698289682   -1.53125122322174
C         1.65029688362483    2.16957668541651   -2.41644700717670
C         1.63249216745695    3.82320089112414    0.62516025040605
C         1.09573075905456    3.84786896130049   -0.70534453718735
C         0.96900011782874    2.47588747396466    2.53058922453489
C         0.74922675795925    3.59999132363667    1.66078998286574
C        -0.30488112254711    1.99874016692158    2.92905016682170
C         0.51242264489802   -0.28571811929889    2.79161455869192
C        -0.58321356482797    0.62699320619782    3.01327014298367
C         1.20457781871946   -2.51162624692184    2.00147747737058
C         0.19092545876837   -1.66181319620354    2.55650022901170
C         1.32592303703691   -4.07197150241270    0.07644157807546
C         0.85704738577707   -3.75636641413434    1.43053160474517
C         0.23422759378783   -4.59198264602155   -0.66038813516860
C         0.45496819712469   -2.73069440051758   -2.24180891227482
C        -0.29246665257058   -3.81414513395679   -1.72128820508737
C         0.48629884864382   -0.36966754082781   -3.02116302608027
C        -0.22261571802638   -1.59367661068575   -2.80083369698244
C         0.25703492743164    2.09959106850134   -2.71667147234441
C        -0.25224612551436    0.85264948108976   -3.21642324020344
C        -0.27095909152489    3.77563572535745   -0.94813570071405
C        -0.65531695286373    3.04865447367359   -2.12516675669247
C        -0.64409433262310    3.77105778577939    1.44761233256636
C        -1.28320975777684    2.93171542111986    2.42894445764082
C        -1.20217744849552    3.89202499224475    0.16358900578638
C        -2.58098585793493    2.57422569101464    2.29118822155646
C        -1.96695785269172    0.22696447630159    2.84312422885287
C        -2.95292692897429    1.22516425081045    2.63344558741386
C        -1.19569487540938   -2.06657491860453    2.41215193519661
C        -2.24874757558850   -1.08534282443777    2.36632351189357
C        -0.46522828888830   -4.23392759511590    1.52408066827573
C        -0.81369535790951   -4.85783502609205    0.27692055781631
C        -1.50119484185156   -3.32970905294068    1.87658282456270
C        -1.72604593536043   -3.66176133452292   -1.46112879009529
C        -2.01205274878893   -4.27209845713294   -0.20082501823668
C        -2.50703985786748   -3.42431269725222    0.82078311758603
C        -1.66690135564964   -1.57641081750567   -2.70455213384695
C        -2.36751709776259   -2.48886464776881   -1.81547017710389
C        -1.63385900882308    0.75421249021254   -3.41757799125268
C        -2.34516428912000   -0.43509680021845   -3.07450801536846
C        -2.03869004016363    2.89083351695364   -2.32653210914060
C        -2.48494171902676    1.83983676396167   -3.12042545474287
C        -2.59586798318074    3.53337529139771   -0.00603975874789
C        -3.31942889677827    3.01083341418036    1.11602710543796
C        -3.02933991728276    3.13049191500270   -1.28045307396462
C        -4.09235085518965    0.96242884821802    1.85626546060038
C        -4.32767664755522    2.06297332390927    0.93096781786488
C        -3.35051081141944   -1.28560141010383    1.46467568473361
C        -3.24233738368897   -2.30560661800996    0.46035864258631
C        -3.36439180081118   -1.93832586273989   -0.91975582927456
C        -4.21044831624388   -0.23100993831770    1.14776762212998
C        -3.60377175414520   -0.04975443922109   -2.45133236003838
C        -3.71884241523263    1.33488480514568   -2.55740283761000
C        -4.07611761144417    2.15571344932712   -1.45408771921514
C        -4.63431525568488    1.51682568872452   -0.33766806244676
C        -4.00867141544589   -0.71037197217589   -1.25402001443700
C        -4.56390521734752    0.07958690168758   -0.22837916009275
