78
C78 Isomer 16801 Symmetry C1
C         4.92804873995382   -0.05125273590191   -0.06311827065621
C         4.66725062670385    0.34202605150658   -1.35531893093137
C         4.29160524479518    1.75037985944615   -1.32817256095931
C         4.59015738048475    1.06108076392287    0.82063788286116
C         4.11027865958219    2.14531594080741    0.03040038705584
C         3.80293282457526    0.53114112422447    1.83528480022697
C         4.34877955808239   -1.24497007949152    0.44284763504459
C         3.77191218077868   -0.92050029571972    1.70039256688945
C         3.63535683588420   -2.10645740746294   -0.44710120508939
C         3.71563162585227   -0.37432289943776   -2.16692236414258
C         3.18610886513364   -1.60450115017627   -1.73733930229261
C         3.25416038508913    1.91547739545754   -2.24982716193746
C         2.88800097714985    0.62040625975573   -2.78871855271764
C         2.23631761011323    2.81155115770410   -1.94183730604275
C         2.91750178100987    2.80801438026418    0.43427011624037
C         2.09128329765873    3.30071624076901   -0.60297477714371
C         2.64681779911570    1.19244195614353    2.30480752323924
C         2.23406168336295    2.40155940120503    1.64674111903999
C         1.69272819791596    0.37278044697269    3.02099422795231
C         2.74917479693943   -1.70405326049062    2.25585858814113
C         1.65992022225946   -1.07685683739217    2.95003589231300
C         2.84694222744809   -3.05065506994666    0.19523185402538
C         2.54895249994802   -2.93867745852096    1.59130437882644
C         1.70308611591135   -3.65830506672184   -0.45128936022258
C         1.87294544659224   -1.98441888288831   -2.22453469776330
C         1.14231800426555   -3.06898384587457   -1.61590903813762
C         1.57142017038766    0.33826810819752   -3.14291395880128
C         1.14161156955034   -1.02866211208180   -3.00246230534810
C         0.93967723909847    2.60126350602737   -2.47661111084798
C         0.58772827126562    1.40502696133361   -3.11079996839181
C         0.70154096463979    3.56637512710030   -0.40804583017153
C        -0.00260452652932    3.22609020930538   -1.58826618325552
C         0.90369266810215    2.89421887214712    1.89346479370919
C         0.08579808144036    3.46644373349265    0.85065593748310
C         0.54907391579745    1.00732146801192    3.45600453519031
C         0.21935240319748    2.32673122427359    2.98416060154886
C        -0.68320923781836    0.29410735685796    3.69705559306765
C         0.39246220132398   -1.74756258508820    3.04465571733589
C        -0.84428296732666   -1.02735451807212    3.25224509558651
C         1.34778057771724   -3.63478587714333    1.81433777281908
C         0.87388722741133   -4.16575110804511    0.55647933679515
C         0.27072561495904   -3.03272924010869    2.46170047435952
C        -0.52406348889926   -4.01422780924640    0.51504297344874
C        -0.93402589537534   -3.37347440922078    1.72941955242634
C        -0.28192748086415   -3.22331467125261   -1.79533548224404
C        -1.12870054576026   -3.68941378752012   -0.71420227695374
C        -0.21326201854587   -1.26992699360508   -3.26753086454144
C        -0.90571429955352   -2.38922372759458   -2.74220261168162
C        -0.81426420091413    1.12041940885583   -3.21262736971601
C        -1.15699553622718   -0.20865551019382   -3.49115276873905
C        -1.36516050230486    2.92994524790439   -1.60087885033389
C        -1.80506781306232    1.97330703440528   -2.58991757166206
C        -1.35379482441645    3.38589558839566    0.85213632360223
C        -2.08176438735948    3.17494911603579   -0.37748589418379
C        -1.17011291710203    2.47356763786124    3.09487737373463
C        -1.72929450086547    1.20677045726940    3.56275126422724
C        -1.96936921146318    2.94496931221847    2.05513495527062
C        -2.88814702987881    0.91155733945505    2.84871495416843
C        -3.14361036578838    2.08750372064077    2.03340858495802
C        -2.08880356827035   -1.38500640897184    2.60331914997455
C        -2.07446183030326   -2.56958832065415    1.77166606195597
C        -3.09884465565185   -0.39722939963037    2.33974921829136
C        -2.44049003728243   -3.19307857994555   -0.58514162828547
C        -2.92050037450895   -2.65903929588473    0.64451995937525
C        -2.30438369337305   -2.06942691835716   -2.70992708278836
C        -2.46135117030868   -0.72851665534437   -3.22303355225546
C        -3.08329143608770   -2.47167333815380   -1.64324158906325
C        -3.11877952492734    1.48270543290704   -2.47392948746008
C        -3.44923919023875    0.10217639201901   -2.74447880577422
C        -3.39083475388466    2.63370920570186   -0.30659614689989
C        -3.85816278730470    1.96783243777122    0.89206394366504
C        -3.90063049132211    1.88982106724887   -1.37197166221641
C        -3.98416480869790   -0.50659061791870    1.18248198240513
C        -3.88934098518129   -1.64438172923852    0.35664516710950
C        -4.05510469623517   -1.58684795506037   -1.06877943415281
C        -4.33044121600051   -0.36942068903492   -1.68821492868537
C        -4.43769592188219    0.68397198402506    0.53716280066816
C        -4.61213159998081    0.72399831975070   -0.85385020254263
