80
C80 Isomer 1684 Symmetry C1
C         5.34679907067815    1.21099921281658   -1.54560645702182
C         5.51116467480510    1.72466323499806   -0.27435020464718
C         4.47555145878996    2.73106763739918   -0.07129757677726
C         4.21195940620455    1.86637100944851   -2.18060141197086
C         3.67032697720828    2.83263812394638   -1.26628001049818
C         3.35012638945416    0.84884842648150   -2.61092358777997
C         5.06387162203746   -0.21647659770159   -1.44955673973871
C         3.88408137932399   -0.44612645807606   -2.18956018211924
C         5.29918187243475    0.63753216694663    0.67888471697163
C         5.07153686794017   -0.58569636489047   -0.07001756341778
C         3.80724706915600    2.36169625601824    1.09867931572783
C         4.28692713887022    1.04548260485848    1.55069110930628
C         2.45413572655394    2.66611039665431    1.26293427386839
C         2.27520244163119    2.96226501461671   -1.15041289639667
C         1.71203776080922    3.16947630803942    0.15365884367504
C         1.95199230148147    1.03294347562969   -2.60208247263812
C         1.39659168221925    2.20243674222127   -2.00973490119469
C         1.12930329267232   -0.13388489399570   -2.68079478956242
C         3.00612607294860   -1.46781967326619   -1.81134718265046
C         1.64045718071077   -1.39653669811679   -2.28252962823094
C         4.12275600785901   -1.50496617627823    0.39279782579928
C         3.29509552278191   -2.16900279271813   -0.59451571428741
C         3.36809112484367    0.11028378306967    2.10969016545563
C         3.48041800673391   -1.25121785750211    1.67490287292448
C         1.74928678831619    1.93104010755209    2.28016105872108
C         2.11899147924641    0.58579638117121    2.62219229200544
C         0.45099298242966    2.32715811508734    2.49341608822287
C         0.30137898482086    3.32521856053942    0.27655388981119
C        -0.21624771782677    3.19060745107883    1.56952808840454
C        -0.02334526786719    2.29406713967740   -1.86512143146120
C        -0.59603546150137    3.06994469613130   -0.81624667412417
C        -0.27598482117620    0.07174674864049   -2.82018371181410
C        -0.85858989252528    1.33766675806358   -2.51955437519272
C        -1.11678797299505   -1.07326412063978   -2.86119643505914
C         0.70091353861052   -2.39078700321106   -1.86233176912997
C        -0.68777536909224   -2.24296170677033   -2.16127288750638
C         2.31578755246378   -3.06225563798014   -0.13092314725764
C         1.05901456871473   -3.25298837695682   -0.81723843189266
C         2.46019128360149   -2.12046379466058    2.08019613646098
C         2.08787573909631   -3.20387745210514    1.24429671660939
C         1.04164636314480   -0.31937289204145    2.94773180909937
C         1.26722831180708   -1.67475051968839    2.73055802989615
C        -0.56066180318673    1.46861959312520    3.03460199931034
C        -0.35052715137319    0.09673306919523    3.06202951522087
C        -1.60604251887566    3.05936408818633    1.76627893293178
C        -1.82600855693547    2.00863601814360    2.69941595060018
C        -2.01563362039522    3.10662822886598   -0.62412689310295
C        -2.51558337281180    3.27622220839724    0.71487297868217
C        -2.29276195391392    1.50513196908636   -2.47437359011922
C        -2.88896899808505    2.48062041918684   -1.57959890649487
C        -2.48804931432033   -0.85300191046444   -3.06401015984384
C        -3.07884997123194    0.44954227210991   -2.95386960923376
C        -3.42652357485638   -1.77737497175219   -2.56503224847695
C        -1.66059447263430   -2.86523305952660   -1.31764040991460
C        -3.01466882965525   -2.58704497965674   -1.49366208086921
C         0.06831529387611   -3.57595531278581    0.16658005576285
C         0.68231176194143   -3.45882746127138    1.43098459751694
C         0.15578268100839   -2.51832371855579    2.32584575697324
C        -1.26728463303694   -3.19883435203778    0.01756770705635
C        -1.48363290520710   -0.74884735854805    2.69989136064593
C        -1.16682216377719   -2.04244386361045    2.16732517638313
C        -1.96401228407301   -2.56302467218998    1.09570966465536
C        -2.97624076456532    1.21171665064922    2.61033297267656
C        -2.78966912243109   -0.21265999863625    2.48228663145912
C        -3.83088673376470    2.91356826828951    1.04143025209663
C        -4.06512593079665    1.86874655883798    2.01175749555253
C        -4.27877280726791    2.38321553156886   -1.28563394479557
C        -4.77748769400410    2.73660131355618   -0.00047830070376
C        -4.45954067902707    0.27445080438281   -2.53156699330181
C        -4.64509127057485   -1.09554495598311   -2.21596082391013
C        -5.05815887635493    1.22722656677473   -1.72436030728047
C        -3.87819085304886   -2.28894670157976   -0.37906932468191
C        -3.27990510732750   -2.02964448369653    0.86578691473200
C        -3.76764683770340   -0.93382794311834    1.67886089408749
C        -4.95775327027063   -1.46309787802173   -0.87744502871503
C        -5.16947596580133    1.10678846598010    1.55159059680330
C        -5.73080823266495    1.74776175967015    0.41815907459026
C        -5.83155770756716    0.76947920399967   -0.61125325557359
C        -4.96134982159966   -0.29022755566867    1.27361820634691
C        -5.53164407510217   -0.51880314738959   -0.04203790765618
