78
C78 Isomer 1852 Symmetry C1
C         5.58423262903337   -1.74357845579412   -0.65988000321476
C         5.85135188791249   -0.33344520789865   -0.52066368828880
C         5.60833322223791    0.01477592320899    0.81452607887723
C         4.97797602376337   -2.20596844626340    0.57360937977269
C         5.00938260949833   -1.14992894619298    1.48962790782593
C         3.69362654407322   -2.76589024794718    0.28368671278360
C         4.58816177740642   -1.85792752858676   -1.64723417163649
C         3.48849534599275   -2.61646173056377   -1.13702299063373
C         5.11686033762188    0.36962393873156   -1.55665791012090
C         4.28134334438403   -0.58447108578197   -2.24720671699466
C         4.55063871161957    1.59415287723513   -1.24647085893417
C         4.82814980305850    1.14895902629901    1.14540342671123
C         4.48560660653610    2.03978225096304    0.12547971699121
C         3.83691127765448   -0.70534346240284    2.15246506473852
C         3.77396863393879    0.72480045260785    2.05405078554005
C         2.58700092078112   -2.49853432976595    1.11269323443533
C         2.61668538950927   -1.42635019676232    2.06982614608445
C         1.31832647537464   -2.82053415086454    0.55780602870922
C         2.22020028320513   -2.40794214448658   -1.65736605171779
C         1.14931994414735   -2.87924810644387   -0.84214642919502
C         2.95748849633027   -0.28151407735784   -2.63901326981863
C         1.93742444099064   -1.29808919523921   -2.53292125218798
C         3.31977581459327    1.99174131440300   -1.87348926970604
C         2.49590805568775    1.08330890142020   -2.57147047893310
C         3.28975929425173    2.79663013949270    0.27017569495176
C         2.68470200062698    2.93792108784388   -1.01268754105636
C         2.55527303265434    1.40240320104799    2.15205456483623
C         2.42213700116697    2.60533805674793    1.37156180198932
C         1.38669103079832   -0.74660922806854    2.38401831186859
C         1.35512262087474    0.66998348386413    2.48865042652240
C         0.15988668656882   -2.57465435596306    1.34959547887854
C         0.13984629620042   -1.44380117882131    2.21784928127566
C        -1.03885713589861   -3.06114913220273    0.82767836575888
C        -0.14215607597438   -2.88198108217317   -1.41165344238261
C        -1.18088640788665   -3.30094958098627   -0.56682536438882
C         0.58180241132751   -0.99769495355824   -2.81442880562785
C        -0.42605194963409   -1.97877845620668   -2.47914397545638
C         1.09765308526097    1.39842324386048   -2.74091139444600
C         0.16278532425909    0.35990207796523   -3.04937387346000
C         1.34831855354207    3.29315021103060   -1.17261599408453
C         0.58462155188470    2.63491372398793   -2.20543522511510
C         1.14913686271144    3.15871153852909    1.23900577449590
C         0.68260559844765    3.69317210489793    0.00538752790069
C         0.07227059740965    1.32378225776454    2.45175752745030
C         0.01667077243763    2.62968931499684    1.93224032530969
C        -1.12568972626620   -0.82640288784434    2.47563571253803
C        -1.16862047243762    0.60049332324171    2.52941206763673
C        -2.30096996293072   -2.69426543391641    1.37025467764339
C        -2.35145345226593   -1.56127567570640    2.21790181438671
C        -2.55325931661094   -3.10891363412055   -0.88842856194568
C        -3.28591261445219   -2.90182960249526    0.34773870947525
C        -1.78390414542377   -1.70914557656601   -2.71786935580928
C        -2.85414829219510   -2.34394431343154   -1.99591644535339
C        -1.24872802976593    0.64751751471049   -3.11491111159466
C        -2.21037571063230   -0.39318096017740   -3.03428639196439
C        -0.79490109342377    2.85366117002149   -2.19148918289075
C        -1.71524390189763    1.91556285530217   -2.72450451204309
C        -0.73937147180107    3.72999567987047    0.06616940403826
C        -1.16650539254499    3.12291890965677    1.30126834822527
C        -1.45888395874710    3.47841764668285   -1.07621662601940
C        -2.41144095425265    1.28070636557801    2.22867561051017
C        -2.38610968567857    2.48330190932672    1.41796147625704
C        -3.59195089764778   -0.88872855857529    2.26164590964978
C        -3.60972721265836    0.56048404299746    2.23972126395930
C        -4.45996080262368   -2.17777280900908    0.34863069409116
C        -4.68786787625142   -1.32782391060702    1.46964824444081
C        -3.98054729698782   -1.43381876364584   -1.94966678129671
C        -3.55181829501330   -0.20850886938292   -2.55746063940912
C        -4.84678818302041   -1.43246266316769   -0.85902390565530
C        -2.98760818700391    2.06906312052456   -2.06592026534763
C        -2.77374670982403    2.93319037818851   -0.96015780174900
C        -3.32363101213630    2.60851715811529    0.30771136948224
C        -3.95125503038970    1.03863060908226   -2.00102138682364
C        -4.72859043804081    0.98411482267848    1.44765673548475
C        -5.40532214387617   -0.16905729148118    1.00979499305072
C        -5.38637145805895   -0.18503631447582   -0.42126245076897
C        -4.45570351729530    1.79487974122941    0.29424335923860
C        -4.82909248422556    1.04339217083003   -0.88646582774492
