76
C76 Isomer 13009 Symmetry C1
C         4.44584418576047   -0.97155034608726    1.44601428260269
C         4.89801955337290   -0.27099062470429    0.35257101810217
C         4.67862014650322   -1.07864584029789   -0.85048305215087
C         3.92166057010527   -2.23852655757379    0.94481515948042
C         3.94626651322972   -2.23328919401626   -0.49239208980605
C         2.72394694142737   -2.47131909871738    1.58632942392788
C         3.47125684840577   -0.39306766788740    2.32677782270472
C         2.48320307100192   -1.38369225215086    2.53439483521887
C         3.08009562253667    0.96469524667917    2.22056186417292
C         4.43547304896144    1.05239991493880    0.12113234985638
C         3.66904341449905    1.71452616419321    1.12009085946249
C         4.20066877726906   -0.18887301649286   -1.82981221607314
C         4.05113650243031    1.13429339155771   -1.25560118434678
C         3.22140042868970   -0.64181983020776   -2.69068008832496
C         2.77164479456211   -2.60663253536701   -1.23046261966713
C         2.55507117692356   -1.89435037705094   -2.42792867339057
C         1.63089748751522   -3.07179737243444    0.89139314024010
C         1.59394792866853   -3.10628554694867   -0.55092439763356
C         0.44403133994575   -3.02605519391340    1.60788928614583
C         1.17913918867549   -1.06548133947186    2.93600427174475
C         0.23152564453661   -2.06692346064605    2.66902403190578
C         1.75028730934056    1.30743338545718    2.70222473000292
C         0.76988724631973    0.30941373183115    3.05419160503405
C         1.24091894770715    2.57500454696979    2.34253870592690
C         2.95648029246089    2.82395926926594    0.61788578337087
C         1.90190904581662    3.35135318720590    1.37334155339717
C         3.00243012611197    1.98829905709236   -1.69248286977048
C         2.58831005690734    2.94890338014674   -0.76584182139553
C         2.25333071385622    0.26969232387179   -3.22609077985062
C         2.06052685220156    1.56399518532753   -2.70881681705817
C         1.25945048343827   -1.82459639026889   -3.01292611153781
C         1.14706193949519   -0.53524211489658   -3.62790284897406
C         0.29788023760102   -3.10375730520866   -1.18716849366789
C         0.12880260499640   -2.44831580118739   -2.46073526190056
C        -0.80394437733494   -3.28441099099785    1.00606759930251
C        -0.89933745089031   -3.31516636308102   -0.39901492358311
C        -1.14142330104049   -1.81004637380675    2.74575642556910
C        -1.81256641595492   -2.66538517145105    1.80889674239822
C        -0.64462319512004    0.59122644590764    3.03262686990934
C        -1.59797621291868   -0.49233910556734    3.00108455995169
C        -0.16676119368411    2.80356532795362    2.17751330323004
C        -1.11731962389116    1.86071685171979    2.54026144509221
C         0.90411572756297    3.89081142339086    0.47482655665334
C         1.26027088792669    3.53338523660763   -0.83370724852124
C        -0.36037708902523    3.59297379280716    0.98195806089051
C         0.71465692657930    2.12266572101138   -2.73308013582016
C         0.27369642204340    3.05838990425500   -1.72086428102800
C        -0.07720376911764    0.04515517683236   -3.80235546105840
C        -0.28487960411790    1.39749753784959   -3.39837448030497
C        -1.17149986985375   -1.94433191410441   -2.87481107544914
C        -1.25809565727476   -0.71236695315399   -3.55975740183048
C        -2.17939389727984   -2.98163793709792   -0.90754212005028
C        -2.31685435342927   -2.29362911539873   -2.13248738452228
C        -3.07335703772428   -2.34743182994325    1.30908936944762
C        -3.29401195383995   -2.59917172768359   -0.06598112896750
C        -2.93709952169014   -0.24609198221643    2.66193605263165
C        -3.72911193261912   -1.22685131921288    1.91984994206953
C        -2.44065444128766    2.04569228410864    1.97859535229335
C        -3.39454425366160    1.05486927866536    2.29523916899101
C        -1.41437405326678    3.30608405975689    0.10311090496847
C        -1.10859194626036    3.08401493488675   -1.28329001304879
C        -2.58600023147867    2.76023135336811    0.73527083710891
C        -1.66883011659920    1.50387883955078   -3.06994995749743
C        -2.29033265342992    0.22684271414759   -3.26550927243773
C        -2.09973657915359    2.36682755501423   -2.04180406172311
C        -3.49620838889587   -1.46471366006934   -2.06253514042548
C        -4.15662035417941   -1.74737251699837   -0.82126773869233
C        -3.44863012322875   -0.14613861710579   -2.56466551568814
C        -4.73323956617856   -0.56130213076000    1.22825287295731
C        -4.55300314370724    0.87503928413434    1.49139185399266
C        -4.91093194750832   -0.74838791985087   -0.17755510577604
C        -3.65387005287073    2.42628304758881   -0.12731211250991
C        -3.35974530119588    2.09851733923950   -1.48137456810079
C        -4.10537903713476    0.88834560296436   -1.82292288028790
C        -4.68181754408216    1.54489134805853    0.30076234718874
C        -4.93656281445946    0.55811364967304   -0.75825965507172
