70
C70 Isomer 2658 Symmetry C1
C         4.98329163417148   -0.83069020438139    0.02559496011099
C         4.57061416137508   -0.39533459341000    1.33074675579108
C         4.14716288058020    0.95987200882216    1.27520198957091
C         4.68718567359051    0.21791960947538   -0.89489781436948
C         4.33353657340106    1.36374081906069   -0.11391726085546
C         3.75686836555039   -0.26269634167461   -1.86077427840174
C         4.19666200657969   -1.96435371571298   -0.31771784498213
C         3.48828966645414   -1.64558690328062   -1.51676140433478
C         3.70226072432506   -1.39637761275490    1.86299576212337
C         3.44281402303913   -2.37770830188142    0.82805911524610
C         2.62893389111105   -0.97037389390283    2.62308617475967
C         2.97651252728896    1.38721760029947    1.97333496850946
C         2.30592702082837    0.41707471865454    2.74655097650317
C         2.15464325815407    2.46697812907680    1.45230799778453
C         3.42501768259929    2.22615640719768   -0.65799648963947
C         2.50722356790140    2.95406530854774    0.18338980964429
C         2.69741123996887    0.56421688297694   -2.32777221341789
C         2.70955882029064    1.89617201984971   -1.86372360702087
C         1.42098781817466   -0.01252441550752   -2.69726943633781
C         2.22992608096846   -2.18668410926088   -1.73561682568972
C         1.29029398149036   -1.43382703968830   -2.55103266804123
C         2.16451324290446   -2.91873267786390    0.64337752573440
C         1.70171618795599   -3.06466612504647   -0.71339344202761
C         1.40283774140552   -1.71497747896319    2.60417925486365
C         1.14481656405615   -2.70697664691295    1.65310483978055
C         0.89030323566444    0.49800129900711    2.98721489666318
C         0.36012061917828   -0.82324101917348    2.99277170258944
C         0.76337258606218    2.63697770520818    1.87504208077872
C         0.08982227672926    1.58248603858221    2.61286154556188
C        -0.05450260995441    3.50709951675215    1.14679660906597
C         1.51935911314209    3.47583554608481   -0.69340431525455
C         1.52707602699416    2.67825353502530   -1.89132614859122
C         0.33151080230668    3.92706234595009   -0.17227454050044
C         0.22334097439919    0.78934185210973   -2.76234310220301
C         0.31552911407097    2.18178464269771   -2.41774060328604
C        -1.10212204246145    0.17763951877924   -2.73722322503735
C         0.02464308040910   -1.99059726701318   -2.72483576244980
C        -1.17078270225244   -1.20518774440087   -2.81286543280196
C         0.40222829123259   -3.53815252420418   -0.88272337323347
C        -0.31554852638616   -3.18328571058411   -2.04364355057661
C        -0.24318263221591   -3.03123182431403    1.41499205171144
C        -0.54847492007445   -3.65754016670265    0.19351374385069
C        -0.99021868743463   -1.09141974078142    2.78437830644873
C        -1.29823644220340   -2.33156670162986    2.11555648324379
C        -1.34447665248908    1.37335496028604    2.57743453514837
C        -1.87830877364387    0.04693361195995    2.79871913498843
C        -1.49431025246394    3.35064004667347    1.13423425038345
C        -2.15183971192763    2.33568958803078    1.87032362701585
C        -0.80554355635672    3.84110968969910   -1.00597452656910
C        -0.86767570226876    2.87450286553383   -2.03018103812969
C        -1.95412900930289    3.67060316128845   -0.16193071880147
C        -2.29578909804473    0.86018839603361   -2.22808789007017
C        -2.15577997993905    2.21903077942844   -1.95225910330619
C        -2.85964018169485    2.81635943906132   -0.84196880578274
C        -3.38602102218238    0.11787120571146   -1.58312837605611
C        -2.26238655585693   -1.95841779940650   -2.21154028274765
C        -1.71916407898747   -3.16845330091945   -1.75357431550307
C        -1.86892445398038   -3.54960788018596   -0.38898890105186
C        -3.31529883801775   -1.32599941462437   -1.50785226491725
C        -2.62731621282551   -2.48257394647184    1.65247716722118
C        -2.88876665610823   -2.96824388847553    0.31254785503935
C        -3.77238720436683   -2.01753888903094   -0.33817260141405
C        -3.23209050201720   -0.22621388131327    2.46896559260272
C        -3.57780257588719   -1.49903732199169    1.93366335841773
C        -4.36052278884489   -1.28148035132911    0.71153517742634
C        -3.42002420631574    1.93631437663342    1.34787692550329
C        -3.69355912883177    2.05478604923097   -0.07541468378831
C        -4.13221102336746    0.77767398016474   -0.57013494171376
C        -3.98888471002636    0.73143362156695    1.74723756224919
C        -4.58039001562345    0.07091215733421    0.57938905257212
