74
C74 Isomer 7662 Symmetry C1
C        -4.70549385787462   -1.39404407438825   -0.43888191531911
C        -4.51327198137454   -0.43528315779472   -1.38255129751314
C        -4.60450676434424    0.88510714349202   -0.74180108068375
C        -4.87818778522516   -0.68297933654230    0.85415958652004
C        -4.56698875607635    0.70680096182639    0.67608834223645
C        -4.19207251959121   -1.41246061065203    1.77949980408049
C        -3.73503769382069   -2.44935643127438   -0.28100641160567
C        -3.62431453769775   -2.60311574390634    1.12038467667649
C        -2.54800550844614   -2.48492478883416   -1.08712962452681
C        -3.35180244918852   -0.43964595513436   -2.22473398156996
C        -2.36049222827949   -1.44409593187024   -2.08332759970032
C        -3.69346002633953    1.69853567529839   -1.36693443850788
C        -2.95960276376443    0.91396630556939   -2.35557979435019
C        -2.99202766956101    2.65795195678359   -0.60083552803455
C        -3.51894061080145    1.32430275824756    1.42436987798870
C        -2.83137663832410    2.44436848927394    0.80919635882770
C        -3.16522574916675   -0.82684369781513    2.57604551423118
C        -2.78972948309152    0.52987531473855    2.40777385861410
C        -2.40011535673617   -2.85802287542771    1.70820956811634
C        -2.14516734384194   -1.81675506682502    2.68055109648618
C        -1.36964191365745   -3.09420608474589   -0.51407738159606
C        -1.33857758331047   -3.32898206582203    0.89847838402144
C        -0.10419940762358   -3.01965598984397   -1.19807458920204
C        -1.02604048731105   -1.10570595957798   -2.50403376226872
C         0.01677217227514   -2.05560250329085   -2.24720867457632
C        -1.65083765112694    1.27022994240935   -2.69873094687400
C        -0.67280567433343    0.24481330645490   -2.84895821689948
C        -1.97696683880182    3.29459120073012   -1.34149001141634
C        -1.25229201689276    2.58429586937617   -2.38192334120657
C        -1.07052967141988    4.09179989968346   -0.66701071478412
C        -1.66445113614963    2.99655730588493    1.44670325288567
C        -0.88916406886276    3.94379809703558    0.72733344529613
C        -1.44311589628062    0.89258385642938    2.79351878509619
C        -0.98138233782074    2.22123548113900    2.46544961233970
C        -0.83678952059977   -1.48299399787114    3.00906968337612
C        -0.47787928578830   -0.10720864624735    3.17262305544149
C        -0.10449194218107   -3.32200265962553    1.55843443970940
C         0.13938179200748   -2.42566375387142    2.63308297643066
C         1.11569110056680   -3.48728482428274   -0.55015037453891
C         1.11096867392977   -3.54108935510937    0.86349598096518
C         2.39060428770074   -3.22320795482257   -1.13507921885169
C         1.31326319085696   -1.70995734715496   -2.70414761832700
C         2.44930860608342   -2.39377179022815   -2.28678232898431
C         0.70624156547146    0.67077370242676   -2.84068325064328
C         1.66819862619934   -0.31865144957412   -2.88021300339562
C         0.12039760939029    2.95222619836374   -2.28469782365291
C         0.22533324633102    3.97965898898962   -1.31874543079335
C         1.13591324363652    1.97489001096947   -2.38949406844482
C         0.52635627673123    4.09057812335134    0.93738606568424
C         1.21430534447410    3.95476995231473   -0.35056510534018
C         0.34198981244413    2.54188529150969    2.79482642048060
C         1.10017081708209    3.52870956724246    2.04211180678432
C         0.93229586670861    0.17384711411599    3.24898945433482
C         1.28251670097411    1.53122412016422    3.19119758578474
C         1.52996378175094   -2.11562389341419    2.62671892321610
C         2.15636763533402   -2.94812593806543    1.64808991272580
C         1.95211105441741   -0.80941860554770    2.91059829593616
C         3.51074271128716   -2.86107391731545   -0.32558481574517
C         3.33097802264667   -2.54967695538472    1.02817629503581
C         3.51074969735070   -1.40663840030183   -2.10637499495512
C         2.98472887996969   -0.10432454948912   -2.37468683478301
C         4.14890991081973   -1.68860307436868   -0.91762901945618
C         2.32160200978564    2.10244782479394   -1.58081461921204
C         2.33648581884446    3.08283341507511   -0.51468474338464
C         3.24040190405482    0.98581760797341   -1.51873259382266
C         2.44479027929416    3.08875226526827    1.93197903567025
C         2.56339166156911    1.91215715364960    2.72615876251112
C         3.02971393898687    2.78677906637927    0.67771949119133
C         3.19030123212757   -0.39567134158319    2.26813667276187
C         3.81564734739464   -1.20975326935125    1.30033770392964
C         4.26800429342019   -0.65784839845556    0.05934478851655
C         3.96001462505444    0.69474178090456   -0.29106898435194
C         3.41798716939104    0.98124299359830    2.08824986204302
C         3.73338424934340    1.52712165434664    0.81093476337182
