68
C68 Isomer 5564 Symmetry C1
C         3.57509847439153   -1.55982519097536    1.43429626145127
C         4.15276256194734   -1.38513574925926    0.17598624495011
C         3.58679260355239   -2.38134941046204   -0.72310308089963
C         2.68527169402180   -2.70624461783086    1.34700193822146
C         2.66369351122747   -3.17488537767961   -0.00295035259720
C         1.49102682406551   -2.36084992767658    1.97845527094305
C         2.87898919503729   -0.50166955851596    2.06833508252165
C         1.58111089950981   -0.99760245993929    2.45818812380077
C         2.99770708304419    0.81522034182497    1.59655737824183
C         4.07595507253872   -0.11654705757510   -0.43152745935794
C         3.69904933801802    0.99416241672745    0.34484647176278
C         3.16510713605916   -1.68203806326398   -1.87931873731020
C         3.46851050095249   -0.29446971434968   -1.74593811411260
C         1.94699272659768   -2.03776712927355   -2.46875816606517
C         1.40812080621381   -3.52702904653895   -0.57451765015789
C         1.16114731540269   -3.08258754565764   -1.89799019416507
C         0.26365879637934   -2.89086059606559    1.54122755814404
C         0.26329210588519   -3.62210188600264    0.30488280523075
C        -0.91723792004479   -2.22139113936249    2.02713266058702
C         0.45435234791396   -0.18180985404013    2.51398501490696
C        -0.85132298933764   -0.81889410153795    2.40226638878014
C         1.94534164621045    1.74159016115378    1.96637109833652
C         0.63887136752846    1.24968187300213    2.36007178159840
C         2.05610150451278    3.04055613220607    1.40561905184199
C         3.34904684976638    2.12483006925378   -0.43671377762970
C         2.79364790642007    3.22095638134601    0.17889847238988
C         2.59846161766805    0.68059506787241   -2.28481566987727
C         2.72809575479325    1.96364973057817   -1.74440975020900
C         1.05731247775390   -1.04343704389676   -2.99928988212343
C         1.31561258574912    0.33081487725781   -2.86433600354620
C        -0.18262291185393   -2.86409779531688   -2.35889698010460
C        -0.27305701384448   -1.57036564558953   -2.96547455465192
C        -1.00035105229823   -3.82176206253362   -0.30572938650286
C        -1.24496851065081   -3.36011955275482   -1.66432671951087
C        -2.14411220753484   -2.77331876290497    1.59134618119897
C        -2.15919093930818   -3.58987805043566    0.41426044001664
C        -3.28635467816604   -1.95407250487883    1.52444180803403
C        -2.00070344223639    0.01458314047602    2.24700440144719
C        -3.21321271957691   -0.59053222033141    1.79182465374555
C        -0.53432144886084    2.05715055216860    2.16975201784108
C        -1.84453298518710    1.44660185638227    2.04421301682364
C         0.90657197191395    3.83796087894683    1.28230543052769
C        -0.35637096887763    3.35939937647954    1.61679354745798
C         1.90045091695271    3.85595271363734   -0.79560335322395
C         1.71827997327340    2.94379746750158   -1.89660940666617
C         0.81959782218472    4.33194965377355   -0.11061519224666
C         0.19242036497082    1.23656643487735   -2.80620449923931
C         0.41081336261893    2.59042306998842   -2.33851792364408
C        -1.40042742475343   -0.76232203833095   -2.81629005432251
C        -1.15382079832697    0.67277809642471   -2.83140473466625
C        -2.50794239279487   -2.67865757987572   -1.71313450863724
C        -3.17057411109672   -3.04070092562336   -0.49721369705483
C        -3.91224403997508   -2.11913439015230    0.19783150698415
C        -2.59557507452495   -1.35439580105760   -2.21227839511575
C        -4.00874993495339    0.06148374964712    0.76845517281045
C        -4.16030777263857   -0.84173163025846   -0.34410533815211
C        -3.56160748435285   -0.47138288715593   -1.59573184482417
C        -2.84242570230224    2.12671512651803    1.30525591445046
C        -3.82667986836477    1.39360892538580    0.54253945282867
C        -1.26044851992767    3.82276398707121    0.57459768782893
C        -0.49058773262719    4.12996593071998   -0.59741832977607
C        -0.69857846136551    3.34174212727255   -1.77524674811054
C        -2.48379579757735    3.23068395291315    0.45225767443367
C        -2.22369638625714    1.48545306291327   -2.44735376977704
C        -3.39678169295356    0.91312074389660   -1.80610553462408
C        -3.80314957688057    1.83105191970468   -0.81403947744710
C        -1.98923032382558    2.78991728104304   -1.89795972564885
C        -2.94628223179915    2.97124021813923   -0.86807149813947
