76
C76 Isomer 15415 Symmetry C1
C         4.12030338180604   -1.74456046289325   -1.34555705887106
C         3.25965090106649   -2.81422441421031   -1.30815878829214
C         3.04604889072058   -3.18109142728443    0.09745865149059
C         4.45527815355496   -1.39521496974543    0.03042992719394
C         3.64032928252327   -2.17982251271035    0.90746898071628
C         4.53063060140857   -0.00734830013144    0.12039832510238
C         3.76309396725192   -0.55119676627078   -2.03101033439411
C         4.30140858056161    0.51122965110791   -1.21980535155989
C         2.47891985714301   -0.40996593216820   -2.61877679288982
C         2.00019180310273   -2.73888542589877   -1.94711658850371
C         1.57690565934355   -1.54425497911707   -2.59893500774566
C         1.70708082861079   -3.51404305124814    0.23526995399600
C         1.08796396561195   -3.40400170724996   -1.06812529681192
C         0.96576306930015   -3.08867648441056    1.36193210616116
C         2.86543143916656   -1.53610572474141    1.90783713215297
C         1.55966364645846   -2.09484484378206    2.21398090586595
C         3.98197650729658    0.65504068070841    1.25732630626640
C         3.13517958089379   -0.12577060212304    2.15028356805892
C         3.72371757118557    2.03887433269279    1.07624617496118
C         3.81335667457084    1.77903426328249   -1.37454773341575
C         3.75402633024311    2.60539681180766   -0.21665750143667
C         1.89152151561599    0.91507137441073   -2.67187223121153
C         2.62551983605985    1.99925915310028   -2.15729560138373
C         0.46912304232785    1.09258053411873   -2.86092330588676
C         0.16542466348763   -1.35332659701235   -2.74624143484816
C        -0.38419922488098   -0.04255253092951   -3.00815751022186
C        -0.26942394511540   -3.25706971686945   -1.20220106110725
C        -0.72011496889230   -2.37625574351302   -2.25342986010706
C        -0.45686735830826   -3.26984049626400    1.25606997275815
C        -1.07441902137180   -3.51134598796388   -0.02694879423433
C        -1.26854176835014   -2.69144669686719    2.24485374721883
C         0.64182121903241   -1.32721728384091    3.00668741025085
C        -0.72515963057099   -1.65146015538554    3.04431463647980
C         2.17338709867364    0.59224114517372    2.88227054177878
C         0.95444840905016    0.01010552448409    3.30882207027267
C         2.64330334737682    2.70851866298981    1.76885560964530
C         1.90881504563899    1.99473066047850    2.67284123552577
C         2.62741963597966    3.48230080315943   -0.36638037781197
C         1.94747616215548    3.11375743974071   -1.54250284502888
C         1.92877094720935    3.57065850369727    0.86262208723697
C        -0.12785790413410    2.36131342376696   -2.49863153592886
C         0.56480637909652    3.24887161818199   -1.60084461577648
C        -1.51687638478602    2.51342567844552   -2.53730927872810
C        -1.82828183865300    0.13693464714465   -2.98313807755669
C        -2.38733257959854    1.40952775412984   -2.77460480213302
C        -2.10652004051705   -2.20832631177246   -2.32933646794501
C        -2.68400533601833   -0.94080094291238   -2.67555326186729
C        -2.45555202711482   -3.33952630212451   -0.17347719208908
C        -2.94990118462530   -2.83844695546228   -1.39976337174748
C        -2.66418924546024   -2.41671613005052    2.04233973108238
C        -3.28239020540681   -2.77492112236432    0.86920702602864
C        -1.74778609982335   -0.65477045524833    3.22450812883373
C        -2.94935449316939   -1.13756977541289    2.64964907548485
C        -0.06489042547311    1.01727073610200    3.32183444586032
C         0.50212610615049    2.22815578422007    2.81473232208609
C        -1.42375667693878    0.72152295219650    3.18475639044180
C         0.52797493570155    3.65596951505010    0.86014356721556
C        -0.10541068518565    3.76174168707840   -0.42663446103723
C        -0.22503321896703    3.03729832753924    1.93430685922739
C        -2.16131400826635    3.37240162864714   -1.61063261639926
C        -1.49876346296350    3.76430044032267   -0.44277377071730
C        -3.58811980924798    1.59081295529442   -1.98079138786451
C        -3.41880589080476    2.77521216249381   -1.24944539405039
C        -3.89970736043105   -0.78035262065315   -1.92495141660372
C        -4.05131173921597   -1.94092705831384   -1.13334340211511
C        -4.24806175139050   -1.86870341869233    0.25939528209193
C        -4.25723636034632    0.48567282359363   -1.38983697702885
C        -3.82187578986182   -0.24820152017993    2.04069045784109
C        -4.49285363143148   -0.61308057135466    0.82777342109077
C        -4.57210852610969    0.55813350019126   -0.00548457848803
C        -2.27189945690965    1.65299440309325    2.47446638529962
C        -1.65075582292562    2.78574278224276    1.80716393465020
C        -2.29686996399517    3.33303705829808    0.69447176262312
C        -3.51264578094498    2.76958377465722    0.17020476917951
C        -3.49092977149861    1.15471796676281    1.97992775184796
C        -4.08073564567208    1.66342483676780    0.77965542982082
