56
C56 Isomer 807 Symmetry C1
C         3.93967003985008   -0.95531717308778   -0.05932010789001
C         3.74618903167597   -0.13454872351577   -1.17262864089237
C         3.54892047809561    1.22309838608083   -0.69113326609684
C         3.70646181551400   -0.13778003176674    1.16352866431950
C         3.46531175813205    1.18126381380357    0.73727442863101
C         2.76279419104078   -0.82099563677421    1.96755838244914
C         3.21915946965333   -2.13475074294027    0.06319285587331
C         2.56165079648416   -2.09723018567305    1.36996829929309
C         2.23752170042714   -2.50348323955900   -0.89366874993448
C         2.71733504715942   -0.42868551335295   -2.11233283785972
C         1.97399983591643   -1.65151310477135   -2.00981304990424
C         2.50721430403705    1.79792328952992   -1.42394284123405
C         2.01730982472379    0.80581466477735   -2.35521139736309
C         1.60049435947531    2.72462470407880   -0.80850331255335
C         2.42359788733977    1.89894236937686    1.36518337798931
C         1.61469926777770    2.80660445912268    0.61939499372281
C         1.62727773917210   -0.14380701773681    2.54256684161109
C         1.59742147968812    1.25825470086196    2.35195994563133
C         0.36850399553945   -0.85252626367345    2.67594275373144
C         1.29041304033058   -2.64750109617756    1.24377227999338
C         1.11257522446150   -3.00968466913356   -0.13901686142595
C         0.19900242907990   -2.13928163218298    2.02058327351163
C        -0.18183899708934   -3.08452074703510   -0.67291653513751
C         0.62927478305982   -1.61784934889833   -2.47260336017996
C        -0.39534481618090   -2.44691119723761   -1.92163480803719
C         0.66789380815249    0.83468890275074   -2.77161166538107
C        -0.00136723052810   -0.41315135157604   -2.91895398650545
C         0.36723187273009    2.92053363817636   -1.45873389012145
C        -0.12064790983703    1.95654557532811   -2.42901708060225
C        -0.75724752838098    3.37972260908454   -0.72891282507482
C         0.37900024742822    2.97967264957706    1.34773359845992
C         0.35933205669154    1.98309154063081    2.38181775613067
C        -0.79972642904318    3.30297037411447    0.69271902450384
C        -0.81330436148407   -0.09119711875430    2.87176638387062
C        -0.81598290596680    1.33432473472519    2.70490989478014
C        -2.11777953506863   -0.56881404848532    2.51219996882153
C        -1.06486843523239   -2.56512093370153    1.60702532779787
C        -1.25877273144817   -3.11116796492240    0.26789473944580
C        -2.25719386661913   -1.84075160856517    1.95801618997922
C        -2.54839044315946   -2.77956673960363   -0.15303750929773
C        -3.20782501938895   -2.03705087730855    0.91767834793442
C        -1.67176676860314   -1.83833122702149   -2.20905372894461
C        -1.42190092998335   -0.53193686182643   -2.74408167112844
C        -2.75827413156402   -2.06769485633057   -1.37254253521939
C        -1.53717376937933    1.83155981852755   -2.26002138414848
C        -1.92005720150290    2.74817550027515   -1.23998648511520
C        -2.20544567212617    0.58454451584637   -2.35853371020771
C        -2.05354820565862    2.66710893538448    1.06859994369947
C        -2.06036378687582    1.71888926056903    2.08033152056909
C        -2.88890727782122    0.54197156416719    1.98470916255798
C        -2.77267279838579    2.36751753723439   -0.15726023320351
C        -3.89210740415053   -0.96362312402408    0.36819514148148
C        -3.61842323334376   -0.95081388819637   -1.06396724027763
C        -3.30858469028238    0.34957042236443   -1.45373190723681
C        -3.71048645373336    0.35677256381806    0.86905652073541
C        -3.51125395079888    1.21342039362651   -0.28440799655115
