78
C78 Isomer 22960 Symmetry C1
C         3.07345808605386   -3.31348839965463    0.93695555540684
C         1.80100864715247   -3.90882727524308    0.94061244549371
C         1.06084446070454   -3.34871625675003    2.05480882384663
C         3.10959570333847   -2.33863015738954    1.99494802623860
C         1.84969919133553   -2.32583989643937    2.64652362933605
C         3.69928543829374   -1.15848880103138    1.52124902985876
C         3.60736779895583   -2.69494570090119   -0.22148957185809
C         4.04765449723781   -1.34862205235909    0.14204286040995
C         2.94808904139165   -2.87999863429310   -1.42433658531419
C         1.12351124518558   -4.13261360525317   -0.28971586645211
C         1.70531025174063   -3.60957120660659   -1.47316588377210
C        -0.27857213884105   -4.16342931666871   -0.24455907396931
C        -0.33607918681801   -3.23733271157840    2.04196670778499
C        -1.00329711582348   -3.87677761768599    0.97102780140342
C        -0.94084272814810   -2.07516350279638    2.66829242283140
C         1.30128154835201   -1.09979897791408    3.07483649181287
C        -0.13117217646124   -0.97594747805987    3.12182052513109
C         3.27141194327942    0.08386234597576    2.03223424285696
C         2.15091485933939    0.06218484022297    2.94671976436160
C         3.56713437834950    1.23064545617524    1.22091484173125
C         4.00681289233747   -0.27546722178958   -0.74829543720699
C         3.90668128036218    1.06077030547237   -0.17436999576287
C         2.87146899171578   -1.78945935040992   -2.34240750938113
C         3.49997372240499   -0.54702279583306   -2.08496847665785
C         0.88631267852080   -2.97197484279830   -2.44525767347648
C         1.60189453031855   -1.84900230012553   -2.97473738212162
C        -1.08221939268143   -3.72174992613031   -1.33784023850637
C        -0.51519231125089   -2.94227562902295   -2.37529542640232
C        -2.31692150480464   -3.49456412850383    0.61026546415664
C        -2.37919088776306   -3.41941648406795   -0.82547032703379
C        -2.29322589789498   -1.81330894814531    2.37036796948887
C        -2.99780736350089   -2.54913143242351    1.36660730468426
C        -2.85997644433045   -0.49323864340469    2.42183099897279
C        -0.72536153949317    0.34146870965434    3.18467210765556
C        -2.07051735643526    0.61717514829480    2.72581122420899
C         1.54733375725050    1.29118299281115    3.23921262810008
C         0.12278613805498    1.43605839162010    3.31300356494766
C         2.98442399766030    2.45925713273248    1.63043360991901
C         2.07488175225688    2.47091695946733    2.68820175086326
C         2.49713971571619    3.43538721607869    0.67621488491540
C         3.58810238423145    2.11941811382302   -1.05653861544584
C         2.77471518613919    3.25616112001828   -0.64092933182220
C         2.99993251705042    0.51593357438035   -2.84796210202559
C         3.19119700220098    1.83888180361949   -2.37460782031686
C         0.91801401179905   -0.68806279807852   -3.39993336001997
C         1.70481320531238    0.46840798585304   -3.45541467336348
C        -1.23441516369182   -1.76806939004028   -2.85741076433153
C        -0.51361817724440   -0.58492881310775   -3.26922534120198
C        -3.14587211488338   -2.45053667066353   -1.43158119672693
C        -2.56675542188465   -1.61923332937468   -2.45147735081245
C        -3.94701663322658   -1.67368458669526    0.73593020082970
C        -3.93413529728399   -0.43358495391793    1.47199146068429
C        -4.04088240203818   -1.63873036161322   -0.65039495318623
C        -4.23907090007847    0.75659373758204    0.85212050214282
C        -2.40496638131283    1.89077416206525    2.11570027946305
C        -3.50441294421060    1.93990013123185    1.23037257564239
C        -0.22086710234226    2.71507134442759    2.72883447724315
C         0.96305918686626    3.35618458365249    2.36323827592696
C         1.17308344515315    3.86937756020994    1.07244360782308
C        -1.37346995229564    2.87658048005631    1.93537573531246
C         0.09556967349208    3.88522780891287    0.15812440931979
C        -1.20615526802628    3.57543384037192    0.68491142049948
C         1.72594546472411    3.46795638598225   -1.61487950713784
C         2.03613173391941    2.62070394164165   -2.69853488856838
C         1.08983350955406    1.75974897573255   -3.29835203424528
C         0.38529305800539    3.62553634704607   -1.23436051861690
C        -1.10913286356576    0.71279903609275   -3.11474014236233
C        -0.26097827377662    1.88007676283176   -2.98136416829202
C        -0.61241369450124    2.95926198578511   -2.06428629774459
C        -3.20355979340160   -0.33945130472016   -2.38231219439984
C        -4.17409382956359   -0.37576083232642   -1.32386958198790
C        -4.43165538350955    0.77484844901441   -0.58544047500587
C        -2.47459838810738    0.82947612625574   -2.68704957968052
C        -3.41145265988170    2.75751993929092    0.08393753648548
C        -2.22810327796688    3.40463282016026   -0.26888091796264
C        -1.91426517728227    3.00500248852368   -1.61768616086233
C        -3.88667379947944    1.98664713221737   -1.05681503151488
C        -2.89502598195521    2.02678019853311   -2.04259870223968
