66
C66 Isomer 313 Symmetry C1
C         5.35681333620543   -0.25011864857892    0.49784913505758
C         5.28022133140305    0.64995599776830   -0.54891567992149
C         4.55865348702026    0.01524383507973   -1.64749756138675
C         4.71098080183384   -1.49379334730762    0.10908837215901
C         4.30234141797731   -1.35704303978128   -1.26746964009150
C         3.72657211009270   -1.75234560961453    1.07632580826292
C         4.67460732421755    0.30131667785139    1.66256174707273
C         3.69532261639327   -0.63593395631308    2.03783239624891
C         4.53236427571654    1.81305892979034   -0.09418804228720
C         4.25073692542532    1.63050448857361    1.31683693736890
C         3.45967215969800    0.83720868073928   -1.93098853649560
C         3.44873382138072    1.95571839938187   -0.97201378832672
C         2.21071471909980    0.29339028707081   -2.35120652405112
C         3.07537288095154   -1.88922528222951   -1.61502559173485
C         2.12226344218422   -1.10994904843996   -2.36713589759940
C         2.49984686669386   -2.36949315606596    0.72222662312426
C         2.28221633764317   -2.60561373739122   -0.64817258038074
C         1.32704955046501   -2.18601833596385    1.55276481324194
C         2.43682954656066   -0.22181706577374    2.55332761669754
C         1.27881007744931   -1.09508788634839    2.46054833641078
C         3.00534857688525    2.03006817221411    1.76551945611725
C         2.18898039791285    1.16116829821557    2.57633904964091
C         2.19218181265023    2.44527629454267   -0.52240156814978
C         2.07973019351617    2.66558887273683    0.86275103683172
C         0.98333276029224    1.04111220182331   -2.16855813826650
C         0.98043455636376    2.13885481903372   -1.25712306573606
C        -0.27735647237102    0.41308948992768   -2.45683648346349
C         0.83701695028572   -1.71210657208167   -2.19653325609405
C         0.93231559202668   -2.64805777536275   -1.13524422951414
C        -0.35136601528711   -1.01854780630892   -2.39472850484827
C         0.08678159278536   -2.75975133476738    1.10282508094023
C        -0.16077178077386   -2.89780957174443   -0.31017831988839
C        -1.04334572782125   -2.55559774148732    1.89455667675376
C        -0.01455389150858   -0.58286908455469    2.85964799610500
C        -1.12193339074324   -1.41082814893684    2.73697602506227
C         0.82866588977339    1.63331367766564    2.50473547296149
C         0.78502976909189    2.57578873894282    1.44987691589957
C        -0.28286787044690    0.83468452207582    2.77645170160406
C        -0.28087431080611    2.54130955301658   -0.71338392268961
C        -0.37724154078246    2.70045125646224    0.70312556693705
C        -1.48907869379038    1.13623640548441   -2.30029811844168
C        -1.49037807094885    2.26273893591004   -1.41919452746919
C        -2.72088027032505    0.41945825647179   -2.45308150895498
C        -1.55020732934000   -1.66852512274779   -1.93330582809381
C        -1.46566179943800   -2.62582238636324   -0.86567120005250
C        -2.75089748246931   -0.98013526646639   -2.14476698050999
C        -2.34606531506905   -2.76836250087673    1.36702555203331
C        -2.59329410513457   -2.75156554809605   -0.01851773881690
C        -2.48823390769899   -0.90754911257370    2.67942358665850
C        -3.26244162712691   -1.84930792365391    1.97563294437247
C        -1.57594708607943    1.32290962225187    2.37728892409022
C        -1.59164439676689    2.34694200763568    1.37973304096183
C        -2.74659476282544    0.47370470512004    2.48729735700124
C        -2.70568576983384    2.63396629728705   -0.78311640322672
C        -2.75567540327676    2.60313532809688    0.64536910643751
C        -3.94748005479787    0.97819474974373   -2.03806399129211
C        -3.97552842982567    2.13402588976636   -1.24240574092271
C        -3.95947742389017   -1.26020543154741   -1.39501848535634
C        -3.83546924384468   -2.04180026480838   -0.24534942895748
C        -4.25432977184861   -1.47173140962772    1.02208441072026
C        -4.73130339976946   -0.07117542021828   -1.36088970394206
C        -3.95226911943118    0.81471026780509    1.81481749881467
C        -4.00172253808066    2.01219911925948    1.03165344242438
C        -4.82161569724912    1.85806759958146   -0.10793734639878
C        -4.73810553549458   -0.16726132601854    1.08389591011170
C        -5.17764288509910    0.46105648472402   -0.14417020476307
