64
C64 Isomer 825 Symmetry C1
C         4.63055168168246   -0.70122599078680   -1.02152817189636
C         4.37283979060169    0.70722268610957   -1.15152984518650
C         4.32460759431902    1.24753907407893    0.15026324816795
C         4.44557021259455   -1.04426268712350    0.37778870226596
C         4.26171567692067    0.13190017883448    1.10398939113799
C         3.41969618272161   -2.03405423882042    0.50677247044121
C         3.58644083352684   -1.35902719390153   -1.69751765540017
C         2.96798410503868   -2.31106720281591   -0.82333926097723
C         3.20940067083725    0.89110891815382   -1.98574160725241
C         2.69662790868730   -0.42209004437622   -2.32346178251542
C         2.29728289209991    1.91985728632412   -1.73167043649464
C         3.32377155226375    2.15692471056551    0.48752796227492
C         2.49107696763332    2.69927670620573   -0.52542029116662
C         3.12757363233912    0.35198234229272    1.94616522534629
C         2.66409130929551    1.67681671032169    1.68478006008893
C         2.42903699647246   -1.92706481668734    1.53427326260844
C         2.17262351978198   -0.67054644313531    2.21096806277312
C         1.34135039570150   -2.77677164931109    1.34978237763357
C         1.65801951151696   -2.71696343169202   -1.08066852316773
C         1.07220153626752   -3.33837791630006    0.05200524617506
C         1.31607561258567   -0.68462319150967   -2.42760068076067
C         0.80669937547811   -1.96787014904533   -1.97259955435419
C         0.93929924414642    1.74957437111242   -2.22758126050807
C         0.41027204613880    0.43359482940518   -2.52635672227748
C         0.02872745378301    2.77071843727760   -1.90657528088783
C         1.40363254044998    3.42023191479812   -0.01681032415121
C         0.32166082269381    3.70198451167947   -0.86416758372852
C         1.36324991673342    2.07624492460293    2.01929736634073
C         0.87001356935226    3.18691248320713    1.30020355717506
C         0.80904311154978   -0.30751221050403    2.55041185231531
C         0.44834232098443    1.08792383966041    2.55462969951015
C         0.07712020918260   -2.56981147146055    1.99992352861243
C        -0.26087022163544   -1.28699092344118    2.49167800844094
C        -0.27387191154727   -3.66038367916834   -0.00104817687596
C        -0.89097523537338   -3.30983265109108    1.27849386490858
C        -0.60080812729792   -2.18103726278733   -1.92626049006601
C        -1.09711976861913   -3.16766486528378   -1.01623988866727
C        -1.00929135448577    0.20220920515614   -2.54939584695843
C        -1.51581330316088   -1.13807604095010   -2.34873837704234
C        -1.37574783075413    2.54113676083454   -1.88602010117450
C        -1.91375566060239    1.31592952886582   -2.31361899980858
C        -0.86878312945637    3.86807049483320   -0.08153046889556
C        -0.53889784624623    3.47043557513166    1.24791254501768
C        -1.92887854632620    3.22716563382492   -0.74335929327552
C        -0.91385962696929    1.43217148403061    2.56302075268005
C        -1.40864376751553    2.62218562414490    1.91948082996433
C        -1.66905908884508   -0.91232404257425    2.42272742156683
C        -1.95658609860456    0.45745543247053    2.52695243425153
C        -2.18533868621343   -2.87903402548713    1.05008515344742
C        -2.39166258266265   -2.98949186855009   -0.39175586197100
C        -2.67193235726110   -1.72754206808626    1.73940215989886
C        -2.90126341254425   -1.31463345620826   -2.07597993814920
C        -3.32844967785061   -2.22752420369481   -1.00140363629312
C        -3.25708112549181    1.09742641868657   -1.92376647136691
C        -3.77366972431439   -0.21318767590526   -1.97672860201549
C        -2.97306543183487    2.61908111920080    0.01038765620464
C        -2.70462391123012    2.32933551241777    1.37258874950167
C        -3.11294068759889    1.05510081318799    1.90936203213290
C        -3.78366451578929    1.71927585583727   -0.71600985621805
C        -3.82769488049858   -1.14514346873271    1.17087683688771
C        -4.25626079674137   -1.54253034754313   -0.14485789545232
C        -4.67032486729030   -0.39340429021379   -0.84851845306121
C        -4.05560012322735    0.28728139305034    1.25534507265139
C        -4.55106489539183    0.74899473088444   -0.01429419240512
