68
C68 Isomer 2445 Symmetry Cs
C         4.83696180955082    0.02931596022360   -0.91437160083143
C         4.62317214669835    1.19468403156600   -0.12663398555153
C         4.10690436266517    0.74428494603004    1.12179588680157
C         4.61992224379256   -1.14553842917102   -0.14182723995133
C         4.10490723533020   -0.70982440919497    1.11247431052960
C         3.79912438811438   -2.00166274376574   -0.94514676140502
C         3.90305080387094    0.03767780089932   -1.99865223627285
C         3.21314803411021   -1.20402590146186   -2.02782471846467
C         3.80488376056390    2.06346209009025   -0.91874491396410
C         3.21668874712826    1.28164469364941   -2.01166163182036
C         3.00699665611565    2.91616225472023   -0.23197506253492
C         3.06625816628191    1.44101378540397    1.77568037019952
C         2.80922937671068    2.72879904825743    1.20086638527904
C         1.98182150341106    0.74050721411488    2.44551970053800
C         3.06217352235152   -1.41203321148106    1.75723322265107
C         1.97975479821108   -0.71711621293174    2.43605631846642
C         2.99878994388867   -2.86086500046282   -0.26943742441993
C         2.80145656852676   -2.69145444001344    1.16571570308944
C         1.72793707181944   -3.24010493107231   -0.83963095335675
C         1.82388662457463   -1.22271718465624   -2.23960871209258
C         1.06969925450881   -2.36474099317817   -1.74284401761453
C         1.82749369689403    1.30696344896844   -2.22319466719829
C         1.13501889983246    0.04451038199756   -2.44528483143916
C         1.73723826083330    3.30630375310654   -0.79714792744524
C         1.07657875491814    2.44463062503652   -1.71163983861212
C         1.62916605771712    3.38313400458372    1.50557471732124
C         1.00722995707993    3.85964344745750    0.26249614421542
C         0.74882876164046    1.43893021170618    2.72201422135807
C         0.62243455659897    2.79445752886921    2.28207363947263
C        -0.49236763046205    0.72903791971207    2.96075342280304
C         0.74472317368427   -1.41554221960945    2.70347597704020
C        -0.49445301366522   -0.70517868745529    2.95140720452447
C         1.61936158938060   -3.34616524877176    1.46176762821637
C         0.99623171311766   -3.80483673717594    0.21285324112884
C         0.61430796677643   -2.76488072913326    2.24596497741491
C        -0.37806317211278   -3.66949770382744    0.31645437639231
C        -0.62908831927230   -3.22242682457463    1.67468503925240
C        -0.35469717960875   -2.32579314399987   -1.71314878732862
C        -1.10520890745852   -3.05913840522154   -0.73337155717071
C        -0.27283041561786    0.04691368365520   -2.51245145898862
C        -1.00515702672522   -1.20037292458800   -2.35198098160432
C        -0.34784646151048    2.40937207279827   -1.68238781591813
C        -1.00152022219463    1.29423249105727   -2.33572473910178
C        -0.36739692186079    3.72673236658828    0.36442075732343
C        -0.61969772311502    3.26294520725928    1.71678954338225
C        -1.09624991434662    3.13212208000945   -0.69322493080219
C        -1.73367742352506    1.38176269578304    2.72766878657016
C        -1.77279241956421    2.59428196998465    1.96735728853373
C        -2.94404776006506    0.70701813272340    2.39087104503196
C        -1.73760396881198   -1.35126015039682    2.70985908438981
C        -1.78018304554764   -2.55371876186962    1.93392319938161
C        -2.94607804459498   -0.66879909746365    2.38191972837376
C        -2.46296601401981   -2.67627012517853   -0.42015567201369
C        -2.81816177430607   -2.47284647629432    0.94358693432583
C        -3.65298721530465   -1.38272164051787    1.32695933626829
C        -2.39632969102219   -1.18156933088449   -2.37119766898940
C        -3.16902787982635   -1.93937710884635   -1.38099248730284
C        -2.39268134621864    1.27965860960738   -2.35522224987622
C        -3.07985298890826    0.05153729239033   -2.59165511660769
C        -2.45505871362024    2.74916296301156   -0.38494065295494
C        -2.81092674662132    2.52910388028853    0.97602664582349
C        -3.64884718061619    1.43652480460345    1.34530928892687
C        -3.16316616437215    2.02682974202601   -1.35525859677587
C        -4.39370928193627   -0.70192155133473    0.36793607718305
C        -4.26320124016378   -1.13072967821737   -0.98525454814343
C        -4.24818343044309    0.04816434404304   -1.80339003779872
C        -4.39154799094620    0.77029744000639    0.37750910782288
C        -4.25977317831395    1.21630708052192   -0.97001548567970
