72
C72 Isomer 5038 Symmetry C1
C         4.57576836687568    0.19152033439503    1.43255256633547
C         4.50852621182109    0.40347465155506    0.01678237219177
C         4.08904194580176   -0.79838975069492   -0.59093089870228
C         3.99715256792627   -1.09063380316740    1.69478372579147
C         3.77047345809001   -1.74891137436559    0.47779061473707
C         2.85978973502038   -0.92663739079519    2.57115519108793
C         3.71433139107329    1.14299039350528    2.02216770749701
C         2.69630813018667    0.47939302894186    2.78804074616618
C         3.72225987197206    1.57113374267700   -0.25146032459421
C         3.28857056948818    2.07607736847992    1.02398998151523
C         2.84024297654423    1.63459702929562   -1.35439308558793
C         3.30041628437119   -0.76237621773770   -1.75418423588947
C         2.69870544995240    0.47641944429238   -2.20189182440721
C         2.64133960432151   -1.98888756678247   -2.03497919334121
C         2.66851950539408   -2.62840234990971    0.35251648849658
C         2.27531847220455   -2.91068758451271   -0.95667959758026
C         1.72776230899037   -1.73298046659226    2.44894652443770
C         1.66689044460278   -2.71970309285136    1.39528698091196
C         0.50126639984987   -1.17853027032839    2.99200152671900
C         1.43068696303628    1.07999913572451    2.91831656239493
C         0.30012755954184    0.23852262405627    3.15765869243312
C         2.07695702594817    2.74746444881107    1.18293370837700
C         1.24801101054607    2.37328140091747    2.30766561268899
C         1.79933445480443    2.63720824427816   -1.27119111517071
C         1.47475510351635    3.27243345956219   -0.01462760296571
C         0.78140870953040    2.60020942774510   -2.24132524056130
C         1.53570513888811    0.38948285824297   -3.05137927290960
C         0.60657012031095    1.44555332655073   -3.04696993750869
C         1.63024116660823   -2.04393631338087   -2.98335548223428
C         0.99702801606736   -0.86492434716934   -3.43025595251523
C         0.98624991117637   -3.43507541870126   -1.24938845747102
C         0.61180072418502   -2.96834011065289   -2.53003914049728
C         0.40892792982697   -3.31409878195713    1.09353255483209
C        -0.00181192217763   -3.60393359194537   -0.26050209563608
C        -0.61830669675918   -1.98439642048178    2.92779931057704
C        -0.62418560285069   -3.12759363662051    2.04917297564053
C        -1.96768659440446   -1.47958102172622    3.03520301321377
C        -1.04452097958916    0.75825715620094    3.05427922815932
C        -2.20254191496915   -0.10010366554880    2.87734886809248
C        -0.04268351315937    2.89428966649103    2.35050266831659
C        -1.18561690958854    2.10475677166211    2.71295694065962
C         0.21884612377646    3.90283311027700    0.13746065955963
C        -0.44929022904133    3.81635675906316    1.36672448379025
C        -0.51721052973186    3.19194925958028   -2.04243695116413
C        -0.80628170459127    3.86795824111688   -0.88687625375679
C        -0.80748038108609    1.22704611787318   -3.22566544241770
C        -1.49792579745030    2.31362334072013   -2.63819110203772
C        -0.42105297963021   -1.11242547094911   -3.37630169568599
C        -0.63766762900919   -2.39363899553061   -2.74601780506166
C        -1.34629843855699   -0.08433331688499   -3.19716625395596
C        -1.38373949967036   -3.42524818208343   -0.66301408139367
C        -1.69548778762655   -2.62330891309642   -1.83430043962979
C        -1.94745468732697   -3.40885252313403    1.72528691158639
C        -2.79930456782561   -2.44252090109202    2.41976630373169
C        -2.35840230488342   -3.47079771349273    0.36262411027216
C        -3.78785806364157   -2.03814424307603    1.54323883128971
C        -3.53390670402675   -2.69311907840861    0.25472522823334
C        -3.30477661361800    0.32817098626464    2.03369976849551
C        -4.02800068922350   -0.66527886263442    1.32539113399437
C        -2.31706578770656    2.56965097676739    1.93741337534108
C        -1.87155622235452    3.63554125321608    1.13654096995544
C        -2.10173667310907    3.68164878084934   -0.25117615020665
C        -3.26731109756004    1.64701645215135    1.43762253690561
C        -2.71577435495185    2.08930515441883   -2.01137437915411
C        -3.01498383253624    2.76684465249113   -0.77714656105038
C        -3.67305378744705    1.83702838324898    0.09185009990152
C        -2.56767689968085   -0.36007051514024   -2.46704850015955
C        -2.75192026738462   -1.64786346609129   -1.81797444556968
C        -3.68041524892663   -1.72501873723924   -0.74588832112966
C        -4.17681799001162   -0.52695769173294   -0.10755937786501
C        -3.24813503343480    0.75728556745520   -1.94873029970107
C        -3.96039371670735    0.67837823762971   -0.70430745681753
