70
C70 Isomer 8147 Symmetry C3
C        -3.84450920958541   -0.28022786456216    1.64658713966577
C        -2.78882872197758   -0.37898328005653    2.58726222223899
C        -2.23749371957281    0.93146257109530    2.78507833050094
C        -3.91868399853587    1.06240381138422    1.17972070625317
C        -2.98749829317410    1.82976346884231    1.92986458061857
C        -3.87941804204830    1.04964636554693   -0.23893668731963
C        -3.89784536576301   -1.13867636455765    0.51235556080897
C        -3.87837286327539   -0.32376630595730   -0.67627129415200
C        -3.15850799730351   -2.29507875444233    0.57856584460426
C        -1.96471717431783   -1.52232045825304    2.61835138550634
C        -2.31726941773843   -2.55821337395323    1.71376854873069
C        -0.57735134636781   -1.35691860049860    3.01779243789685
C        -0.86468562976800    1.12458345615857    3.02361622379494
C        -0.00451695159442   -0.03390274843505    3.17161421890680
C        -0.31508846334297    2.41009620657185    2.62601224397408
C        -2.33519247129954    2.86002501992240    1.28734717694805
C        -1.03827188533693    3.23687871166986    1.72806162038768
C        -3.10747704215422    2.03416158605521   -0.91921593165901
C        -2.41428603385105    3.00078379802209   -0.15323263159085
C        -2.50632234136305    1.64841782347713   -2.13515489510523
C        -3.13842675758613   -0.74135592631396   -1.80619204030780
C        -2.57629276346586    0.29139430106122   -2.59746100215320
C        -2.51123185629554   -2.81743877734475   -0.59999747580269
C        -2.46884477367611   -2.04058104425947   -1.78379412604846
C        -1.34148301048056   -3.48968335790936    1.26998387090233
C        -1.42207176492140   -3.62286143461626   -0.17275353886490
C         0.27752451052699   -2.44820190287488    2.77491885406575
C        -0.12428860642886   -3.54270934257263    1.91333212178659
C         1.68731432415671   -2.27034516500674    2.58054179508203
C         1.42835788250371    0.13196913318553    3.02013756638551
C         2.26579614730667   -0.98563311250700    2.61781572633654
C         1.08769312908290    2.55164303314810    2.59112975585399
C         1.94700351495971    1.41829049599709    2.78342936685124
C         1.69850646238819    3.41988853517051    1.65272416200019
C        -0.39299689227200    3.83843528469364    0.59248353137263
C        -1.17226486594700    3.54317505107931   -0.58333431902482
C         0.97837210946892    3.89942979889054    0.52239298102534
C        -1.26916475393782    2.22455253921081   -2.57386065598866
C        -0.52517617000599    3.12161426702566   -1.77069217471901
C        -1.41834618666304    0.06152748900288   -3.40412699995590
C        -0.61687166290686    1.25779737776057   -3.40064661834589
C        -1.31852272768324   -2.23195436517456   -2.58560659002652
C        -0.80586601737961   -1.17836456994397   -3.40610042846613
C        -0.23680771484003   -3.73639494800352   -0.93729004306680
C        -0.20188235597850   -3.01648157918841   -2.14961488770612
C         1.00711802517547   -3.96254810168251    1.16296895768881
C         2.13119915553399   -3.23064132847507    1.63502825826926
C         1.00073816182711   -3.91624785230501   -0.25681696288032
C         2.90292669765345   -2.84215788161958    0.50364716365086
C         2.18943974312388   -3.22727479507394   -0.68866451429100
C         3.34111493245464   -0.76909200409680    1.71621802172340
C         3.53461567431168   -1.62454088111248    0.57633425951566
C         3.09767020808594    1.62111378038649    1.92619304306597
C         2.89741145487019    2.81400768910582    1.18034074356989
C         3.66150931558776    0.54256887982612    1.27936402418777
C         1.67023943266533    3.47863125093009   -0.66910173242266
C         0.93464030700236    3.05103104014373   -1.79816897575520
C         2.86198959415624    2.79096696162269   -0.23762511740038
C         0.76458021223405    1.16794549388080   -3.40245131971371
C         1.54456123989253    2.05084765253293   -2.59568990231021
C         0.63183585323319   -1.27488905867133   -3.40871304209553
C         1.00998555353173   -2.39670961439854   -2.60789019686578
C         2.18389020683647   -2.37197157508084   -1.81483137092922
C         1.39909900946297   -0.12476291890235   -3.40549236513050
C         3.66669048857698   -0.79768757024972   -0.59789378802032
C         3.81908976469490    0.54589572904681   -0.16362393729721
C         3.32619274104611    1.63263765761051   -0.92383410533747
C         2.68818765286077    1.30904290411748   -2.13897177828308
C         2.97492831549240   -1.14313436793792   -1.78511839254883
C         2.56765402813482   -0.04687793813770   -2.58181260258479
