80
C80 Isomer 29160 Symmetry C1
C         4.16489778661284   -1.73502378571538    1.41835395128686
C         3.06954866242949   -2.38622426764906    1.97777601833670
C         2.40423956868700   -1.44990647394191    2.87952615319150
C         4.17462090981740   -0.37301614993809    1.90861588666937
C         3.05322560856846   -0.19107643360798    2.77150823691768
C         4.39929518584340    0.49547046677961    0.85102122799436
C         4.33378495626096   -1.67388426259033    0.00572853779292
C         4.50396886961838   -0.29773759337365   -0.36619769718252
C         3.54106800829180   -2.48230287424603   -0.79273253013960
C         2.29851949942459   -3.29856261700677    1.19231100192767
C         2.59099560941413   -3.38227912369824   -0.19351526181381
C         0.96110687701083   -3.48480266277273    1.59505532442665
C         1.02849589742943   -1.51935578275565    3.10845010428381
C         0.34823090479590   -2.64649597200602    2.58564326264080
C         0.28700640534984   -0.31449416604729    3.35769218865468
C         2.32793370790819    1.01575110572249    2.77336664825907
C         0.95238645931600    0.94954676255952    3.19979340703545
C         3.79498933185050    1.78491018160046    0.87724046998553
C         2.80714038414804    2.07725366306332    1.90622254167182
C         3.73838971769138    2.42249163148921   -0.36610857305240
C         3.97410993582163    0.20745113371088   -1.55738349358215
C         3.81552076573363    1.62350650625658   -1.58211498790424
C         2.94969463933255   -1.95227063528329   -1.98447530868414
C         3.09241784970715   -0.61311907007069   -2.37382104514920
C         1.52968641298292   -3.57023344519965   -1.13119412339983
C         1.73106121414557   -2.66098100765933   -2.21704379781933
C        -0.05430554536871   -3.88805043464608    0.67788964266613
C         0.22594707655681   -3.90292856415376   -0.70815156133766
C        -1.03458023985338   -2.60193688905054    2.32083955212011
C        -1.30311701632995   -3.39602159354383    1.15251464174633
C        -1.15684346430962   -0.39682758281632    3.32114145077527
C        -1.83767923560154   -1.51165768335065    2.68217288621254
C        -1.88215756064741    0.80012253119600    3.42531838996391
C         0.14173943357546    2.12005785808105    2.99393607206212
C        -1.24231227747136    2.05186288808953    3.13314882916797
C         1.93331184738437    3.14278411786182    1.63767628460252
C         0.61420914520613    3.15568844722543    2.16526250487053
C         2.80747499720099    3.48785242639002   -0.61343296657659
C         1.89792007368755    3.81627949540598    0.37212145468562
C         2.95747382278789    2.18568403974007   -2.51603390616085
C         2.31971275969129    3.35748040216807   -1.94000883658323
C         1.98302619921753   -0.00412532817676   -3.08125721476119
C         1.96220383351036    1.39942858451320   -3.15597872271946
C         0.64664224897717   -2.06899515451438   -2.89120144829016
C         0.72252203230731   -0.67777563005573   -3.25940387287564
C        -0.83257764316083   -3.54576751442008   -1.56507879672619
C        -0.61137543154865   -2.66157747091674   -2.67050831928848
C        -2.37989906086305   -3.09412679634097    0.30674697910961
C        -2.14640644306617   -3.30025378618571   -1.07523782615935
C        -3.09432416975686   -1.35887295317764    1.98078940464746
C        -3.34780785831345   -2.10073669313703    0.74933814981122
C        -3.20038868494554    0.87359973721999    2.94707367642935
C        -3.77883002660542   -0.14058737562745    2.16543493622974
C        -2.12535182138026    2.81103980866904    2.28588339963375
C        -3.33634763603227    2.11753596117437    2.22563775956446
C        -0.25534879984519    3.74756166344300    1.19534553045184
C         0.51523117523484    4.02442532702172    0.03270245683611
C        -1.61454525933977    3.43348875667645    1.11545854363651
C         0.95630489798119    3.29369187638550   -2.20932765270800
C         0.73903369795876    2.12290602261572   -3.04463481633055
C        -0.00838362212896    3.65335120624152   -1.22025281487983
C        -0.49981448565320    0.07231866417562   -3.34676663710828
C        -0.48299374054206    1.48642611201269   -3.05886602691666
C        -1.81390293255628   -1.96361797428283   -2.93904427767472
C        -2.80492668363103   -2.47085347391493   -2.03326024109197
C        -1.77247273385151   -0.59061731687802   -3.27180636469332
C        -4.18409620090107   -1.53442460303867   -0.22530261545882
C        -3.86217695350257   -1.68447875291097   -1.63328987393035
C        -4.46864935499535    0.51769887655022    1.07298021107329
C        -4.00562468411908    1.88692527167214    1.00879982677052
C        -4.69615497808415   -0.18871737654626   -0.08087466287773
C        -2.21108849562167    3.14474379860382   -0.17062554784462
C        -1.33429000380729    3.10502630912373   -1.30842125267512
C        -1.58552854816567    2.14919426927775   -2.36810617799514
C        -3.45643089895086    2.41261196330257   -0.19888582956488
C        -2.92275472264488    0.17082409894394   -2.94648248156847
C        -4.00447347156361   -0.42482051026175   -2.26992667613386
C        -4.53355031950661    0.50383053572246   -1.31226408774922
C        -2.80584480883350    1.50989991302857   -2.41355007877338
C        -3.78373259597089    1.69381536779516   -1.37294913796078
