72
C72 Isomer 4397 Symmetry C1
C         4.11839155195398   -1.13654257620456    2.27752412745363
C         4.59940437334785   -1.09774781912681    0.92324207032645
C         3.86768016011293   -2.04430034157935    0.17060151425122
C         3.07386169377525   -2.08945266246952    2.37537056165245
C         2.92671005562853   -2.68581437032856    1.09411807754416
C         1.92205824572968   -1.44902008581025    2.92698297860698
C         3.56618110371483    0.14604792258170    2.58182525033813
C         2.22631130704752   -0.03741850476327    3.03503110642762
C         4.58628255768267    0.27955785614827    0.51801142173620
C         3.83628607484660    1.04227808258563    1.52383927465124
C         4.38899465731066    0.54403519520322   -0.80948036940937
C         3.47149545553310   -1.74240977303757   -1.16535982834028
C         3.97319509683982   -0.52236081831054   -1.70442950025042
C         2.21556212624290   -2.23537034214507   -1.64938178621817
C         1.66364591036610   -3.06884907692952    0.66045515880122
C         1.43481671121972   -3.07608119938237   -0.76545350802335
C         0.65121930248240   -1.85131275187079    2.52881554737960
C         0.51276313264253   -2.86111411291538    1.51116545609804
C        -0.42525635746541   -0.92237863794330    2.72335923547422
C         1.25311733129516    0.90133435864391    2.70526788256838
C        -0.12177887102038    0.46627263223932    2.81336107948493
C         2.85803279213186    1.98806754134727    1.13597345210889
C         1.59756833891113    2.01201178528166    1.85060462775295
C         3.69746148766132    1.75543158224251   -1.19511689201889
C         2.91775108767257    2.47122830768596   -0.23183600053079
C         3.26494127548440    0.10645609005310   -2.74052443224264
C         3.17965734203139    1.53030567094695   -2.47893767367235
C         1.47436471778773   -1.52347256474021   -2.65425509327266
C         1.99818138461155   -0.32070085033891   -3.15541786498291
C         0.05427996300939   -1.68380571604003   -2.82411790636262
C         0.19253128527994   -3.48247963918616   -1.17758791750740
C        -0.45132963346011   -2.89827847314909   -2.32961976137719
C        -0.78489051853106   -3.21962767617731    1.05617659613872
C        -0.85617343167287   -3.81224720727442   -0.23479621888618
C        -1.75171204891296   -1.37372549151064    2.41694071636605
C        -1.95942450926887   -2.56726794725492    1.60800629372270
C        -2.77019491230585   -0.42940323358909    2.56322025171424
C        -1.14767145081990    1.44284304238983    2.63512343986983
C        -2.47985934770049    0.97250979127874    2.72264970999781
C         0.51054110320970    2.80548922046870    1.36368344679449
C        -0.83758415373770    2.63463457641784    1.88307777547229
C         1.79128388494230    3.13770934425745   -0.73141305901991
C         0.67442601259621    3.41813609314048    0.10862387251604
C         1.89361051376893    1.96063718986804   -2.86799959980515
C         1.12161055748734    0.82396098193838   -3.29817048242660
C         1.26992006973518    2.89079099770219   -2.05721076656355
C        -0.84957338109980   -0.57218880292936   -2.96550548585746
C        -0.25884982040397    0.73599680688792   -3.05882997918466
C        -2.23672796256083   -0.69655863542561   -2.57521836100236
C        -1.81910548551989   -3.09987174797793   -2.22630384596379
C        -2.06409120469565   -3.79370473679516   -0.95787853662597
C        -2.72569565798041   -2.01127127299750   -2.33189192958657
C        -3.18017335478704   -2.67486258036260    0.90040421950468
C        -3.20428539134875   -3.25424984981188   -0.39879554624675
C        -3.69753936686606   -2.22997633222322   -1.31247814372139
C        -3.96661335969763   -0.53130512351163    1.75766832188982
C        -4.06491248688519   -1.53565881333759    0.82531792771141
C        -4.21732678252916   -1.17353101987228   -0.57115146314971
C        -3.53760371975962    1.70287010630330    2.11186021005522
C        -4.36210161720000    0.76252353478360    1.36765377910104
C        -1.90488923893009    3.23080963740437    1.16253254410861
C        -3.22943892369193    2.76294518214809    1.28073652324060
C        -0.46628926019561    3.52804067384308   -0.74982244434748
C        -0.14845344068919    2.92225650495613   -2.01037346785443
C        -0.95744150224737    1.86749409768956   -2.49053937616494
C        -1.71813682595794    3.43625707532345   -0.25324162907999
C        -2.94387373114715    0.42595007989582   -1.96889054352323
C        -4.00623211150446    0.16861681626391   -1.00573545599768
C        -4.33418520256779    1.13606837287192   -0.01197473799922
C        -3.72542144440758    2.40860373900661   -0.05953339799284
C        -2.28619308514576    1.70598009310025   -1.94333747368160
C        -2.71410907137872    2.67520980442324   -0.98061397196935
