78
C78 Isomer 10368 Symmetry C1
C         5.30017815546428   -1.02687865086074    0.42651562374163
C         5.38336659335307    0.21034368553132    0.97377425986665
C         5.39756678721187    1.18130713757185   -0.14790628634075
C         5.18664417209205   -0.85949023904553   -1.04857626966755
C         4.93606047970776    0.51383220294830   -1.33805815837211
C         4.31143110513400   -1.81568483166804   -1.47550075273273
C         4.27095947652968   -1.93243464266991    0.86316538790814
C         3.89121108596891   -2.61457478499738   -0.31250054055933
C         3.23904324353654   -1.47006147822707    1.75532248433388
C         4.41831381020284    0.66969306600726    1.95449277103604
C         3.26064575824721   -0.11438776131333    2.26707270035365
C         4.76116045736491    2.29278490861988    0.29974450651136
C         4.24137004059890    2.03137883366827    1.66497102681274
C         3.71043089747788    2.87349232778126   -0.45379498621333
C         3.68791101867364    0.90449142989902   -1.93961899176964
C         3.10569839931780    2.16534465606479   -1.54010994855260
C         3.12861160918174   -1.47014200327919   -2.19351868228058
C         2.74791784751307   -0.12307957290157   -2.38401696876685
C         2.57915306002856   -2.99578386247353   -0.52642822831249
C         2.13141116496368   -2.39971569798667   -1.75697841608771
C         1.96570303151847   -2.11185300777030    1.65715395241882
C         1.67809586289464   -2.97811652912897    0.56005799217489
C         0.82143030730455   -1.53322016448432    2.31092040683987
C         1.99751298975353    0.58269984186357    2.52806882190956
C         0.76209181650781   -0.14808147919807    2.62735767500934
C         3.01376350008367    2.67179906576647    1.78332726100829
C         2.85546338969021    3.42111189627549    0.55527574467481
C         1.87877663087429    1.99360214292172    2.31649997686339
C         1.61604536970303    3.80546278503139    0.20218111965157
C         1.71213622931124    2.44822499134656   -1.83007703654514
C         1.11975283117421    3.48975304946199   -1.10621540894563
C         1.31363685714319    0.13584076334700   -2.53713310798287
C         0.79179262027112    1.44718348390186   -2.38957480498548
C         0.78286667611677   -2.19072926027806   -1.96444090940674
C         0.34578941765355   -0.93981163358320   -2.49718029209561
C         0.35059038720885   -3.28510195899697    0.18113657536257
C        -0.08091892732815   -2.98992302367243   -1.14583011685222
C        -0.38922560691548   -2.23582839212911    2.20862951214598
C        -0.61210043865359   -3.20902789636364    1.19756500997053
C        -1.64725578041866   -1.65893468920364    2.54940985021552
C        -0.54851195262485    0.50566362594694    2.67525816129564
C        -1.77696231214269   -0.26750908631685    2.69886271647593
C         0.58414707286587    2.58442809547726    2.06767521861937
C         0.54238410522772    3.62316243509378    1.12452368045973
C        -0.65212630584354    1.87665491308022    2.33257922206272
C        -0.28558324611225    3.62123493730594   -1.01080987110078
C        -0.62986062692936    3.78966976674528    0.35401959482208
C        -0.64225327178076    1.66776991636510   -2.41334510778131
C        -1.14933603717120    2.87783891241595   -1.83541126921390
C        -1.06789650080444   -0.71111217566190   -2.53358764093070
C        -1.60918898450212    0.60505656777093   -2.54891001732475
C        -1.44158692409565   -2.86544583843374   -1.38769669359111
C        -1.93223936115338   -1.77624271280461   -2.14379198077245
C        -2.00233153549053   -3.27797803871987    0.92396276125730
C        -2.66082284763390   -2.44204960039582    1.90390192331833
C        -2.43043659849496   -3.19876104052372   -0.39439192752712
C        -3.87875660784440   -1.89154970562580    1.63472111894096
C        -3.08309432718372    0.31810148768099    2.45178884205212
C        -4.15328256582006   -0.55359706428022    2.08414141710116
C        -1.92578933721464    2.41862846226142    1.88525629098774
C        -1.86974866294713    3.40420027708401    0.84758246034521
C        -3.16347471783133    1.70307041231727    2.03814334459024
C        -2.48684454718891    3.01305951564379   -1.48871419762312
C        -2.84927475673038    3.44789427869577   -0.16543686994237
C        -3.04823768579510    0.79649518165527   -2.30632980099212
C        -3.48670536466975    2.07486619846096   -1.91844287937275
C        -3.30711509655057   -1.57568912849950   -1.78630888484940
C        -3.62440121441575   -2.49338103205670   -0.72462198078475
C        -4.46665404597985   -2.06171068775543    0.30632963100655
C        -3.92357588883010   -0.31916656961069   -1.91781877653875
C        -5.21396142746069   -0.09606342767675    1.25037685123224
C        -5.26739084019404   -0.95498276462727    0.05837603921779
C        -5.07839473980586   -0.11212541040929   -1.07869366748211
C        -4.30613533343107    2.14602314404774    1.27583187594225
C        -4.11069483987179    2.95777378644226    0.13101270793636
C        -4.60655111158496    2.25159243816825   -1.04726750526589
C        -5.31576874804228    1.21169297118774    0.85970876708807
C        -5.37957514038324    1.20300225177498   -0.61365630599829
