78
C78 Isomer 7701 Symmetry C1
C         5.01391455052112   -0.87553268695572    1.12292686073461
C         4.80833496358140    0.50894311826203    1.30496448925973
C         3.76107593851728    0.70105341272630    2.27402139417625
C         4.06541281993120   -1.56871380289136    1.90320407723786
C         3.27006043640227   -0.60900428943918    2.62546115733214
C         3.37839805905958   -2.47529034582355    1.05738672182463
C         4.73477746701334   -1.18963495643523   -0.27746688294259
C         3.77599563788841   -2.22290066696625   -0.32158228170962
C         4.64664418355932    1.08410338414378    0.00634008282461
C         4.49168214120772    0.00403262253987   -0.98250395680822
C         3.84006178860114    2.18235235912326   -0.09120623461295
C         2.84770702125316    1.75626091439669    2.13085265706069
C         3.06114194289199    2.63748448240808    1.02566366025579
C         1.49437179797837    1.59705687224474    2.60475432839608
C         1.90283024710278   -0.83200461733147    2.81027957332987
C         1.01637643070880    0.29354153163947    2.96455508144657
C         2.05988131202241   -2.80444681696703    1.34338874108662
C         1.33197055280161   -2.07462209970521    2.34281212038071
C         1.35610251706462   -3.45721712151521    0.26927702038169
C         2.80369930317238   -2.23658750546685   -1.33749987517184
C         1.67675659691129   -3.10415904662652   -1.09371700181670
C         3.46775193737008    0.06929790463782   -1.96086854716805
C         2.69131566735917   -1.11450124713842   -2.22494488654672
C         3.08455035479806    2.42562059733557   -1.29548489140776
C         2.87344425370361    1.37442216775301   -2.22481540339839
C         2.00196729202940    3.39038878268247    0.48636438507382
C         2.04930557512326    3.32367825841972   -0.95499930129696
C         0.54103565003183    2.62485121658845    2.27644231007155
C         0.78006103855441    3.52020666452779    1.16635860470233
C        -0.78785416898417    2.42029957022064    2.65362745422029
C        -0.39435474595313    0.03525796830675    3.08836816099808
C        -1.25445375282355    1.14021112428712    3.07453364708315
C        -0.06333253809443   -2.31835056231795    2.46814908144427
C        -0.97095797080705   -1.27240501917429    2.87078525004922
C         0.10149440969045   -3.93883724239901    0.58697695886360
C        -0.56252918362084   -3.44928528852587    1.77416040005468
C        -0.89982226125467   -4.15808990746534   -0.42649441389088
C         0.62318120984499   -3.11611902053460   -2.01010783219414
C        -0.67526265600888   -3.60662865000918   -1.68657234257535
C         1.45199923018182   -0.99576393958935   -2.96530058686744
C         0.46814377282942   -2.00160018371740   -2.89357401162113
C         1.67076187379674    1.45134469814983   -2.94773141320638
C         0.97133733691869    0.26230310246472   -3.33993451866019
C         0.85475439939393    3.39877073629762   -1.70012110893631
C         0.69854910098440    2.46397759611606   -2.73956113617733
C        -0.31570694131381    3.96599597360611    0.39563514455558
C        -0.30943668509022    3.82656620015520   -1.03556929080772
C        -1.88517553868049    3.08430406403604    2.01314789281317
C        -1.65463570161369    3.79155241998455    0.84672763277028
C        -2.65598754070445    1.03670371835152    2.78051710306059
C        -3.05225910499797    2.25157552489064    2.12860116417192
C        -2.37557082910437   -1.38382221803956    2.58392587101291
C        -3.21788945516588   -0.21090818988670    2.46852004772688
C        -1.93982895413163   -3.55967316397598    1.54996164062256
C        -2.15855001718050   -3.96027575370129    0.15618875142607
C        -2.82215897752412   -2.54042290239727    1.88495296832190
C        -3.11907079212886   -3.10815529040401   -0.39780860462481
C        -3.69869424469513   -2.40136037168317    0.72818497413828
C        -1.64592201092786   -2.72340478086233   -2.25744383241574
C        -0.92868835828143   -1.72974437805204   -3.00156240579996
C        -2.85236230386523   -2.39478666858654   -1.61184752665963
C        -0.42568158250362    0.55250711454166   -3.39452697273205
C        -0.59728158848079    1.90587744407664   -3.01174979664103
C        -1.41603924298035   -0.41605694306346   -3.12190755442182
C        -1.60652951563977    3.40327963066414   -1.44585406041305
C        -2.47601845464580    3.53088010560647   -0.31178443162023
C        -1.76931923190720    2.32630172794273   -2.35970873661308
C        -3.97201785655633    2.20911792764672    1.08092045083941
C        -3.59206593791344    2.74757299155383   -0.21608532099341
C        -4.28480964506404   -0.19512711484226    1.51224234011253
C        -4.34968306347774   -1.24223793699808    0.50966501289634
C        -4.61695518955708    0.98244915699663    0.84263961597126
C        -3.39098724536317   -1.05467660480931   -1.78149617165666
C        -2.65630118889216   -0.02877525113358   -2.49126654281669
C        -2.84817692728550    1.37141129396514   -2.17758669149977
C        -3.83401205137909    1.72671329701754   -1.22065663220132
C        -4.33478325006341   -0.63660330185633   -0.81365521962032
C        -4.57668210613861    0.71845821097956   -0.59648841018224
