80
C80 Isomer 10703 Symmetry C1
C         5.15757517512746    0.27875490844010    1.70707340888635
C         4.61300735523963   -1.05119428470605    1.75935685326647
C         4.51422916936991   -1.58109661400651    0.42434499040027
C         5.20270789972088    0.62877382577908    0.35096969767721
C         4.88566330163942   -0.51447600837934   -0.46912234915293
C         4.48602117772524    1.85658606927777    0.13469369192372
C         4.22488218980537    1.17395532489932    2.33443369271602
C         3.86422248739219    2.19230662658054    1.38600764734081
C         3.43097289555374   -0.99801276812806    2.50411376020292
C         3.17146076122032    0.40553073166117    2.85535315324806
C         2.34883273531953   -1.84862697242172    2.21381214759727
C         3.45228428016394   -2.44703204664859    0.10767872478944
C         2.39949744806280   -2.70277844793691    1.06655575412522
C         3.10578975290274   -2.48708675651214   -1.26367657958819
C         4.22370873223079   -0.32582667810714   -1.69169445633891
C         3.49511061237393   -1.45525253066046   -2.14959416377155
C         3.82799039913432    2.07114696253653   -1.09026282227581
C         3.76141621098998    1.00064212127504   -2.08144010287762
C         2.76732328003922    3.00264254151025   -1.03099207547126
C         2.56112071798600    2.72643331506441    1.41470047752689
C         2.13793390903504    3.31807631821271    0.20822127891070
C         1.84249477199789    0.89015644069597    2.88705994027359
C         1.54643907966813    2.14963647960220    2.25916507415711
C         1.08795588693287   -1.45675227606314    2.77836515279564
C         0.80218320839955   -0.06795634369600    3.07787745699914
C         0.02291446402536   -2.30517142840642    2.52689664813213
C         1.18549781854273   -3.33494674740133    0.62527806020838
C         0.07327048484968   -3.26401310079329    1.46782344074469
C         1.84567173934439   -3.01999523550517   -1.70527179984050
C         0.91705626228794   -3.52943138707850   -0.78788567959147
C         2.44784714779083   -1.33669190004435   -3.12149410292548
C         1.43598261499416   -2.31871760046828   -2.86939037569514
C         2.73883904541925    1.07292894378741   -3.03767689966816
C         2.07294919479164   -0.09504804563913   -3.56262359691361
C         1.74676296835075    3.05306356914356   -2.03012232317975
C         1.74309731523335    2.10443368495204   -3.03163928599588
C         0.76091470527918    3.58256042100971   -0.03184749325481
C         0.51027533438626    3.45155862360878   -1.44390822506699
C         0.18067074417002    2.48651741592244    2.05183179322755
C        -0.21527775732823    3.25814511300129    0.90002452108189
C        -0.54682109938720    0.37889421681380    3.13852954884191
C        -0.82821054176258    1.72338870386457    2.71160771877477
C        -1.32640983161027   -1.89643489615901    2.71657472741533
C        -1.61995138585073   -0.58444413772860    3.11279366817800
C        -1.28194039316473   -3.41809044758124    1.00846206850721
C        -2.15282247887166   -2.59783597175261    1.79444296719137
C        -0.41779198606491   -3.56846466160703   -1.24201865904616
C        -1.53170778830268   -3.56738952488904   -0.33991423053326
C         0.07466588617209   -2.06651639170205   -3.13965603932131
C        -0.82735972875553   -2.83420098468896   -2.38851803820986
C         0.67813722194958    0.19463032827786   -3.78856197882180
C         0.48834739203933    1.56971310827064   -3.46641148144937
C        -0.33821936802840   -0.75011184233206   -3.58067899219387
C        -0.72205336284541    3.00723317858683   -1.91360858395209
C        -0.73768162415617    2.02173239486273   -2.96587770500584
C        -1.57981169012433    3.25706300686837    0.41762689677650
C        -1.83588203259597    3.12588486367550   -1.00574666131562
C        -2.17255140188607    2.09482024195119    2.47680305395828
C        -2.56329253493883    2.88039318313726    1.31945158246064
C        -2.94810057030384   -0.17819060450853    2.85427278190360
C        -3.21440118342365    1.19501637062434    2.71942023165044
C        -3.33607970092313   -2.02015593903351    1.26394393308716
C        -3.80651848557946   -0.88018083877656    1.93444238087768
C        -2.63645264159058   -2.88179331609479   -0.93918275781449
C        -2.17707172964278   -2.40258400755736   -2.19547839375453
C        -3.58874916833117   -2.16751135916145   -0.16699107023734
C        -1.66775920037341   -0.26766014301301   -3.29690444323546
C        -1.85901766586404    1.13604138753151   -3.08002766574746
C        -2.63277709175963   -1.17828462300095   -2.72191516227576
C        -3.05150257037534    2.60320081694799   -1.43153242625406
C        -3.05801323271637    1.59130445841198   -2.48021168673189
C        -3.86388789031312    2.43152775509187    0.87392206773037
C        -4.26557510272508    1.38070337513001    1.73088685899916
C        -4.62183954253071    0.10718825293287    1.24541596944460
C        -4.10348191511077    2.29209607098669   -0.49788801590450
C        -4.29348046554110   -1.16473517817949   -0.84727836143274
C        -3.81460038563932   -0.68688065665521   -2.12255040637814
C        -4.08132312115255    0.69510865720432   -2.17902829541509
C        -4.85926563504260   -0.03664087842822   -0.13076037365991
C        -4.73204147304508    1.10442376732156   -0.94785006172992
