64
C64 Isomer 2615 Symmetry C1
C         4.29931460053331    1.27401721423846    0.96280596588304
C         3.79178195252483    0.53119128384007    2.03832949699313
C         3.83484034020425   -0.86208318805740    1.65350693200321
C         4.53109542649003    0.36273465875187   -0.17954307416401
C         4.28029673250368   -0.94899193265209    0.28439955267414
C         3.81435525421579    0.87380963259605   -1.29588043825486
C         3.57593601556863    2.37009737978232    0.51642363062089
C         3.36867631761893    2.17438609048796   -0.92707155538042
C         2.32712819484900    2.71925819261801    1.08312915619956
C         2.50057860515693    0.81220551074106    2.56675959894951
C         1.73053955132796    1.92052789743942    2.11435078983465
C         2.63964176205479   -1.47629669909096    2.05110667408638
C         1.82998643471443   -0.45235030456708    2.68205416610090
C         2.02618039556814   -2.48387374271462    1.26011830025515
C         3.61560806503676   -1.83217185607715   -0.55294014604077
C         2.64496394874925   -2.75178979510522   -0.00352491030598
C         2.94441029669954    0.03352505569466   -2.08413320726298
C         3.08619780303425   -1.35401674183345   -1.81851705379636
C         1.64755150795863    0.51575379922213   -2.52512087853232
C         2.09491898417456    2.59697627045699   -1.24742564618705
C         1.48682467281116    3.08301139925812   -0.02135253578637
C         1.27804217279754    1.85405252368615   -2.15573039348504
C         0.11552603768540    3.17541440363969    0.10393085374611
C         0.29386309380444    1.82899561930512    2.17621166604048
C        -0.50159916292317    2.71277813022580    1.33372783843409
C         0.45327685285921   -0.56124672442562    2.71751874691027
C        -0.34644011741850    0.64629513967601    2.65456422788488
C         0.61774325978670   -2.71009693971483    1.44080900931025
C        -0.11934737981490   -1.83060884600474    2.32510164261357
C        -0.13419946741756   -3.32909253978252    0.37783526506537
C         1.81012284179026   -3.12542867384596   -1.07328016518375
C         2.03262345381945   -2.21587687099913   -2.16610847276945
C         0.43322421640536   -3.32598028754218   -0.92379037360932
C         0.53428628581429   -0.39777332978021   -2.78514844574388
C         0.77588450909269   -1.77144481334931   -2.60514981115089
C        -0.23134369686280   -2.59991878036632   -1.96176420083937
C        -0.86103716345778    0.01462796906492   -2.74477086487943
C        -0.06243621202399    2.23211673049370   -2.14611598089993
C        -0.61491355736401    3.05035871760880   -1.10481078993447
C        -1.12089046075109    1.38141300912007   -2.59322147541873
C        -2.02042621930177    2.88735202769501   -1.08637568743451
C        -2.35725455714095    1.89098954398061   -2.07426277545731
C        -1.88067622454511    2.62845019884439    1.34000750336061
C        -2.67495932899706    2.88867678551391    0.15031503990832
C        -1.78391747099731    0.52280670129151    2.62525263566823
C        -2.56238401749866    1.60355354553156    2.10260948502140
C        -1.51597076689839   -1.91644817815642    2.37916196408800
C        -2.37082078098220   -0.75609357329196    2.59730437440323
C        -1.53355844991953   -3.25863129138901    0.37047764295726
C        -2.20622385492466   -2.79013048040502    1.52319349900492
C        -1.56540775397943   -2.20274285259652   -1.83633821909604
C        -1.94117004473977   -0.89903764071326   -2.36255084304290
C        -2.27616862880295   -2.78167319397048   -0.76062827940090
C        -3.42214662751934    1.03063464273257   -1.86148620498293
C        -3.18670785979702   -0.38681533705032   -1.97326307640712
C        -3.86964582590744    2.14347281517896    0.27341952062287
C        -3.82081995055160    1.38355220021710    1.52844573874339
C        -4.26733969785613    1.26506067678500   -0.72983742164616
C        -3.61590695777889   -0.99021695556827    1.90469973426004
C        -3.45681903574699   -2.18879251341272    1.15430833617476
C        -3.47950540104021   -2.15870673933872   -0.26107617526882
C        -3.96926603222380   -1.01968671651460   -0.90902674530448
C        -4.30093988950690    0.06944171818743    1.29146201779474
C        -4.56817699096031   -0.01651994558934   -0.11909515794681
