80
C80 Isomer 8634 Symmetry C1
C        -4.74313377521592    2.43706492565556   -0.16498312932672
C        -5.14725476568978    1.06986755646390   -0.12638546221281
C        -4.57161237409866    0.49280448178147    1.04256541354858
C        -3.94626092169895    2.73201037212194    0.98380310703674
C        -3.81646425731121    1.52726902177062    1.71967993344671
C        -2.74658712671500    3.38034077903023    0.54305932432902
C        -3.90312500858494    2.61643638742945   -1.30189535129139
C        -2.69714532554740    3.26320781772295   -0.89545407916103
C        -4.76656626978972    0.50200401781971   -1.39002489207401
C        -3.84729038680574    1.41764971292684   -2.06232808338102
C        -4.47878967522775   -0.82509614345948   -1.40574673675708
C        -4.09240208622426   -0.83892596330140    1.04939604703754
C        -4.38040297729534   -1.55964829756797   -0.15149808186407
C        -2.92692710389040   -1.20264449930157    1.83230502549556
C        -2.60876025064476    1.21375879241337    2.37251358407611
C        -2.20830869798297   -0.15823585850626    2.54242112013078
C        -1.59153340561772    3.21664540825019    1.28377211350455
C        -1.60349193634777    2.25363493584711    2.35668175382352
C        -0.34629274290849    3.47365063122733    0.60783687004842
C        -1.49475577656444    2.91530288311755   -1.49988052431205
C        -0.30303720676473    3.30207542491543   -0.79178028648985
C        -2.60761265839845    0.95178512562173   -2.56163421778893
C        -1.44121481880277    1.79017162679874   -2.40734821829031
C        -3.44225088958020   -1.32561831325731   -2.28080102398379
C        -2.40535461902355   -0.47093239243464   -2.74206469950391
C        -3.64780066489158   -2.70495773524387   -0.43722285427232
C        -3.11416596036158   -2.59734789251228   -1.79777284271758
C        -2.22112032599868   -2.42617279603286    1.54182629575060
C        -2.62428999699280   -3.16966053838509    0.39181614991338
C        -0.87138475157821   -2.65334474941467    2.01906680937659
C        -0.89993033678201   -0.42482771293348    3.08034453096732
C        -0.23415264407450   -1.68652317458735    2.87132582539792
C        -0.38479703134144    1.97085461634429    2.94273044932414
C        -0.08049861568225    0.67683488122725    3.41646963188523
C         0.87068471452929    3.35119873990459    1.34911280720465
C         0.84124353229635    2.62605847630859    2.55367731301914
C         2.09158427764934    3.39728551373900    0.66875287565560
C         0.94008772028957    3.10258005652220   -1.45570774955602
C         2.12105138106453    3.39355902306292   -0.76143191876144
C        -0.16780497695949    1.29080232455394   -2.76370497463439
C         0.98695680746805    2.13622574037094   -2.52302123949917
C        -1.07829162155346   -1.01233890183754   -2.84676848119134
C         0.02526087664288   -0.11242354626889   -3.00997517500952
C        -1.81929790154954   -3.10160246284539   -1.81833801076248
C        -1.61403972281050   -3.68238364686354   -0.51044933569661
C        -0.77212718344758   -2.35076730777299   -2.41188263282071
C        -0.02274697925677   -3.51491630231740    1.28603586365077
C        -0.35203883547976   -3.85322345709344   -0.06401252782605
C         1.39484479848796   -3.38608225517917    1.28684337728805
C         1.17143219638027   -1.74572713766139    3.03359356365248
C         1.99330311911519   -2.56929472759929    2.20928873793693
C         1.35678334390331    0.61182245800241    3.47939948279498
C         1.93052046991407    1.80651957043828    2.92005037169754
C         1.97667481153406   -0.59144870443456    3.29936830956015
C         3.25513954077659    2.71011874120608    1.12901452207044
C         3.14355374071378    1.77557638268544    2.18083005852434
C         3.39824010223296    2.91240733460959   -1.18483474746401
C         4.11242037183017    2.48589339605361   -0.00744685012948
C         2.23351813196443    1.69475098448312   -2.94287173918458
C         3.46638183778756    2.17498651502460   -2.36766188814695
C         1.35513184470510   -0.63102011693504   -3.04459909357857
C         2.41206710307372    0.28993170595714   -3.24812232826242
C         0.57102639417423   -2.69481445899661   -2.02369437054613
C         0.76664806399389   -3.54688516407156   -0.91515346956407
C         1.88731690830837   -3.38829689772815   -0.07168402899699
C         1.67268298078841   -1.88557099293264   -2.41933821589386
C         3.00414515600184   -2.64155452737457   -0.46264465385350
C         2.95462075903274   -2.06148300077676   -1.78321617493358
C         3.21422211817901   -1.88876894002084    1.86861796459592
C         3.22453429857225   -0.65670619461241    2.57029496633323
C         3.83374744893884    0.50570313017668    2.03776355820003
C         3.77333561230106   -1.99673503250059    0.57841045746041
C         4.90912675580390    1.34557437507793   -0.05150823934100
C         4.67700934771438    0.30534898756420    0.92295537295789
C         4.65736238748335   -0.95229985274225    0.21734963719509
C         4.41398923866819    1.11655331446677   -2.44331662350952
C         3.72943495687377   -0.06450955071263   -2.97549303440516
C         4.00244299554480   -1.17666297010068   -2.12873966139952
C         5.11709594854805    0.71760579183012   -1.31855032224995
C         4.91344051220485   -0.71841974420729   -1.14398525424646
