72
C72 Isomer 3295 Symmetry C1
C         4.67818962964068    1.60620550443371    0.82637479005652
C         4.21532550988119    2.06359407234223   -0.43988602372486
C         4.07332681784433    0.95242383811911   -1.32778146780829
C         4.76899906530520    0.18344871424243    0.78136352780935
C         4.52200213340515   -0.21081292042024   -0.57795581566219
C         3.93600479634204   -0.34962979765084    1.79555420182602
C         3.68534308923496    1.96872604897583    1.79703735927471
C         3.23634819231384    0.77809980469416    2.41377740036094
C         3.11217470339628    2.93921228330432   -0.20466789305758
C         2.72680265894371    2.83583138801610    1.19484159701875
C         2.10958515255697    2.93886327684058   -1.14712975194803
C         2.93330180046056    0.84757443774618   -2.17461837477782
C         2.04906915027153    1.94834682013015   -2.18034190664757
C         2.34404084954725   -0.44950513326912   -2.48165309469861
C         3.88541069644127   -1.40711120368995   -0.78530952686942
C         2.92659050214083   -1.56808621588669   -1.85688665085593
C         3.25895659793610   -1.57303201757519    1.59310226314032
C         3.42647943684395   -2.19770529748906    0.32939190937449
C         2.03302287042916   -1.80660206762139    2.31986395829522
C         1.89432686350972    0.65585969638867    2.79965911633002
C         1.38712751531864   -0.68588625573223    2.97330227775228
C         1.37308899715291    2.73893375680921    1.55955358524531
C         0.98004400922586    1.73525252562816    2.51328787121162
C         0.76883215961315    3.23673962370823   -0.74149953094629
C         0.36873385071556    3.14825498998381    0.59705025904411
C         0.66550964913817    1.80622245939551   -2.53047817202776
C        -0.09623231586277    2.71610722264103   -1.74310610496002
C         0.95354810125034   -0.55940864196473   -2.90542364847263
C         0.08072546331725    0.59740292516229   -2.92377117483723
C         0.31589223018189   -1.80473888831322   -2.77705847477035
C         2.16678472746286   -2.73414327244099   -1.54182867181004
C         2.43335127270169   -3.08976293842005   -0.17267265011173
C         0.89310349156022   -2.87943665203460   -2.04475258571271
C         1.21544422370938   -2.87894750296413    1.91556336702155
C         1.38983823075565   -3.50315088373189    0.63677996652531
C        -0.19167649457483   -2.91377217614988    2.19191814757326
C         0.04047622079921   -0.79057216124669    3.31578648578846
C        -0.76059790883146   -1.92644502319528    2.95973692907901
C        -0.41580859978516    1.56575723692956    2.76274159207522
C        -0.82674020725899    0.34030920050678    3.32355923385993
C        -1.03098435049152    2.98624258901361    0.85007106058275
C        -1.41606956011731    2.34896802285648    2.07659482301557
C        -1.46034994181262    2.59235325489076   -1.54169700831699
C        -1.95564687380119    3.00432388145023   -0.25239731935044
C        -1.36465215876872    0.51110161717735   -2.85256521965241
C        -2.14194915101860    1.60200369445167   -2.33167921271262
C        -1.10555064061893   -1.89513854188824   -2.60791585199262
C        -1.95173668574362   -0.80078803052003   -2.77578955039229
C        -0.14846940672841   -3.48018594591794   -1.25142910694878
C         0.07895745633142   -3.75161467368279    0.08596203218099
C        -0.92263470986461   -3.39582393398657    1.06256214619978
C        -1.39209043286139   -2.89666379663186   -1.62779350520675
C        -2.18455879004155   -2.87295592685452    0.71999521179467
C        -2.44832306399500   -2.72219053432466   -0.69511964642795
C        -2.10828161145215   -1.52387436627188    2.73509317372000
C        -2.16478752463965   -0.14893905153646    3.14753110253761
C        -2.86336352839396   -1.96420054915190    1.63178581262062
C        -2.77917428090376    1.99294989934445    2.23732570085970
C        -3.14989744283057    0.66809798387088    2.68499993991809
C        -3.33084328456789    2.78321703859397   -0.00615554754544
C        -3.73585431353558    2.34784379920254    1.28311478473957
C        -3.52726672259315    1.42275017288146   -2.04060671582886
C        -4.13318734824356    2.11643512214777   -0.96385396324841
C        -3.24900811268186   -0.97905287302618   -2.22362174601431
C        -3.46267633211838   -1.85756163101254   -1.10310621539583
C        -4.08880921527656    0.11829936668412   -2.05781533800110
C        -3.97656737355427   -1.12915990907861    1.19424124808179
C        -4.19498163937470    0.13361126935801    1.84031920826367
C        -4.69398775376528    1.25248907096274    1.12540505483368
C        -4.99511895710359    1.16301030223337   -0.23158553054083
C        -4.36351394989310   -1.20628063526054   -0.17513247722465
C        -4.89336743257421   -0.08068346217656   -0.85516166351155
