80
C80 Isomer 25231 Symmetry C1
C         4.73274831702679   -1.14179692957461    1.06563908301025
C         4.98711030750229    0.09516126699146    0.52620372333714
C         4.77360992968941    0.01363117825927   -0.93473532199971
C         4.44832850254055   -2.05110364226633   -0.03498921021456
C         4.29257502907962   -1.27648065094837   -1.23977063372356
C         3.43867088146437   -2.89991583323939    0.38340304579689
C         3.69665347700407   -1.27826253879540    2.03895110653325
C         3.00725510392909   -2.48319455364176    1.70081338756591
C         2.94706656958624   -0.15968957678551    2.48033342567892
C         4.33933303001144    1.24509893777972    1.01709978972565
C         3.31243954995985    1.16372403517233    1.99446864326324
C         4.09828792532152    1.15571899597733   -1.33306096592675
C         4.09863765466716    2.03299387285314   -0.17526347042211
C         2.92503197175586    1.09570737134777   -2.14642715547190
C         3.10803018955932   -1.39957120511615   -2.00684102161178
C         2.43574018154591   -0.20545020208034   -2.49540965872083
C         2.49006483065960   -3.35773607708027   -0.55992231383034
C         2.34556422868779   -2.61035447803620   -1.79045374442290
C         1.36818244600754   -3.97213908449512    0.00719974185878
C         1.69785565999832   -2.71092033314769    2.10874108867280
C         0.96647905840748   -3.65675767919843    1.35243890292281
C         1.59827519224428   -0.38913136076204    2.93021550666656
C         0.99640666449033   -1.69357687978174    2.83510855226872
C         0.73707313782095    0.75547595083676    3.11733034087125
C         2.35162148777532    2.25197587234651    2.02890367731380
C         1.03999131439166    2.06151863534373    2.57116448453656
C         3.24558811863054    3.06288171082980   -0.13224428043003
C         2.53068888278044    3.31761341218185    1.10461947330808
C         2.03975833639403    2.23496809315203   -2.14092381261480
C         2.36669080601546    3.31663373587214   -1.25713210698661
C         0.67457835390433    2.12189769470902   -2.57506871358298
C         1.07290901919258   -0.29316713920894   -2.95733875269805
C         0.18008250965737    0.83549298163487   -3.00471253736101
C         1.11851749092562   -2.71593249652260   -2.44167716622275
C         0.49818249648491   -1.57663307196248   -3.04325200230709
C         0.18509043034909   -4.19938371725376   -0.74991108927179
C         0.08240058748542   -3.60370345787574   -1.99727120971421
C        -0.44371272855250   -3.73682453010194    1.43663908658844
C        -0.93461504153151   -4.16899269195922    0.15570996899491
C        -0.41549794383922   -1.88868233428266    3.02247796896594
C        -1.17674114298450   -2.86697208987526    2.26740224593588
C        -0.56856929384525    0.51905241146266    3.51895962104478
C        -1.11833135822066   -0.80191015009814    3.55967858796739
C        -1.65320916933037    1.43170992517668    3.19760066350652
C        -0.06573269898640    2.90956010673316    2.17665842932260
C        -1.44661013459326    2.49301559679547    2.30685414512622
C         1.45643918986450    4.11751487631352    0.73042286612522
C         1.37556016818875    4.14266298738786   -0.73178124313318
C         0.16676383438276    3.91128628397038    1.21765157861595
C        -0.28360136090232    3.11738323037588   -2.14145278841006
C         0.04044755907879    4.03101322697423   -1.10181960133539
C        -0.74698356264471    4.03674788097237    0.10645498244579
C        -1.64631940028460    2.85221621712594   -2.22191263195347
C        -1.24493967651139    0.60148490396772   -3.12493030935674
C        -2.12850562958372    1.66144173155447   -2.83832751566482
C        -0.91062490846461   -1.78843368857419   -3.05507619948557
C        -1.17456981764654   -3.05091072289547   -2.41276946904638
C        -1.81374299854544   -0.72764291489167   -3.01999780991198
C        -2.15873064335392   -3.72635008064974   -0.28270289264083
C        -2.28818892692388   -3.18429435264157   -1.61236504667963
C        -2.54864695774123   -2.58939162371393    1.87927380408836
C        -2.99116430541290   -2.96223667867388    0.59133733634224
C        -2.51468217044386   -0.69128299482691    3.38669692322731
C        -2.83917077381875    0.69734263479310    3.16779044541302
C        -3.20223161828565   -1.45721367564875    2.44134591248076
C        -3.73184987418728    0.79346106257796    2.08584939952888
C        -4.01927274055158   -0.55994132761334    1.66395834339173
C        -2.45533879953455    2.75761552731803    1.30912192250907
C        -2.02372817546180    3.49166922734271    0.13634079960111
C        -2.54901320224007    3.18943433235967   -1.14524897687906
C        -3.58251737250626    1.85968196571421    1.16794157968838
C        -3.43023395378101    1.42791129963724   -2.32966307780148
C        -3.65731683085503    2.33821988853056   -1.24735914923439
C        -4.11762110833943    1.61054507696700   -0.13327754584121
C        -3.08472089915771   -0.96024781289685   -2.34296041657579
C        -3.24061458013626   -2.12269409976771   -1.55548094657024
C        -3.74505897684933   -2.04740766712830   -0.21990560904295
C        -4.25196373627062   -0.82849009222533    0.30407789195715
C        -3.84049240158347    0.14926163845237   -1.91524358402217
C        -4.36286551055976    0.25909465844682   -0.58119849507918
