74
C74 Isomer 612 Symmetry C1
C         5.60521148165775   -0.27918694973217   -1.05240223042562
C         5.48820394582626    1.08725386837489   -1.19479888373568
C         5.07980237856979    1.64243552124835    0.10589441116864
C         5.29601213866115   -0.65374990382981    0.32570015900516
C         5.02564522133845    0.55578035994256    1.05862732444274
C         4.30770446635417   -1.64547924800245    0.26382413743960
C         4.65746108629399   -0.93985271999129   -1.94047013779633
C         3.92626953702792   -1.83860093818350   -1.14451453916474
C         4.44213700421347    1.34573988908065   -2.16644673382490
C         3.92460921024264    0.06914961596012   -2.63789262926365
C         3.92091537278557    2.38445974599964   -0.12641039203039
C         3.52793513837829    2.19035092401982   -1.53237650094921
C         2.87365306466927    2.45697993824514    0.83976559304695
C         3.95259590863802    0.53755020927307    1.94721895009697
C         2.99502134822077    1.61223744183513    1.95543961837699
C         3.26765865633099   -1.71035100720928    1.23560148579104
C         3.18492687929464   -0.66075152756367    2.16508269457799
C         2.06083929627137   -2.41794093504829    0.91314554186052
C         2.59352724499918   -2.12467307715162   -1.45761415055531
C         1.77334972100172   -2.72438518254034   -0.43884726112778
C         2.54059568198358   -0.08999036555836   -2.80567949985812
C         1.91402086827698   -1.32967299635749   -2.43129106125803
C         2.15814075119765    2.14350383334419   -1.85531451844307
C         1.68478566556529    1.06044539653450   -2.66484492594721
C         1.55666481427003    2.84398512919472    0.41729237823626
C         1.22735043824348    2.77578603923736   -0.97635505434060
C         0.44991228002670    2.71154069552129    1.30167111778912
C         1.78712372298529    1.12455745629783    2.54915677890323
C         1.88402434467478   -0.28373668675665    2.66824713755708
C         0.55067161957420    1.71245231291669    2.32533755071015
C         0.92377938079127   -2.29986409133113    1.79465831745502
C         0.75486158737356   -1.09853815096415    2.56507219833414
C        -0.21097160590390   -3.01431679571127    1.47603548881199
C         0.49077753219611   -3.19690138039498   -0.83342117391349
C        -0.34368148137904   -3.66017267066635    0.20817134463174
C         0.50707913949550   -1.49421598631787   -2.60069012054760
C        -0.12621016242091   -2.66352966846310   -2.02503607483450
C         0.29909308824463    0.91793079890566   -2.84179126078080
C        -0.28477550839308   -0.39025335326860   -3.00859555131736
C        -0.12290184036585    2.86855475269360   -1.39920903242042
C        -0.53319435440431    2.01836761197310   -2.47502819971484
C        -0.84342645379142    3.16098788173440    0.89669136841613
C        -1.10956329448919    3.40724269221361   -0.49482586856234
C        -1.92615687731180    2.78930865019517    1.73576743478825
C        -0.60888173430099    0.92462497500242    2.64559719242741
C        -0.55300181985078   -0.50394578600240    2.68222658514506
C        -1.83447729712447    1.54650145726044    2.44040576499722
C        -1.53635394498908   -2.58053019238370    1.89123474040162
C        -1.73518821192691   -1.25579655615755    2.35064004987660
C        -1.72832518858424   -3.85755067243931   -0.00320274283358
C        -2.48253267216051   -3.18398719696993    1.06344770911038
C        -1.51517498881923   -2.81441927217261   -2.18678250862655
C        -2.29652080802812   -3.50934591851118   -1.20572293023451
C        -1.71510577338388   -0.51098571801264   -3.02917274302664
C        -2.31349000396619   -1.71232895696441   -2.62147098976541
C        -1.91334012538865    1.92486628312916   -2.75399033899331
C        -2.52723288074050    0.63744531003783   -2.95967626897128
C        -2.45748633464398    3.47398968331201   -0.93879541197940
C        -2.81566242692586    2.77096570175972   -2.11412348986092
C        -3.26147166659011    2.87352371699085    1.26275446789962
C        -3.54251936994716    3.25963207781150   -0.02163684688358
C        -3.03618439778667    0.78485168960616    2.21488089774390
C        -2.96655982293382   -0.60673558540696    1.96989379200743
C        -3.94211023312662    1.59251247924812    1.53133468240002
C        -3.53825722253269   -2.44028692184027    0.47461025908318
C        -3.49237126463242   -2.72292451015685   -0.92475522359878
C        -3.52651132125441   -1.66430573169550   -1.82554076788424
C        -3.81415515525595   -1.12156164469660    0.91479149483308
C        -3.79626854677189    0.64327198100399   -2.29785750903214
C        -4.02335641376813    1.97810857796830   -1.85497833679817
C        -4.45968027853827    2.23429848331342   -0.58213264698958
C        -4.58841577430842    1.15058205589559    0.35664139144806
C        -4.14300604076110   -0.44067151677758   -1.45425156723192
C        -4.41183671817390   -0.20123542185109   -0.04891393529126
