78
C78 Isomer 12641 Symmetry C1
C         5.26431286574012   -0.50561120810051   -0.22244252421672
C         4.92105092919494   -0.64560229412284    1.13072017947126
C         4.22718914242868   -1.91262027111303    1.26033248183485
C         4.63094294763571   -1.58948230554938   -0.97905099646057
C         3.95703941381082   -2.41292586542150   -0.05034496646819
C         3.90582863599695   -0.99647358196745   -2.05417632664857
C         4.96729883647624    0.70169840433821   -0.85242060634891
C         4.21337435690764    0.38311952104006   -2.07745966287884
C         4.28504138743482    1.73841700152206   -0.18080896095166
C         4.14803697407376    0.34545998179946    1.79812553687427
C         3.79973226605195    1.56997554273971    1.16136879295917
C         3.16349768417958   -1.74544505244802    2.14316514874247
C         3.12221030322205   -0.34793242150623    2.52933350191318
C         1.97217660981047   -2.47266579568382    1.97189813342582
C         2.66644372693724   -2.91518501770436   -0.34710683200457
C         1.75503399114860   -3.17529037598490    0.73602382900937
C         2.57743958255769   -1.40060095081069   -2.34976632136973
C         2.09720534920023   -2.54886886292532   -1.61998746481453
C         1.61083777334347   -0.43333977367422   -2.81003095085166
C         3.20883160778921    1.33084835549801   -2.25861118969300
C         3.37283223815473    2.27042803781830   -1.16780308488878
C         1.90408176070236    0.96340089674412   -2.68892616641032
C         2.28884070966157    2.97511521147328   -0.76941189981657
C         2.54551406390316    2.18975480293338    1.54887010434050
C         1.94592460355509    3.07420233492805    0.62591674104143
C         1.91224658866510    0.23639324803818    2.90493207935777
C         1.63911241582420    1.58955839436637    2.50301947345694
C         0.86201943423018   -2.02955751017824    2.75684618465358
C         0.84378801280836   -0.66906331826530    3.25593973961265
C        -0.35491829426828   -2.68583690206150    2.57206829530439
C         0.42543411312147   -3.61902317664753    0.43886713928730
C        -0.59002071119908   -3.49337686610857    1.41883253459911
C         0.78293878659519   -2.91827385174558   -1.85754961661378
C        -0.00240330860382   -3.61269316823481   -0.90099416490713
C         0.22432818614844   -0.81043666690456   -2.95578286682648
C        -0.09885606744557   -2.13445614518896   -2.65849944854020
C        -0.86634028252467    0.14488961914880   -2.98012275436678
C         0.81626090642711    1.86812718884944   -2.41619721839563
C         1.07386716150917    2.92801389798217   -1.52819532575226
C        -0.56316102455519    1.48684367566819   -2.60728463694607
C         0.58223150415454    3.43495081297568    0.67099283371197
C         0.06058840342588    3.42201937404421   -0.66439623989790
C         0.29176443601446    2.08242438635917    2.65396097962442
C        -0.24509003429700    3.06549691406985    1.74363394503604
C        -0.38984675934789   -0.10743608981688    3.57410661814324
C        -0.66063701222076    1.26892408125558    3.29879467691305
C        -1.60794052613467   -2.10125201316037    2.94648303704790
C        -1.62561777533870   -0.82144157270731    3.44477873736448
C        -1.97103835433599   -3.39162488973542    1.08760628798170
C        -2.61846810376138   -2.51360178645093    2.03322118047596
C        -1.37771235572344   -3.43802177486799   -1.25111640069848
C        -1.43285192306730   -2.53898186290088   -2.34856886177819
C        -2.38829886025305   -3.39565311227534   -0.26328358642961
C        -2.23694967216917   -0.32456246986439   -2.95075969878777
C        -2.53119892943150   -1.70224353929550   -2.59148012084728
C        -3.24964108778043    0.62832631618226   -2.69358134981763
C        -1.59780021049763    2.31679869946987   -2.03510569040728
C        -1.28192694902378    3.20751170800936   -0.93980157599726
C        -2.92140400473054    1.89540093678610   -2.13449483910995
C        -1.62796136405097    3.15250287149733    1.49702280783813
C        -2.15073958498135    3.30931119687794    0.17257918204233
C        -2.07581991228760    1.38492505559786    3.06467489228828
C        -2.67566772461144    0.08128573192440    3.06816881850925
C        -2.56567974002373    2.33698729474025    2.19711812746062
C        -3.67826052231845   -1.65866394496279    1.68032196439069
C        -3.70599732601979   -0.28973148553883    2.18107000231762
C        -3.56406255727082   -2.70550291980528   -0.58799756815134
C        -3.69462216576875   -2.02454193779757   -1.83815362763731
C        -4.28435456890653   -1.93307113788609    0.41677554208020
C        -4.49845723663197    0.23611111493930   -2.10807219561668
C        -4.70314087551307   -1.04211388354184   -1.65399862142821
C        -5.03746428582478   -0.96191684681574   -0.23378554715662
C        -3.89086832953474    2.19812826877753   -1.08140960975771
C        -3.44344205008292    2.73169308752183    0.12457329353937
C        -3.68809689299264    2.03309242825406    1.35795306765231
C        -4.31462597216079    0.76415693422662    1.36909477491569
C        -4.82213823614181    1.16282757733662   -1.01996168111518
C        -5.00777611700918    0.40800174403689    0.17275053558802
