80
C80 Isomer 15603 Symmetry C1
C         5.43177627740776   -0.37861574270213   -0.60098098585869
C         5.25209776807254    0.00368096563690    0.72905046615754
C         4.93295490991201    1.41709465715570    0.72607437070644
C         4.98799314718059    0.74624655572941   -1.45497619463818
C         4.62346786567644    1.81589959964797   -0.62028184462125
C         4.06053967022603    0.25233027724082   -2.39627956220551
C         4.80235611283729   -1.53165594240201   -1.05839291296390
C         4.08833065900431   -1.16946525855929   -2.28770764197139
C         3.90706582229490   -2.25804435324819   -0.24047802921762
C         4.29811132364037   -0.65860050255135    1.56199513134666
C         3.59873528107209   -1.79313685319495    1.07978597488761
C         4.00769424775449    1.63488832232819    1.75086020596463
C         3.54891158876109    0.36052813222645    2.26243393554085
C         3.07455591243154    2.63355443236219    1.56109715050612
C         3.42623838004678    2.55478278166865   -0.89140502289617
C         2.85891626309636    3.16399687597712    0.24439257501867
C         2.80403159243373    0.91118088059001   -2.62994557805800
C         2.51551361322793    2.13953092936487   -1.95204411314224
C         1.69417556820213    0.10328011835535   -3.05098715533049
C         2.90982674298550   -1.88857264189037   -2.32244550552734
C         2.80946488329084   -2.65452761829869   -1.10002932029375
C         1.73740574944397   -1.31077880154139   -2.83719769652253
C         1.58316440069018   -3.02191970263686   -0.59962783436362
C         2.26927896387836   -2.01870538290640    1.57501420210784
C         1.41791597662995   -2.90929790607708    0.82617403135598
C         2.21160550382869    0.19904422817354    2.63943723277519
C         1.61120622678494   -1.08892390350554    2.43764949056291
C         1.81415224167717    2.56115284590288    2.21628786622748
C         1.32419746791124    1.35062480328189    2.73603827795695
C         1.53104315449592    3.65073121396806    0.21688900473182
C         0.93066199700248    3.40991124220739    1.48223815785146
C         1.16201615293148    2.66182774171152   -1.98883148434704
C         0.74862859505879    3.55674068805376   -0.94550370093650
C         0.40741196329686    0.71013092645630   -3.23376128367603
C         0.12206475177223    2.02410033963449   -2.74019747537798
C        -0.66810925511731   -0.14519453067066   -3.50796819257790
C         0.54417924759079   -2.04651660857376   -2.57463673899850
C         0.41400102614061   -2.92962938929512   -1.45500376242727
C        -0.61587709884799   -1.52063519684924   -3.11846016699748
C        -0.87887906847007   -3.22360923840193   -0.94741233139403
C         0.16848920614430   -3.18661472358578    1.31460990147842
C        -0.94026893566471   -3.53612932027521    0.44374580529868
C         0.22435481444015   -1.24776374193062    2.78460144494312
C        -0.36142151686854   -2.47591529822925    2.43792000420393
C        -0.10693219837058    1.19478595209518    2.85825153965076
C        -0.65636639466503   -0.11646982723911    3.00777349769555
C        -0.44330088418202    3.34246423248522    1.64899873835435
C        -0.97529922438205    2.28253810620560    2.46928973373857
C        -0.61309866171293    3.82187378026847   -0.74434474053863
C        -1.19060098921347    3.84640533323825    0.56594990142107
C        -1.27725554803538    2.42654650844570   -2.62756026237026
C        -1.60365372415159    3.39300212245908   -1.66207448956916
C        -2.03082336539068    0.26086910749030   -3.46718810541884
C        -2.36854015334872    1.56535546148423   -3.04902040132363
C        -1.90973370911599   -1.93952191689114   -2.72179127351376
C        -2.09073237563211   -2.72455403311603   -1.57457800585671
C        -2.80809577911432   -0.88627468207083   -3.10012682854062
C        -3.30703069642821   -2.47798440868569   -0.79750272852817
C        -2.11024339689729   -3.33101607629495    1.16427758408579
C        -1.76210670136456   -2.64764789582101    2.38794031583569
C        -3.25377628552812   -2.70092142477363    0.60545628519446
C        -2.08846077980258   -0.30127168608367    2.88362139761366
C        -2.62718079439709   -1.57244010067132    2.53595393575539
C        -3.66533897119627   -1.69455928995352    1.52286391504298
C        -2.35547878592406    2.07137234670635    2.35230304965354
C        -2.91236982925405    0.78580366698795    2.53874484999478
C        -2.57565566902813    3.57319922740483    0.44401181858044
C        -2.86839461297946    3.39400474186947   -0.96138724341746
C        -3.17726206445319    2.76395901272730    1.38753928450723
C        -3.67242967040787    1.70565459313193   -2.47966703624962
C        -3.89676962185420    2.58474998165947   -1.34821584629559
C        -4.00372336700204   -0.73833097082707   -2.42742196936238
C        -4.21904813879472   -1.49053331658300   -1.21294900890280
C        -4.47916859983671    0.57616298344330   -2.24914173793047
C        -4.40146006589528   -0.57876121746934    1.09271433591986
C        -4.09305589716352    0.66111928084321    1.70412243419201
C        -4.24477597794488    1.88590586822628    0.99430979794786
C        -4.67973546292537    1.87933733487015   -0.34196616515068
C        -4.83359390263919   -0.58593360126872   -0.26607480654488
C        -5.04548689527260    0.65010490535910   -0.91685246094923
