62
C62 Isomer 1970 Symmetry C2
C         3.77912151892668   -0.82645632303219   -1.60178896286430
C         4.27370218996732   -0.63507306665041   -0.31648028839741
C         3.75980366910496   -1.70320960487551    0.53057119847414
C         2.94209683787085   -2.00872938584386   -1.57729242737732
C         2.91810226274944   -2.53992552902238   -0.23905684665274
C         1.74498411672661   -1.71866136855702   -2.22844378604357
C         3.05045330496275    0.21280752167556   -2.26324951709699
C         1.78153421255264   -0.34239071302553   -2.68991797148019
C         3.07763789210159    1.48608162171207   -1.73081177232686
C         4.09910353881142    0.60676329105852    0.35669548137372
C         3.67451662494226    1.70171051529034   -0.41507170138585
C         3.28048277974872   -1.09704225419915    1.71212356848676
C         3.45897766554095    0.34538023844249    1.62623058049768
C         2.13000224457496   -1.62636323472156    2.27959564781306
C         1.68907976003752   -3.00458159108859    0.27921338213506
C         1.41165246330206   -2.67288976676131    1.63025481212607
C         0.52902522925138   -2.33869329963077   -1.83153905519101
C         0.54946027108890   -3.11289533717033   -0.61927077066650
C        -0.67730023949027   -1.73071845056226   -2.31794033655052
C         0.60698191666539    0.40334251206428   -2.72850102146137
C        -0.64337832535192   -0.33860613753081   -2.73136805811943
C         1.87642578272935    2.29085554116486   -1.81204055579556
C         0.64373072297516    1.78732190308907   -2.28881986291998
C         2.88721912936100    2.66461743272038    0.23292541137826
C         1.85282671504889    3.13027942261656   -0.68352473730755
C         2.47562570480787    1.20556297372031    2.16370284776450
C         2.28109859334438    2.44809155362472    1.48080896728348
C         1.17180606521014   -0.76434747602219    2.93345633334345
C         1.32468919232212    0.63681926232978    2.86309024450642
C         0.05871411770100   -2.59380268772813    2.11397864932402
C        -0.10356167141037   -1.39308366279627    2.89036358991777
C        -0.70188983762558   -3.38965930094699   -0.03264115974891
C        -0.97528896339391   -3.06570960514231    1.35676700974165
C        -1.90686298495608   -2.24328304565550   -1.84267845660714
C        -1.87580694386369   -3.10405001625982   -0.73051457170144
C        -3.10743921601626   -1.44028056896437   -1.73810279054445
C        -1.81760615177125    0.40615998123489   -2.67072734329466
C        -3.08375292949137   -0.15710488531036   -2.24629631511615
C        -0.55926514682915    2.38584200850468   -1.78288791391919
C        -1.77790024918727    1.77342210682949   -2.18336314120496
C         0.68352501416798    3.40250065220437    0.02744864853822
C         0.96616061523878    3.05220644145604    1.40861265687819
C        -0.57170151203166    3.13684787676352   -0.55599305339596
C         0.10450851506311    1.35061260864930    2.91580696060585
C        -0.06288668633974    2.56586576402076    2.16351227006111
C        -1.32407779392144   -0.67851625613662    2.85934053441425
C        -1.17065660794543    0.72107872293206    2.95542839456711
C        -2.28973582443760   -2.46326980527386    1.44921046645634
C        -2.90410928067297   -2.65605170058657    0.20148809527619
C        -3.69558553600577   -1.68102970730002   -0.42281291473068
C        -2.47960956228982   -1.23391986026041    2.15696722160966
C        -4.11495705921440   -0.60095194537400    0.37248723426572
C        -3.46648285421142   -0.36376432118810    1.64256531457392
C        -3.80794931165216    0.86936725999045   -1.56038395783306
C        -2.97072692389287    2.05100014146806   -1.51896840247020
C        -4.29402177933810    0.65353740042687   -0.27572847332655
C        -1.70540659556828    3.01152305189717    0.34779261172194
C        -1.41904955139730    2.65414219930702    1.69045060988404
C        -2.13315391126942    1.59538297760070    2.32447743894501
C        -3.28747457667985    1.07688956344739    1.75469449515529
C        -2.93781920665590    2.55659514309536   -0.17101414265313
C        -3.77459143398492    1.70545321828011    0.58816963106474
