68
C68 Isomer 2901 Symmetry C1
C        -3.32683233171294   -2.98760483589997    0.50171256713129
C        -4.09400945935308   -1.79610842183049    0.41809623656093
C        -3.83389406109314   -1.18016556809044   -0.84017257203869
C        -2.55727224034850   -3.13015115337371   -0.68284042581494
C        -2.81160814279815   -1.99410637741041   -1.50787414321836
C        -1.22141912661646   -3.39665458381368   -0.29408888267280
C        -2.40518857459469   -2.88056008036160    1.60652072502583
C        -1.11126150564673   -3.21108387845054    1.14236328213346
C        -3.80442251695939   -1.04886449032418    1.60597528807872
C        -2.62255618378576   -1.63981277661291    2.24972488188109
C        -3.91318350130369    0.30181408775452    1.51757314079259
C        -3.83558559174740    0.22131033412880   -0.95614843935670
C        -4.20413471218215    0.93233541680209    0.24011319384919
C        -2.91533724032413    0.85044877561016   -1.89259813423692
C        -1.75930072977963   -1.38587917742660   -2.20605204103102
C        -1.87148149246680    0.03712580799425   -2.50395525724514
C        -0.18474349533967   -2.93983440152493   -1.09437158765222
C        -0.44929871245857   -2.00737627877134   -2.14715976267330
C         1.11111153906711   -2.97676269741438   -0.46419697238637
C         0.00477433260579   -2.53470821611487    1.65837658696662
C         1.23248894140737   -2.70003230086653    0.93003452956200
C        -1.51846555818001   -0.82425019684229    2.61858625813426
C        -0.18443430344799   -1.35997273921316    2.45591456243091
C        -2.96843180170356    1.14247963685888    2.22763988026775
C        -1.71506501481668    0.61119451056449    2.63923330423088
C        -3.82761574517059    2.27293283258655    0.39520775461587
C        -3.04881490788343    2.40338803259415    1.63385491126526
C        -2.66257275399404    2.23957196539317   -1.74157598810111
C        -3.13990888250451    2.94662081564671   -0.59971024052368
C        -1.35116823875203    2.78601338630399   -2.00327553340686
C        -0.70631064381822    0.67065281192658   -2.96178238658384
C        -0.41624583034212    2.03118572164315   -2.64949754467835
C         0.69747140972568   -1.33215862875471   -2.68392580983014
C         0.56455362293397    0.01735317375357   -3.04863570047207
C         2.19971881294726   -2.69664874139763   -1.29439397861514
C         2.00103085912399   -1.74574941239647   -2.37362528816486
C         3.45065083297387   -2.50225253787232   -0.72918566787332
C         2.43902600589763   -2.14269864653095    1.46527134585828
C         3.60804073089912   -2.25438961411095    0.65799060958284
C         0.95901538625985   -0.52690534859436    2.66900451177099
C         2.29414818093963   -1.03075765382096    2.39288258279430
C        -0.57110696677736    1.46362936142792    2.53848528435452
C         0.71990605902478    0.88644915355075    2.75902766765277
C        -1.89417622737575    3.17257625347591    1.36657613953526
C        -1.99634613430118    3.61453140211560    0.01166236569376
C        -0.90113082382844    3.54504474929302   -0.86425614275020
C        -0.65135808253550    2.72174177617040    1.83239900747424
C         0.40831872980842    3.38554205230222   -0.35880279823656
C         0.49591635496617    3.13769385400898    1.05374342575507
C         0.98589207674356    2.15262338250011   -2.34490856865144
C         1.61540045467392    0.94331625870524   -2.75698154183640
C         1.44347443272748    2.81143199556410   -1.19571226872610
C         3.11342058548677   -0.84865669450388   -2.34965405493606
C         4.09101689871472   -1.41966538153749   -1.47948213507529
C         2.88713390844657    0.55617081558032   -2.29051597048786
C         4.63386865866178   -1.25032364640661    0.73351945175296
C         4.80753153292335   -0.64379196991158   -0.61096687616943
C         3.38926247823663   -0.12329559107764    2.50836868985628
C         4.53229009338085   -0.23681129917529    1.63599990046909
C         1.82118032475357    1.75350828329381    2.57399681666926
C         1.72564674965603    2.75754510508576    1.53694193893222
C         3.11679435120192    1.26266584096743    2.57350580949101
C         2.73709311576047    2.42592612140308   -0.66439910484591
C         3.54519683379970    1.38371003600619   -1.28647307225758
C         4.58345324940134    0.77220859132101   -0.50946757603896
C         4.68143623071001    1.03867259630562    0.88929761761527
C         2.90132908164746    2.67467181431409    0.72067246388307
C         3.84008867843551    1.93794658748029    1.48641373451981
