66
C66 Isomer 3240 Symmetry C1
C         4.52560079660952   -1.02227584511631   -0.29148290610026
C         4.52189992675503   -0.20331506307452    0.84646234401955
C         3.78947237817104   -0.90559414328907    1.88696692963107
C         3.71408265623071   -2.21563374414484    0.01206332451775
C         3.19823322032415   -2.07372665022415    1.32089415517597
C         2.81807577041839   -2.40574779764396   -1.05677226592127
C         4.10606717877008   -0.50634937621527   -1.51609326391858
C         3.10444783783334   -1.40960352171066   -2.05426997001538
C         3.61043536069032    0.82808470555412   -1.61858740478245
C         4.03640300072693    1.12726514480768    0.78805902445910
C         3.61543955288040    1.67515138129546   -0.46708042349085
C         2.99282875979824    0.02444301112366    2.56380838573751
C         3.18945109337697    1.31230528961628    1.94575776415730
C         1.72570207950723   -0.36649751187093    3.06548041549549
C         1.83949269845914   -2.39574742119483    1.61119395793770
C         1.18258206437369   -1.65393091439158    2.65796060439891
C         1.47750048594140   -2.74870278760594   -0.81102771534268
C         1.03010583922146   -2.93323518980719    0.55082587311805
C         0.50419437972149   -2.28547518061324   -1.77803504596418
C         2.07738219473835   -0.64228025698507   -2.59913874029837
C         2.41288465816492    0.74804243753526   -2.41310763163219
C         0.72960169460171   -1.08032380300144   -2.54322526300931
C         1.37494759260432    1.68054055029392   -2.33885608068678
C         2.58198114529121    2.63917896457863   -0.41629457967140
C         1.60150815147905    2.75058453747937   -1.44239263643201
C         2.15383502241360    2.26583340957824    1.97785260603700
C         1.93768346499418    3.03827255307530    0.80665700819365
C         0.83205227889021    0.68170545619392    3.33871776956185
C         1.02284934836007    1.98755522427998    2.78580516376880
C        -0.57785509024545    0.46522063234589    3.42521900346810
C        -0.19836538860405   -1.84968243034143    2.82595413553284
C        -1.08020761618357   -0.80465217409663    3.24842309778415
C        -0.36707253561478   -3.15929715449544    0.77782409452398
C        -0.95767503447502   -2.70355561652125    1.97239466860132
C        -0.80748508556000   -2.66616906492228   -1.59013020177257
C        -1.23125792065392   -3.28821047018435   -0.34976629359761
C        -1.89410455019949   -1.92754727993613   -2.13886418268802
C        -0.33196736435698   -0.14523101446916   -2.72900521885549
C         0.00703463689752    1.26928328549575   -2.65596039181282
C        -1.69862533326858   -0.57874005491144   -2.53360435600984
C        -1.01245083840825    2.17075314190035   -2.35834152172882
C         0.48616669545092    3.47082219970199   -0.90692462697059
C         0.64708381074718    3.57732393606902    0.51402352671986
C        -0.75703239259583    3.29082160739123   -1.46944380317013
C        -0.26993185515718    2.53051466509587    2.49168852168501
C        -1.27376873766342    1.59516053024193    2.89840601669358
C        -0.46932563528366    3.35939603435480    1.36432669471599
C        -2.51685234095098    1.43415756107509    2.22828667386753
C        -2.38021481066120   -0.99970931446138    2.66406873859174
C        -2.33867390874313   -2.27659967439245    2.01195584194523
C        -3.10789115590896    0.10035454106669    2.14729794918922
C        -2.60960756025056   -3.12066951787445   -0.24397676695996
C        -3.04418991778136   -2.32500287563538   -1.39136153534238
C        -3.18589507362456   -2.54273961806917    0.93480348995580
C        -3.96616152531839   -0.20389556825139    1.04250267216074
C        -3.94606101930914   -1.38233678161928   -0.94906405742033
C        -4.04864622840205   -1.49671853250108    0.51638165982466
C        -2.73589237967479    0.37038589291869   -2.18358167028527
C        -2.36454819603280    1.73128911040420   -2.10297223984570
C        -3.79602087795680   -0.02573668347207   -1.30472143673364
C        -4.02720686943152    0.71440924515480   -0.08324474307015
C        -1.88821827841516    3.43485678720126   -0.62665366018173
C        -1.77027337573332    3.31152933990321    0.77968142749401
C        -2.78274440527014    2.38588010617790    1.22023373544145
C        -2.91480539319142    2.55837924597361   -1.09564357931173
C        -3.53499707951633    1.98843250515967    0.04464693861758
