62
C62 Isomer 2218 Symmetry C1
C         4.00091548137224   -0.56413250332534   -0.48670688879237
C         3.69873511875325   -1.66114167624924    0.29706968738704
C         2.98578443090637   -2.61041558994736   -0.53313949947305
C         3.36821990813440   -0.76093668779720   -1.80316290390773
C         2.67738339640294   -1.98389366217549   -1.79177175668335
C         2.75262652451240    0.44549246936341   -2.16295845826190
C         3.75033580512040    0.75179548397992   -0.05439803249091
C         3.19870699662155    1.43816733821495   -1.20503469651004
C         3.20357493657397    0.98254508300439    1.24633972605910
C         2.97242836654832   -1.48636231249571    1.52031438163134
C         2.74097654532565   -0.17078771606441    2.00739730115061
C         1.96476180686654   -3.15581577469375    0.24778130084679
C         1.93921480658552   -2.48098518347909    1.53870587431376
C         0.76379225947271   -3.46684756793252   -0.37745063553575
C         1.35201230419119   -2.02231360592945   -2.30865813961960
C         0.49518163421988   -2.97754745437862   -1.70204792284025
C         1.42675230849159    0.47704638890543   -2.67566241291565
C         0.75887311387487   -0.79553240397523   -2.82384707220886
C         0.65644023642644    1.70204942286592   -2.50180207157525
C         2.46353722400648    2.57807938129221   -1.03793043461009
C         1.22007108176037    2.75784928994398   -1.75631297751287
C         2.51439141585376    2.21683845055507    1.39499980238068
C         2.31028683329568    3.06231804360838    0.29227263370947
C         1.30713178931607    2.33526503217259    2.19891094223844
C         1.54998910559289   -0.02851614529617    2.76888944539882
C         0.83322846616769    1.22865960801249    2.84163294866657
C         0.70706871845658   -2.28210040789541    2.18197208091996
C         0.59289856475662   -1.06003615683820    2.88991431179485
C        -0.45700794256535   -3.49655552494530    0.36846930611259
C        -0.50706716026723   -2.90912635471437    1.66091182756895
C        -0.92138297962024   -2.89157822314003   -1.81177079382094
C        -1.52516912163389   -3.32222269374120   -0.57294232603165
C        -0.65030035854885   -0.76900348647444   -2.96394547440394
C        -1.48686577514878   -1.84582584501738   -2.51684114574826
C        -0.79409511796118    1.67855630320332   -2.63204546786686
C        -1.41472257381739    0.43604072998005   -2.90783506596803
C        -1.58791961122578    2.63354945605964   -1.94005470323075
C         0.38512268381594    3.56496201018840   -0.89539872685558
C         1.00391218811121    3.65501667863933    0.37934150738478
C         0.34699908134642    3.19422152189705    1.54052328786353
C        -0.98291953976405    3.45150020105560   -0.91822819634955
C        -1.04269900944914    2.89833328561132    1.50891473906462
C        -1.71592396214944    3.26400551821033    0.31154474156828
C        -0.58345089714909    0.97858111933801    2.92867554925658
C        -0.70298016920281   -0.43991355658885    3.07954807585905
C        -1.54763559756364    1.74819819804906    2.24901147807305
C        -1.76306781647014   -2.37989675851859    2.05071982602037
C        -1.84781595923080   -1.08626899627711    2.71318403794949
C        -2.74202669275771   -2.78659688962218   -0.17720375515083
C        -2.87003697992071   -2.43226715197952    1.18816787793002
C        -2.75932910382404   -1.29934381271394   -2.11372217313133
C        -2.73584986096410    0.10700962901003   -2.42637861426778
C        -3.39476557115639   -1.76028251020827   -0.97337635169562
C        -2.86509917528699    2.28323337001878   -1.45079130276497
C        -2.90704243937071    2.60098525551552   -0.05057874166214
C        -3.42928180320450    1.00423685773286   -1.62397841508264
C        -2.77339872351336    1.06787882583495    1.84127367080178
C        -2.92812819655178   -0.31278500139746    2.15033804384996
C        -3.59445402901957   -1.18327824839037    1.26187428701409
C        -3.95929352353757   -0.78871918625066   -0.04693544196072
C        -3.44166579724570    1.50290134463216    0.66204301863298
C        -3.92795764475901    0.56571279155771   -0.32983111251829
