80
C80 Isomer 4313 Symmetry C1
C         5.36851335638038   -0.87668189768235    0.85875312650502
C         5.36314772359778    0.49905878468025    0.42860602280088
C         5.19975212184484    0.51604559206461   -0.96292989574720
C         4.99106993216353   -1.69112169455907   -0.27819112533950
C         4.91777790157390   -0.86410947835212   -1.40381343549777
C         3.80444030566129   -2.42482772766986    0.04643742121198
C         4.31169230597911   -0.99578522963202    1.78207835520814
C         3.41142684393817   -2.02764865650297    1.37765456732489
C         4.38698120457240    1.22513808982740    1.20996786719210
C         3.71246608899078    0.28315419444976    2.05722612034262
C         3.61587666952225    2.23249739738782    0.62004809046642
C         4.25388605406332    1.36275119577035   -1.56444430180819
C         3.60862908984433    2.37375728099690   -0.80913311778401
C         3.76211460781871   -0.81468842457035   -2.22423830339068
C         3.42336999071763    0.56617530933195   -2.43171977710849
C         2.77178141167962   -2.56357116586644   -0.89775285030771
C         2.69431426299090   -1.72451327533360   -2.06237074905994
C         1.53733709832699   -3.01132951965578   -0.36867372783115
C         2.06748499954874   -1.95294085625887    1.73913247195229
C         1.19644399953285   -2.76897145106027    0.97416021959276
C         2.33006972604952    0.38819844355262    2.34552748984386
C         1.49091406503550   -0.77859147049410    2.34039955398559
C         2.41534320267947    2.60014784267434    1.32509648390732
C         1.71747266276317    1.66190450830899    2.15037760566487
C         1.69212464656576    3.64452921586304    0.75252463309053
C         2.49775985131918    3.00136299448697   -1.43861700711722
C         1.76773940645720    3.90169160780824   -0.64939715884683
C         2.13149986008836    0.96772685110989   -2.78670668154527
C         1.79598199800404    2.33885431623500   -2.50259386980166
C         1.38471810838204   -1.36190521216565   -2.55699733310020
C         1.10458643323975   -0.01681134988303   -2.96144761158413
C         0.46893623517807   -3.22058790600652   -1.29278243285322
C         0.29037967191936   -2.23355709663759   -2.32096833019865
C        -0.60578313950745   -3.92059370555002   -0.77823298059514
C        -0.15769777882578   -2.88533880177286    1.39284096359895
C        -0.90888144613892   -3.80011121611495    0.64009338883359
C         0.07004668306283   -0.65340804907930    2.40726391402447
C        -0.76612915097302   -1.79962228327087    2.10050350701662
C         0.31351850126630    1.81856880398118    2.38900296255852
C        -0.51489901502668    0.65612384311466    2.55188555446728
C         0.39795913639575    3.99403610637736    1.22110608647497
C        -0.28072614597229    3.10058093897580    2.08455033149414
C         0.49934047770473    4.42221811974788   -1.04257105458962
C        -0.28375395206137    4.65632972007487    0.14719217967881
C         0.49641964601966    2.74904402063669   -2.78844910153960
C        -0.12724517235301    3.86701250382083   -2.14624311395296
C        -0.26481006737288    0.40730988696960   -3.07732757542127
C        -0.52073157761449    1.79037310580869   -3.08362932194952
C        -1.07177067054217   -1.86362173787476   -2.63843077624333
C        -1.37676144019769   -0.46759922314946   -2.85360641342867
C        -1.83997290426655   -3.90170500957345   -1.48273710196139
C        -2.10784694032053   -2.74123188723349   -2.28323741031652
C        -2.31114900769157   -3.81685706161060    0.76615976379318
C        -2.88526192617181   -4.04013336689647   -0.54094942699586
C        -2.19623758688528   -1.68734481325257    2.02872485194593
C        -2.94816460419473   -2.71208515518396    1.38713815392906
C        -1.95629347946818    0.78209624474102    2.48664146496244
C        -2.78199996013626   -0.36629892980217    2.14421854643857
C        -1.68331855507239    3.22276939032541    2.11221234211157
C        -2.51055973903665    2.06284908345656    2.33344175593778
C        -1.66448671857156    4.62005259716586    0.08398718315368
C        -2.34107541301529    4.08069317838420    1.20096165976472
C        -1.55119136083721    3.63198680238335   -2.13533373050686
C        -1.78210117504222    2.32376448299519   -2.70144477483682
C        -2.32802652274544    4.08932447454788   -1.09616432824267
C        -2.65775699804290    0.06608126169932   -2.48244107998790
C        -2.82647120096858    1.48853697475480   -2.28880348686584
C        -3.39584766759096   -2.21180932990474   -1.87210767699362
C        -3.83701328751710   -3.00628179958784   -0.77046557366619
C        -4.03262823963290   -2.34292724317150    0.47686628475198
C        -3.62721452521765   -0.82273903257088   -1.88333659093964
C        -3.98122505656797   -0.12823034462948    1.45546928128335
C        -4.40977556830322   -1.03620447262024    0.42424926329221
C        -4.40070180883831   -0.30446927828388   -0.80935332646169
C        -3.70166583792138    2.26135901343792    1.54875000345877
C        -3.52466107890131    3.40102131180023    0.73949079579182
C        -3.44540345342888    3.27549780341849   -0.66576551809765
C        -3.73089421138044    2.02182657659935   -1.28300750295525
C        -4.28954524633447    1.16691253291960    0.96012691372459
C        -4.37963665019078    1.07489275077923   -0.47045160610640
