80
C80 Isomer 7058 Symmetry C1
C         5.62213055675598    1.09899218454453    0.05601127974759
C         5.20080174333680    0.82576334659843    1.39680270897826
C         4.73030513468805   -0.51728473139519    1.44002717638466
C         5.42790468043674   -0.06064753057956   -0.73707068700347
C         4.85470624290347   -1.06755174505874    0.09617836252613
C         4.70671730649333    0.34936269680397   -1.90139642235685
C         4.78644304084660    2.13979145117624   -0.46653258358055
C         4.19727474588506    1.70000896368866   -1.68250860570261
C         4.31884514318984    1.87287266372526    1.78215290885571
C         3.96770898749199    2.63871076126338    0.58140716076177
C         3.31930575124650    1.54420740009435    2.66711173656854
C         3.60582067095242   -0.85572744231888    2.21979307375968
C         3.04124472105894    0.17939270021944    3.00329592942722
C         2.70615842534192   -1.91222755961103    1.80348518710974
C         3.84177736529663   -1.92315610749980   -0.39642145830980
C         2.81066108775150   -2.43907580973663    0.47852519585442
C         3.85507441832421   -0.56805567193699   -2.45408696613420
C         3.51025703180516   -1.79324163636508   -1.76627140574561
C         2.68823348978470   -0.11334812177410   -3.13921527559126
C         2.84906825921508    2.00974431916786   -1.96500197005871
C         2.12214951977283    1.14663614417243   -2.87103117838034
C         2.62745632558052    2.96292455269674    0.31953188381856
C         2.07736772362805    2.75360933133211   -1.00361010779936
C         2.06811052451097    2.23462468094724    2.59951100668388
C         1.70926611097931    2.92861169754065    1.44091883428596
C         1.67205067991499    0.13123412791612    3.41133125932314
C         1.09187431191662    1.41220368215899    3.24298035000846
C         1.47992035837331   -2.08700109966033    2.53448595878374
C         0.87669760956641   -1.00342663798638    3.28388918404408
C         0.60408283664168   -3.07466031992316    2.07598664534461
C         1.65836304412857   -3.07993252206455   -0.12093988377397
C         0.63295415094242   -3.49852504450680    0.71612662547648
C         2.25474598659528   -2.22989635060189   -2.28248057822178
C         1.84562316582874   -1.26090148020153   -3.25317988953846
C         1.29903895961115   -2.89612865325660   -1.50683830166086
C         0.52607074319072   -1.09543783224194   -3.52718560022170
C         0.70166702441950    1.30990072115020   -3.04934314143848
C        -0.02803559830665    0.21925514783948   -3.57492570948520
C         0.66870274298657    2.90831826259034   -1.19839636880657
C        -0.02577904923455    2.28200438127109   -2.28692192915631
C         0.32684424569252    3.16827537681512    1.23713451354495
C        -0.12582486358875    3.40311115218288   -0.10016116819020
C        -0.27215622201005    1.59267706518316    3.04142737777955
C        -0.61910591737418    2.70420618226299    2.21002876083231
C        -0.55999704184384   -0.81510890459151    3.35459633942336
C        -1.15883156936027    0.48074238009325    3.20726590681787
C        -0.74601903176037   -3.07634610600987    2.49606471243824
C        -1.35782888635827   -1.93899680207796    3.03473035589738
C        -0.74193250183569   -3.66028484625305    0.27066904404973
C        -1.55992482563763   -3.52669951102094    1.39720146038830
C        -0.10479635302111   -2.84104463675225   -1.90066251206701
C        -0.44074256974032   -1.98763555936383   -2.96424378074085
C        -1.17029703007512   -3.16594103313199   -0.98493023743258
C        -1.41540506627379    0.06133733440790   -3.35774765292282
C        -1.68185169769971   -1.30951741992868   -3.00324395516549
C        -1.48028208098177    2.27031515319219   -2.33321647845775
C        -2.19255074767432    1.12014926694545   -2.87148987576753
C        -1.49561467266719    3.60338911763371   -0.29631220736981
C        -2.19547430907218    3.06375363999397   -1.43363682781972
C        -1.97976513395794    2.88992179164092    1.97106578837696
C        -2.37901496671040    3.54589943534852    0.80227603812035
C        -2.53729379974508    0.62532029567939    2.76378455686135
C        -2.95388077129413    1.86903112859514    2.28083377899073
C        -2.65492848148783   -1.79650028702643    2.42087057823302
C        -2.73637651032873   -2.75663684874670    1.35677434213973
C        -3.27927454917436   -0.54973629560023    2.31966480548873
C        -2.48998951329303   -2.57465762585724   -1.08516864319860
C        -2.74049095178584   -1.64018912340336   -2.15455596808496
C        -3.28933790597285   -2.40251316410741    0.10890474268679
C        -3.46877112873542    0.75262912062392   -2.41180812540355
C        -3.73795845481695   -0.63471828863696   -2.05664839772186
C        -3.54740505779608    2.74257444203334   -1.01859623083064
C        -3.64366172511224    3.00144943310190    0.37395587690549
C        -4.02110043181105    2.00106645837543    1.30034588390984
C        -4.18728860204041    1.59513516040833   -1.50236904189141
C        -4.25906060749461   -0.44083104123394    1.30835176978656
C        -4.23834366566636   -1.35468653988250    0.19732035121392
C        -4.59412733105066   -0.61450119966221   -0.95405302181748
C        -4.65582689924937    0.85638066281228    0.80644325252415
C        -4.87207834504599    0.75523771577897   -0.58506051630364
