68
C68 Isomer 5305 Symmetry C1
C         2.98293689958824   -1.90223825800700    2.16640215513137
C         3.65632768898314   -0.72842128800977    1.95702970296767
C         4.31456139240947   -0.78735315632578    0.64419227736323
C         3.15533826365421   -2.71582282824846    0.95987363567287
C         3.80430591973342   -1.91854084837825   -0.04058096980445
C         1.93958565546614   -3.30312765173602    0.70103356017077
C         1.60090146390168   -1.88854755330953    2.51443476968249
C         1.00697148070386   -2.93471195586728    1.76058295976496
C         0.89525313606846   -0.66285839151248    2.69842819829638
C         2.99356799106071    0.52225365842956    2.08163372295440
C         1.62979913488803    0.57492097913240    2.47366531786931
C         4.25543855884631    0.49490788019371    0.09987094333961
C         3.49573081728390    1.34258454348991    1.01267480233644
C         3.99671488068392    0.60157863624080   -1.27730319688499
C         3.14534054478812   -1.73232901778393   -1.30946622669651
C         3.33192140246249   -0.49632180566799   -1.94360706513189
C         1.42131719314392   -3.37545262690094   -0.63073746182539
C         1.91526005735567   -2.44797834934263   -1.60656814275516
C         0.10093577381733   -3.83341896634641   -0.68633634565323
C        -0.36926149328476   -3.01350317900646    1.58327852875895
C        -0.80313210586203   -3.76525200425343    0.46870450122791
C        -0.53210689292687   -0.69888814727579    2.55682371845556
C        -1.17800817487652   -1.94258673427624    2.14455288963833
C        -1.25810852142656    0.54667843528946    2.50485715896573
C         0.90809829069254    1.77024469764172    2.15089188283789
C        -0.52027023671505    1.78977832929670    2.37957336310946
C         2.74040191002939    2.42189254404926    0.55559395695692
C         1.53190255426294    2.73430623327690    1.27633135503491
C         3.40192060194490    1.79670271129037   -1.71385680165984
C         2.83105241063726    2.72845886626364   -0.84631010041864
C         2.28772058865833    0.08773921329823   -2.77395624424878
C         2.39865568267276    1.47507810828070   -2.72586715839256
C         0.93197731106992   -1.85979775981395   -2.49121347085217
C         1.00538999916868   -0.47714487075474   -2.88432568876431
C        -0.67210178914015   -3.56233413269449   -1.81924259559030
C        -0.34061097241665   -2.43322484545959   -2.59115128833278
C        -2.12577890273318   -3.60802728675974   -0.01457282989820
C        -2.06215090460807   -3.46693263793543   -1.43393486070452
C        -2.52313534695536   -1.95018600218212    1.77596036398776
C        -3.01194738728004   -2.78554569090407    0.69528200912288
C        -2.65519306459292    0.51059233695874    2.14188934110205
C        -3.25854073700763   -0.71344702296626    1.76370547419612
C        -3.24498037984451    1.65558467311077    1.52940018446547
C        -1.22939480025444    2.96187454360931    1.97987295235672
C        -2.56950750545495    2.86899626100208    1.53775840103098
C         0.69760041122167    3.70365398003627    0.66123648024337
C        -0.59560567075066    3.88781192014744    1.09442101204290
C         1.64664129052711    3.22052263591997   -1.52186224878771
C         1.28055405242450    2.30551616678099   -2.58519014366067
C         0.66492519315983    3.78707263485946   -0.79593084549796
C        -0.16791347896047    0.37421386552929   -2.88963002834883
C        -0.03525387112051    1.78579774060853   -2.65673926018101
C        -1.53822839725552   -1.62471498201952   -2.73159223834388
C        -2.60792421802733   -2.34006002752396   -2.06783355315052
C        -1.47262023976429   -0.22862303196508   -2.70761671479606
C        -3.90509096739065   -1.99102587748402   -0.05459071188440
C        -4.15573694641676   -0.77200196474381    0.67672249686335
C        -3.59824351760235   -1.61934723910625   -1.39257503682717
C        -3.83130704404829    1.52444272371209    0.20737645074494
C        -2.57627920907663    0.53373894296964   -2.12062825195393
C        -4.17357985703043    0.29363143650595   -0.25777234633373
C        -3.62515454720919   -0.18565344624076   -1.51081416225563
C        -2.65704570123580    3.44911249751297    0.18718021828935
C        -1.45758365244806    4.05084672295849   -0.08850467691352
C        -0.71236513094950    3.67016977537098   -1.22851887795335
C        -1.10275417978852    2.55632406576100   -2.02421767938600
C        -3.15918593163436    2.44583235051237   -0.67424157328927
C        -2.37194677521985    1.92455947076249   -1.74194598780367
