76
C76 Isomer 11788 Symmetry C1
C         4.82811946208813   -1.42525316682490    0.67662289597365
C         5.10918867845059   -0.10339969654154    0.41676249082837
C         4.45980715869589    0.70823698880259    1.46142923431060
C         4.01039901771697   -1.46071877217578    1.89015173527576
C         3.66320545555578   -0.12972388203085    2.28100648203261
C         2.99916871661064   -2.38187935724310    1.70857263199150
C         4.17289485225454   -2.23950115461348   -0.30207182835370
C         3.12131686688195   -2.94350532895444    0.37149497164802
C         3.88029311501314   -1.68780321180637   -1.55168952346977
C         4.81790814463210    0.48648411738677   -0.84681116655342
C         4.23826388527650   -0.32430157105580   -1.84283689626768
C         3.91912135375376    1.83524847792628    0.85916466871062
C         4.23007501862494    1.77460177108820   -0.57260574912157
C         2.68331964153472    2.33452939003972    1.31870914700397
C         2.30900011035473    0.22075834843121    2.56556615136267
C         1.87784718297228    1.53644551695476    2.21302852345730
C         1.71696780970875   -2.12895967475917    2.27684376237096
C         1.30496784650014   -0.81285757185006    2.68023051270512
C         0.74924774371668   -3.01779311354551    1.83257542350726
C         1.96105248193365   -3.34729927920223   -0.29068557603683
C         0.88268471789143   -3.65427568584762    0.55906489259934
C         2.58423831310940   -1.94316583556783   -2.15037054965889
C         1.63846012933273   -2.80351125273048   -1.59057766864187
C         3.17786617887198    0.21703042308677   -2.65211353249042
C         2.14725719182537   -0.76797434350867   -2.82938368999072
C         3.32747053405426    2.32361410711578   -1.45519181658437
C         2.78771306446589    1.53210619607909   -2.52975218358369
C         2.01954895577947    3.24288905806674    0.42388652452767
C         2.27526053146017    3.15508186864676   -0.96789187780117
C         0.76800004552575    3.69965121947335    0.78556963868089
C         0.49124039683794    1.86615750778464    2.41284176295325
C         0.09350984563730    3.13481722646450    1.93895903520651
C        -0.10935642972988   -0.50431199409486    2.69769820504583
C        -0.52773077542024    0.86354101362329    2.65154791303010
C        -0.63062706829769   -2.80423335505385    2.07491773175054
C        -1.10296141913400   -1.54461352220060    2.46346839205977
C        -0.40855012548486   -3.87597543246958    0.04212903373254
C        -1.33015866657254   -3.59348431095483    1.10395408984935
C         0.25803906494343   -2.64508950120351   -1.96880646318535
C        -0.72906732719352   -3.43642834011235   -1.27065875185845
C         0.78461150274746   -0.44031352882139   -2.93843511902525
C        -0.17343404266957   -1.45998179750868   -2.63170447402046
C         1.40998073395597    1.89326424132425   -2.68550507099279
C         1.15317504571103    3.01366758105672   -1.83585653723304
C         0.39055637673899    0.95564094272207   -2.89929351175744
C        -0.23615051553762    4.00034462090663   -0.18545651430672
C        -0.14419501125013    3.36648306530390   -1.45345676680237
C        -1.25834646462493    3.44092937157331    1.81741674803842
C        -1.46818420825786    3.98689927702909    0.49584535870724
C        -1.93754709897588    1.17741549131949    2.44354160645845
C        -2.27138310376045    2.49324766348204    2.06239686788850
C        -2.49582604195677   -1.24419576426413    2.15176343039158
C        -2.91778832100055    0.13993595129807    2.13602653827731
C        -2.64247854701166   -3.33146669100242    0.83358983475435
C        -3.27651000818371   -2.19637324910229    1.46100469154004
C        -2.08398228992501   -3.21291846877910   -1.54265186865817
C        -3.05674600457953   -3.40083054576979   -0.52264977102979
C        -1.57712769475973   -1.10353671206983   -2.69218218898956
C        -2.51127880842500   -2.07113285310277   -2.31967612274584
C        -0.96646855377528    1.34056605477820   -2.60544703751927
C        -1.25206825182031    2.58754741050795   -1.95465792554280
C        -1.97496601215016    0.30564000938508   -2.69498674219543
C        -2.61711922569555    3.42483733780790   -0.05705112583262
C        -3.26239956010830    2.72013866522678    1.03278829682076
C        -2.54339635665331    2.78273078725033   -1.33677327120950
C        -4.08907476298996    0.47218502032520    1.42272805751199
C        -4.17606042260353    1.74939827115267    0.75553166502158
C        -4.33048394248867   -1.79581137897881    0.55554693201340
C        -4.11462650371869   -2.46204702583095   -0.69382112704003
C        -3.83123590709933   -1.69960515187205   -1.85786285223590
C        -4.72355717262979   -0.47536929237363    0.52951921956993
C        -3.28645829665236    0.63729318405262   -2.34443412182825
C        -3.55127827190946    1.84776714469886   -1.60619538495817
C        -4.51115517627387    1.52431066956275   -0.60882872821207
C        -4.21781112344144   -0.36982123344144   -1.88005275690625
C        -4.88518765840331    0.15602705553038   -0.74346880496814
