78
C78 Isomer 11916 Symmetry C1
C         5.93589063389330   -0.01274516773543    0.75748414036710
C         5.76250249484254   -0.66939890858401   -0.46838630109116
C         5.08922302362571   -1.92060637086884   -0.18710531506032
C         5.12531029780402   -0.73026822157055    1.75541863966059
C         4.60464769516107   -1.89638926762623    1.16125855264651
C         4.23122902940502    0.18981033575566    2.36359127068890
C         5.61414401654575    1.34603780535831    0.85768904130483
C         4.61680101829720    1.48902238864651    1.93907006554756
C         5.12358743626537    2.02121625964410   -0.26459932753782
C         5.06288735017846   -0.04919543465507   -1.56057166443362
C         4.73949995016210    1.30911248757175   -1.45573034096963
C         4.17868513269245   -2.16118871712225   -1.23160609283223
C         4.03859582355996   -0.96438037160618   -2.03621098499001
C         3.05708448720816   -2.89077891331130   -0.91993246495093
C         3.27575362864682   -2.31595440011129    1.46417619982100
C         2.67189970067125   -3.08731969692214    0.45673559571770
C         2.84238055033780   -0.14458624299422    2.56041806794967
C         2.38872856903043   -1.46836481639177    2.25446278168000
C         1.87124852431411    0.90992351754182    2.48175568066683
C         3.62023337841607    2.37773980192574    1.50407425935651
C         3.96689055316125    2.77913773621273    0.16996530994786
C         2.26884691936405    2.12756370584157    1.82303188092668
C         3.39827760425524    1.71482058555811   -1.80920455562365
C         2.98701831090613    2.68371000668929   -0.81903397679462
C         2.74508236601380   -0.55742755261781   -2.42836314437981
C         2.41576231232704    0.84382187197128   -2.31987016904321
C         1.86190895214502   -2.68802372977206   -1.66550372532270
C         1.62565398495109   -1.48781893875974   -2.35649186219006
C         1.27943469058492   -3.31472493696769    0.46509230750252
C         0.81049736129354   -3.22418286436916   -0.87903161759602
C         0.97644554224106   -1.73692188397693    2.27482157229528
C         0.45162062160133   -2.80081600948067    1.47101930159194
C         0.47406909903972    0.61514209769223    2.58556947803420
C         0.01824204368859   -0.73366612845408    2.63762593940892
C        -0.49206577255561    1.60701956123370    2.22232593818518
C         1.30483351326213    2.65961979950759    0.92698937449392
C         1.64805688622232    2.78198162416262   -0.45318775860417
C        -0.05372223924946    2.53537649741367    1.24769647212893
C         1.02476613771886    1.23260406964615   -2.23997214951557
C         0.68237822781783    2.31853524919282   -1.38648616297983
C         0.24800505847634   -1.06350729480093   -2.48796875659967
C        -0.05519736888740    0.33820926732934   -2.53739054499733
C        -0.50675132305358   -2.94825035729247   -1.14915774397745
C        -0.82693429786120   -1.92129715054258   -2.08755275076801
C        -0.94081706720152   -2.93994302946738    1.24973833883631
C        -1.39357025074143   -3.22219434300979   -0.06704336517411
C        -1.40201997712559   -1.01331081663388    2.64329811374441
C        -1.85908995342709   -2.27253356874523    2.12852525601410
C        -1.89627487922116    1.38148448728908    2.38651491984943
C        -2.35953689526397    0.06268496310452    2.72312345092387
C        -2.78690074566972    2.28606393041064    1.77021210718942
C        -0.97258129622684    2.96397555868196    0.25410390432940
C        -0.65518254650939    2.62675466095999   -1.09181162945980
C        -2.30900006364391    3.04231660732345    0.64214820659934
C        -1.42245977684224    0.79008167788073   -2.46172227581420
C        -1.68998577550071    2.09359114202409   -1.91742269530306
C        -2.20261557579626   -1.51301022157298   -2.16065150424496
C        -2.51790116530576   -0.14974298082125   -2.47902683734758
C        -2.74694393258461   -3.11742975077896   -0.38068650866431
C        -3.17074346331240   -2.29716148726121   -1.49067591840101
C        -3.23304286919242   -2.49766383259892    1.90391247733942
C        -3.67654484509346   -3.04748412830000    0.65416870307269
C        -3.74865778022747   -0.20371345676647    2.53439222247580
C        -4.17636753718803   -1.49930247904023    2.23272860330709
C        -4.16834610574989    1.97055772811788    1.49285179466146
C        -4.64332715682808    0.72142268771807    1.83478816841087
C        -3.29707095189108    3.09681465588003   -0.34606313495175
C        -3.00692903017469    2.49826660258884   -1.61691147580445
C        -4.50070534481441    2.50386741429505    0.19744033637390
C        -3.84700387945484    0.29679596674431   -2.21513251237116
C        -4.09000413691654    1.63844589862288   -1.89770127485245
C        -5.03783671491682    1.67320989095485   -0.77752180746561
C        -4.48194070473811   -1.80610900164069   -1.14356212066704
C        -4.81651735280964   -2.29503996833356    0.16990946458082
C        -5.18384989174231   -1.40529404407888    1.16733297923106
C        -5.43569315758422   -0.04075028337684    0.88420790374098
C        -4.81193118113710   -0.50444302393520   -1.46443418780336
C        -5.44705991968892    0.35220125140351   -0.47494416202029
