80
C80 Isomer 30550 Symmetry Cs
C         4.22090653553336   -2.39165418677388    0.09999581111768
C         3.32594377366876   -2.85401401202617    1.07101935630892
C         2.36238647373465   -3.65359426608980    0.35467181020034
C         3.61484496220798   -2.62623837120219   -1.21161908525110
C         2.43437678133227   -3.35871236688248   -1.05981437178654
C         3.65380477589721   -1.43919634519916   -1.94328816971786
C         4.74388100176154   -1.09143005482783    0.11389325741246
C         4.49936930653072   -0.51403130203753   -1.19729959827234
C         4.50363256271213   -0.31957452015638    1.25367233773612
C         2.86251052120093   -1.98576201853866    2.11289581023934
C         3.52892349686039   -0.75798063323668    2.21826349700375
C         1.48025778107492   -2.04449584453707    2.55795915698134
C         1.14466386443985   -3.84862815808156    0.90618000512695
C         0.72109461600472   -3.13254184082429    2.09193271531274
C         0.01498776846100   -4.01523107342811    0.05023707077480
C         1.26534234777972   -3.00238022484045   -1.77651850966634
C         0.01029093115934   -3.48805741744721   -1.25352225183953
C         2.48612490095693   -1.00605187017640   -2.62547624160085
C         1.28590545206644   -1.81714426885873   -2.58279450843586
C         2.39170403920192    0.42076958017794   -2.82649513295842
C         4.29154809258637    0.83527228706933   -1.29726645698460
C         3.26087201275815    1.32745477562851   -2.17339584094335
C         4.38658252473461    1.10070284014237    1.12788650678883
C         4.34372474155408    1.68687931494952   -0.13381639059962
C         2.83022631093877    0.39273220429082    2.71904130377248
C         3.45547389222653    1.54306934491693    2.12921246808639
C         0.74182637837730   -0.88271883453192    2.98577087488270
C         1.46011524235435    0.37593301171690    3.04813486591521
C        -0.70219564604749   -0.88461513372742    2.99021922499044
C        -0.68093543856247   -3.13440111506458    2.09621246696574
C        -1.10988371433977   -3.85165362355781    0.91304768922882
C        -1.44012020013727   -2.04836981677636    2.56691992661885
C        -2.33142814537091   -3.65977864665567    0.36897584440402
C        -1.24920137335031   -3.00566212152761   -1.76882615288970
C        -2.41292328076165   -3.36527841810029   -1.04512123493481
C         0.00215257468152   -1.23222594773057   -2.94382041562432
C        -1.27785406428119   -1.82053869610843   -2.57495966124152
C         1.14738402584335    0.94651630703575   -3.17695374299174
C        -0.00077413992801    0.10883522911418   -3.32525114425425
C         0.71244649791158    2.23141237494595   -2.76540073873430
C         2.78148549775926    2.55960480576541   -1.64677343360009
C         3.45002674118597    2.77954652481522   -0.38876645046688
C         1.45445539100027    3.00646244193633   -1.85894851450518
C         2.71269503715847    2.68137608246762    1.92424129023634
C         2.72090600120832    3.34106910646348    0.63771284062031
C         0.73725262429604    1.62434712703927    2.99055972571257
C         1.39818054224731    2.75254019700312    2.46216297412069
C        -1.42342849261859    0.37212372735887    3.05703603756967
C        -0.70425085891805    1.62245434575039    2.99501221880817
C        -2.79562400977088    0.38529955103912    2.73648576629173
C        -2.82520372129455   -1.99328905640491    2.13033126884773
C        -3.29273935714909   -2.86277882450095    1.09131217437527
C        -3.49426387110040   -0.76729386559573    2.23986130761359
C        -3.59616000656944   -2.63565108255877   -1.18951678176032
C        -4.19456689583246   -2.40255319041890    0.12564101076140
C        -2.48043150507918   -1.01260200715228   -2.61034636718273
C        -3.64280090621700   -1.44886356346148   -1.92113644931336
C        -1.15024239688809    0.94351220369459   -3.17004115619103
C        -0.71624034249180    2.22953863172840   -2.76107682733985
C        -2.39102624517137    0.41445684875984   -2.81205688235344
C        -1.45474346342265    3.00261814899833   -1.85007542723169
C         0.72927109474494    3.71434249459526   -0.82332134750924
C         1.40614553908465    3.86171394771898    0.40268031265262
C         0.68984320327379    3.67349286254924    1.62467181409933
C        -0.72513157246175    3.71242045138630   -0.81886566698018
C        -1.37139000075031    2.74891854604228    2.47069036735596
C        -0.67061294778647    3.67170713216728    1.62885403239163
C        -1.39486315276651    3.85800942966199    0.41126298184643
C        -3.42746557398965    1.53394663249523    2.15040364042948
C        -2.68898817126117    2.67425646498435    1.94084468075322
C        -2.70677697678550    3.33385647889287    0.65436636481252
C        -4.47587458256500   -0.33142653872224    1.28115166407911
C        -4.72120016180623   -1.10385243509771    0.14289779696588
C        -4.48618519163022   -0.52588257381403   -1.16993483785127
C        -4.36345069452805    1.08917082762968    1.15469729312490
C        -3.25854978223250    1.31889112567459   -2.15358440315671
C        -2.77930636484410    2.55229265819586   -1.62986954633265
C        -3.44059896339408    2.77033145407344   -0.36769086853334
C        -4.28242512266958    0.82393472296827   -1.27113419683876
C        -4.32970852373671    1.67534202482845   -0.10724075746268
