78
C78 Isomer 19697 Symmetry C1
C         4.70529572722380   -1.41856200099137    0.29295727175962
C         4.19450415770263   -2.18598048393433    1.31713575883931
C         3.79439999860403   -1.27863534274253    2.41123280470641
C         4.80373602093010   -0.05268921664639    0.76868479663919
C         4.10668374639489    0.03911842335123    2.02841643057079
C         4.41623358498576    0.77620450690910   -0.27677209084248
C         4.06980581156908   -1.40679994739006   -1.01025001398912
C         4.00724954274382   -0.04510259469542   -1.40126007441189
C         3.01739815920597   -2.29879737576525   -1.30898373929908
C         3.15084673229470   -3.08476950857693    1.06470960692474
C         2.69142498092227   -3.26771085168696   -0.27972495450617
C         2.49648040684108   -1.63184499310041    2.77641926447085
C         2.16525885946695   -2.85142781972696    2.08100220894517
C         1.48071008119818   -0.66684104868939    2.98972933826895
C         3.14893609025899    1.04795715618604    2.24057250140984
C         1.87176231849740    0.70842630509950    2.83292417156111
C         3.76990893298250    2.00109502834471    0.00982078485908
C         3.22567983493843    2.18292598273079    1.34148950490588
C         3.11924857909631    2.59723657566680   -1.07874230627419
C         3.01789375035789    0.41803075864778   -2.28059131046479
C         2.73326745952486    1.80247840100543   -2.20894372525673
C         1.96151017710216   -1.85760995537012   -2.20969077921701
C         2.00885747046686   -0.51587089008179   -2.72105501379513
C         0.70414035346190   -2.57302282408209   -2.26380570647657
C         1.47133705096199   -3.91377205991909   -0.35233878741734
C         0.57661561779043   -3.72500481032139   -1.45957834875759
C         0.84577291255936   -3.25011280916180    1.93640576150185
C         0.65865417717905   -4.11525472693216    0.82066768978517
C         0.09905120486370   -1.08015462819458    2.89651357316152
C        -0.22843102486526   -2.41851905528265    2.43267542315308
C        -0.92941076393338   -0.08650540111928    2.96376336482510
C         0.83778179705909    1.69482210390521    2.86920289624834
C        -0.54065834792821    1.30867716337795    2.97402527738367
C         2.29790494329783    3.19142348093163    1.52161620775967
C         1.17511219976484    2.99999577629656    2.40261923919012
C         2.13317861181561    3.61664373285065   -0.88510248829864
C         1.85857540682606    4.02091220092544    0.41684640427969
C         1.48115572734736    2.32250219144496   -2.64403189169168
C         1.06561949973877    3.42552507446705   -1.82018168945567
C         0.81026979224644    0.05000066210843   -3.20525022035033
C         0.54164038271556    1.45037161092555   -3.13601865691998
C        -0.54098970372732   -1.92437761648649   -2.64423416126301
C        -0.43954964943849   -0.61365405297932   -3.10115126660032
C        -1.84523043519615   -2.30202767901537   -2.13766349894969
C        -0.69993039177689   -4.15614605101079   -1.04713179412481
C        -0.64074693198014   -4.36101973780300    0.39494274861442
C        -1.87995107087789   -3.47299121250934   -1.33649147838699
C        -1.55882985173757   -2.72636637800249    2.00720645797720
C        -1.73083383455086   -3.72915369939689    0.99663761501268
C        -2.63359339717837   -3.45667121790575   -0.10003387849163
C        -2.31335163282733   -0.47047593641221    2.73674031412702
C        -2.62215188917255   -1.77267057545590    2.18899359048787
C        -3.27199474424689    0.55834891010502    2.54014523882033
C        -1.52883080611815    2.28712481762652    2.58564677861979
C        -2.81284219084754    1.88279515762749    2.27363364957620
C         0.17229021616554    3.89126344623281    1.97648312113148
C         0.54795810597441    4.44094270513390    0.68932237655527
C        -1.15289491510640    3.48780816027690    1.92393243299274
C        -0.29565971218484    3.59380053647147   -1.46094389828138
C        -0.51875719591791    4.20469109884549   -0.20046959212014
C        -1.63375848112249    3.76127828873034    0.58891414501430
C        -0.85075846745643    1.64694479366540   -2.83317515692038
C        -1.46282201826155    0.36527697107771   -2.88648437446832
C        -1.29074092683746    2.64130545052008   -1.95123358917871
C        -2.88662280604118   -1.32257257387903   -1.94302617019233
C        -2.65850521635342    0.07627990419872   -2.23114196653626
C        -3.61566962981535   -2.55514344377926    0.07090165605948
C        -3.77405024373080   -1.90933303888360    1.35494750282711
C        -3.89784140599290   -1.59499902036108   -0.97764887560413
C        -4.41833620208384    0.38019644225065    1.72015383781786
C        -4.61302318883414   -0.81788171362857    1.07838901495936
C        -4.61507752321628   -0.56315492159794   -0.37910331490511
C        -3.44742078892868    2.35834855908029    1.06148890421612
C        -2.66241317491945    2.99465180837114    0.05755292410609
C        -2.51986960596350    2.36723963548951   -1.23630929673248
C        -3.26890102496469    1.16458938112221   -1.49231091802526
C        -4.39549093454402    1.42539908988425    0.69218648398294
C        -4.32021029439832    0.80599492163328   -0.58677404584210
