78
C78 Isomer 3530 Symmetry C1
C         5.12080622039586    1.90380009685673   -0.16860552430973
C         5.27165135200604    0.48025098181428    0.00730996090036
C         4.96646737877518    0.17317139907407    1.33712228568566
C         4.47388257660437    2.42854963482805    1.02105849600470
C         4.41832633220975    1.39904134466822    1.96104427377582
C         3.22036199004686    3.03210220061241    0.66193677314023
C         4.18512793655723    2.05742336267489   -1.20530342865868
C         3.09980287116045    2.87357286573536   -0.76289807217226
C         4.51133915512557   -0.20753313980514   -1.01398292578141
C         3.82720280893109    0.78736194714277   -1.79038051119538
C         3.81592469780685   -1.38762147411628   -0.72085945156372
C         4.10605413353616   -0.89020771096135    1.64673452172769
C         3.67134935200965   -1.79856599515296    0.65025978369810
C         3.20947046826824    1.04574717555507    2.60279713294223
C         3.09268661577196   -0.37612328247329    2.53915808636640
C         2.05005483197026    2.83685607960097    1.44548551550877
C         2.01782488419239    1.80673705414775    2.44526250149531
C         0.81420330976847    3.18471498827765    0.83143951515526
C         1.85412858653840    2.72786246464558   -1.35593365733848
C         0.77747929481833    3.28202806137132   -0.59124889856013
C         2.53132984290155    0.57617104401436   -2.29860931671119
C         1.56989826485099    1.63863546929729   -2.24649853134800
C         2.75987424828490   -1.75737230281951   -1.63443519014031
C         2.04044470277965   -0.77184817730545   -2.37803739144417
C         2.12870804612009   -2.98223596570191   -1.34554078766769
C         2.59532340100333   -2.66672800203178    1.02076637607457
C         2.05086960900800   -3.47299116462790    0.01523685969320
C         1.87101242923425   -1.01780229284719    2.71937747611195
C         1.76031630747383   -2.33714601801503    2.15185813751167
C         0.76521867487435    1.18968022308629    2.76515460654036
C         0.71572949655455   -0.22588623652570    3.02861324787641
C        -0.42204316466411    2.93698609236903    1.50648341620618
C        -0.45492105902060    1.88148981815634    2.47063210477363
C        -1.64013161024128    3.36742945266660    0.87310763247043
C        -0.44384687354170    3.31082659770512   -1.22928137499473
C        -1.64226858816809    3.58101444552738   -0.52232679104505
C         0.20211953369158    1.38272400763104   -2.57721858503093
C        -0.72561410849347    2.38968004566030   -2.27864174457192
C         0.65800683865721   -1.01115208485566   -2.73552338889203
C        -0.30126461900873    0.05206640039492   -2.78502999227347
C         0.93670422061257   -3.31753099461105   -1.98866712741337
C         0.15034989545598   -2.31603442182113   -2.58906011476401
C         0.78130822964832   -4.12530087271783    0.16606164324237
C         0.09973977849082   -4.07093509949369   -1.08219745538677
C         0.52859455948898   -2.96618770302181    2.28634532640497
C         0.02440375008808   -3.89429779343258    1.30629482499612
C        -0.54289009522745   -0.88708954552121    3.14321754771846
C        -0.57420192862379   -2.26872770250349    2.86300840342882
C        -1.72547588473804    1.27549764578604    2.80978703315626
C        -1.77343024728113   -0.13492520605833    3.11796097627864
C        -2.88005488529641    2.98539371445419    1.44196414797189
C        -2.91123922820464    1.91479417240274    2.41720964416285
C        -4.04424425595576    2.92905544608725    0.65845611994177
C        -2.71767767855911    3.10181640946926   -1.33900480423753
C        -2.13303863365877    2.18526389216905   -2.28866055308984
C        -3.94760489318183    2.83780679806559   -0.76431462253551
C        -1.70896988356338   -0.20404083239944   -2.60277294756841
C        -2.63568034871434    0.87840717763654   -2.42881699553702
C        -1.20828814118525   -2.53852138892709   -2.17905181463530
C        -1.21167970415373   -3.60353955584354   -1.18693570673591
C        -2.12896094962774   -1.51101862408118   -2.14581901244498
C        -1.38941786652327   -3.70383839190658    1.20880446647118
C        -1.75319448901405   -2.85497252419193    2.30798505149450
C        -2.02611921976221   -3.47196480158953   -0.03383498619289
C        -2.97231205460355   -0.82601352876070    2.85339235774934
C        -2.91033903540423   -2.13823484194002    2.27339673622893
C        -4.14630728973387    1.19805801262531    2.22142437764854
C        -4.83883497557273    1.80269872224256    1.12715156344252
C        -4.12060707381802   -0.18555869510638    2.29916015625706
C        -4.61481185536088    1.63750451616765   -1.16296909986037
C        -3.92351172934206    0.63198019372140   -1.84521385447993
C        -5.21134724513778    1.04036127108646    0.02856195389807
C        -3.27062506425490   -1.67152011994930   -1.25036603955826
C        -3.14534013064464   -2.56506640511639   -0.11210574731251
C        -3.73086046762151   -2.13558406014632    1.09245784520257
C        -4.56962547737365   -0.98798186418076    1.17614374758945
C        -4.19378696417584   -0.63950956064040   -1.18906655603445
C        -4.96052890625965   -0.36095284422800   -0.00040962545693
