76
C76 Isomer 689 Symmetry C1
C         5.61877599634429   -1.14820657123232   -0.93288553173326
C         5.86065725853585   -0.57887629570012    0.30217525924775
C         5.58565969361855    0.85580413255427    0.21370167222633
C         5.16281164901508   -0.11632484803876   -1.85383632195545
C         5.23795783838647    1.14640095722003   -1.15555881530274
C         3.91470279127477   -0.52851388034487   -2.34495521885915
C         4.56876300206695   -2.14732969309028   -0.78571478062402
C         3.56555635650445   -1.80494092611968   -1.70772972259776
C         4.96551550246615   -1.17821467680159    1.27581135202343
C         4.19913436333188   -2.21179755654729    0.59501553545158
C         4.64765490519251    1.13932464303650    1.21485255276251
C         4.25045669475003   -0.12529860345219    1.85861087870214
C         3.64816365862416    2.12677271795119    1.03360506584810
C         4.20837852279706    2.04518026837254   -1.36481931778697
C         3.59741030499024    2.71506259892227   -0.24964780766082
C         2.85853245449638    0.39991369874857   -2.60584012792916
C         3.11246954683717    1.74199150270005   -2.26492714317795
C         1.48860678311121   -0.05121342580877   -2.62944807414362
C         2.22355367408824   -2.08177313735303   -1.41899557337687
C         1.19369133604498   -1.35309980973344   -2.11852423650518
C         2.85805452076407   -2.36876210316903    0.92372881898600
C         1.89635590188389   -2.59043326707921   -0.13008611744847
C         2.91437611152530   -0.30559694179765    2.30237233683932
C         2.33208009425606   -1.59025487236532    2.02889156960979
C         2.42960709967729    2.05465482619784    1.82883496506192
C         2.04183889116319    0.81938316159054    2.47930620647417
C         1.39258715589749    2.92704044548643    1.49845517355598
C         2.34904040020579    3.24021022561691   -0.71674295688221
C         2.00934078894370    2.58911371392704   -1.93992776041926
C         1.34808541413053    3.51549792242059    0.17994331772832
C         0.40922744241719    0.90450075421965   -2.65139321543150
C         0.67798271932631    2.23824705526695   -2.21153197320565
C        -0.94089100138247    0.46067543998241   -2.68161858414369
C        -0.14454625961523   -1.73270627255657   -1.90406883989504
C        -1.17658754961514   -0.93515883112066   -2.50188884509929
C         0.52152160421712   -2.74856444394825    0.19840384206338
C        -0.48901365511054   -2.56596660891368   -0.79349696981610
C         0.99519648688392   -1.76135063488533    2.33096056072190
C         0.12407388124147   -2.58212320793387    1.53067568947012
C         0.65470425741326    0.59861733519270    2.81458633664645
C         0.19756994549778   -0.72943927363249    2.87827636569859
C         0.03403813655897    2.72165590725995    1.89426756689008
C        -0.38353343632862    1.56727507211027    2.56672612259890
C         0.00216516511166    3.51655637007848   -0.26636187816332
C        -0.36807451017181    2.88540229151186   -1.46883489825359
C        -0.81289212951851    3.26623841887876    0.88206045937008
C        -2.05566047482147    1.33982791337939   -2.40989982072328
C        -1.72677624158478    2.47030485979329   -1.60850705199977
C        -3.42179701467307    0.85945729506809   -2.46070274651818
C        -2.48258629509583   -1.39202368114884   -2.40559089908244
C        -3.62121999905158   -0.54466802915644   -2.61538872098023
C        -1.85631741518873   -2.68207407848102   -0.41773793469626
C        -2.80798191940884   -2.38380310012339   -1.41631452709362
C        -1.21212414657129   -2.24334831580604    1.84669676304507
C        -1.17741751002418   -1.08104045675993    2.67226072584760
C        -2.26637263879568   -2.44161893624757    0.93938131719773
C        -1.78792534785117    1.21825678671191    2.47923511530117
C        -2.21106872208954   -0.14870685825888    2.57480211111678
C        -2.13665903198887    2.93419519853637    0.75963909196324
C        -2.66691503264248    2.83610285214622   -0.58393949712219
C        -2.68674637447539    2.07645206792922    1.77368345173579
C        -4.44084673028691    1.57529270482467   -1.75532821742211
C        -3.99120820137831    2.46886337581959   -0.71745029460872
C        -5.61287871514380    0.92452250491528   -1.23411291165986
C        -4.71416169240207   -1.18363862076812   -1.96329128773167
C        -4.14604271493114   -2.20967906766563   -1.07994670389377
C        -5.67305661255737   -0.48272701970331   -1.25358640129458
C        -3.52366571265356   -1.81264568538836    1.23959055561382
C        -3.48621790468641   -0.62077143856443    2.05913311603664
C        -4.55431248290473   -1.92534302502024    0.24960839633075
C        -5.61249557250583   -0.97445644597990    0.15634151851945
C        -4.02215037051040    1.69109604900979    1.60755369000454
C        -4.76175737536617    2.20254056132976    0.47478435092084
C        -5.79380765955235    1.32451464591800    0.14808336544093
C        -4.47732883224667    0.36313791359459    1.85754156110546
C        -5.60526106646048    0.14240645247445    0.97303494708109
