60
C60 Isomer 1352 Symmetry C2
C         0.72102289096707   -4.02998418860257    0.25775069238033
C         0.58444672555379   -3.53772253100867    1.53126289019463
C        -0.81725752206371   -3.17206339323029    1.75866917601261
C        -0.64031221526234   -4.03618870051863   -0.33540255249008
C        -1.55731296632921   -3.40857329913323    0.57922986305644
C        -0.51058143245187   -3.52925268935144   -1.60379629748759
C         1.62935824332883   -3.38077303512089   -0.65031471808633
C         0.88603544029875   -3.14236847948673   -1.82756394925753
C         2.51924609005789   -2.36960922768525   -0.20453504443685
C         1.41064266138466   -2.48074874447782    2.00053431837838
C         2.48440594407487   -2.03188976280821    1.20550819894543
C        -0.81521929035105   -1.92050883685437    2.37905446612193
C         0.54244129087347   -1.50613121818717    2.60388008581488
C        -1.83131140122086   -0.97498838335531    2.10382047514987
C        -2.46091855268196   -2.40500507851759    0.14365525933610
C        -2.78326266036456   -1.33913948992071    1.07827133418590
C        -1.35109065718741   -2.47870314575959   -2.06236967547135
C        -2.43088876740867   -2.05255500054912   -1.26289348635256
C         0.86701089637477   -1.88475316578651   -2.43500383962467
C        -0.49637975797854   -1.48652973984183   -2.65576205756626
C         2.82698066844758   -1.29008286680737   -1.12844067550511
C         1.87007879367615   -0.92826534077848   -2.15005609146987
C         3.67768001858544   -0.25470822137795   -0.65574500161549
C         2.99271967830006   -0.77128275395017    1.60966273533473
C         3.83538544323377   -0.06534704007468    0.76186809453482
C         0.86899238057148   -0.13558850472653    2.66523840396343
C         2.19769946045148    0.18684955900245    2.34966346849762
C        -1.54820026880415    0.40609059776188    2.42168590043143
C        -0.17535465265275    0.86322349352935    2.56925460999816
C        -2.54961350824916    1.34415723480070    2.05340199899302
C        -3.64800110042548   -0.31070104078305    0.61605181326350
C        -3.62925404976107    0.95616708612665    1.21737767027181
C        -2.95632294614229   -0.79499099583064   -1.65430646768368
C        -3.80841451287089   -0.10901675854644   -0.79948269529442
C        -0.84128972442032   -0.11986690148230   -2.70315261011501
C        -2.17432048979338    0.18127708057152   -2.38431236388313
C         1.56816194088590    0.45200923721775   -2.45389868163369
C         0.18913732804367    0.89210334387518   -2.59694047751487
C         3.64152125393409    1.01776670646606   -1.24401173257692
C         2.55673986652593    1.39984669916594   -2.07634810121513
C         3.70452037605544    1.34896250608654    1.05998618024828
C         2.59405217557183    1.50696670512619    1.94478245705712
C         3.73050924296157    2.02251389496091   -0.16051322466220
C         0.22028886981120    2.17351424210623    2.13011437107509
C         1.58452078818433    2.47341600477766    1.70214446393349
C        -2.14551141749719    2.65103791223425    1.66711580159979
C        -0.80694715082105    3.00444576263266    1.59593005028683
C        -3.73212674339998    1.97074702150308    0.14408762785937
C        -3.69706190693014    1.30991320232668   -1.08326082908597
C        -2.58855867918350    1.49178087465721   -1.96633292091374
C        -2.79988392606878    2.97173905203470    0.39078035185753
C        -0.22422399137033    2.19239720962031   -2.14473582365198
C        -0.62676723811108    3.58355251836594    0.27499801968746
C        -1.59226214135310    2.46944558865362   -1.71386106047902
C        -1.78427499836118    3.27602426448794   -0.54056188529022
C         2.13504030008933    2.69712954903330   -1.67684248987696
C         2.78495557399141    3.01339821134229   -0.39707563771972
C         1.76551039709950    3.29432709303591    0.53712230423786
C         0.79186385710602    3.03168958917642   -1.60209488797237
C         0.60395607307567    3.59484629387420   -0.27528780377511
