76
C76 Isomer 2822 Symmetry C1
C         5.79231028829464    0.23984497052919    0.26934047422872
C         5.23188836296241   -0.49695616487954    1.38466195085905
C         4.56943067417373    0.43416697836996    2.17791837763433
C         5.20755102674676    1.57570598020875    0.26565547986704
C         4.56334201667098    1.74248342122759    1.49011919058883
C         4.46009125835374    1.76820427727512   -0.94974998589057
C         5.36172242417650   -0.39755512139228   -0.89451562300491
C         4.70147977448358    0.57197888740038   -1.74050824604368
C         4.46802849736979   -1.61022977562164    0.87334021350243
C         4.64061625534438   -1.60081096864061   -0.55790056328064
C         3.19346223980258   -1.93505062053031    1.40377399285039
C         3.25752631729023    0.18525717738587    2.63612307987202
C         2.60023294879421   -1.03503705278045    2.37302316047288
C         3.24593614152567    2.22705427304899    1.53231462679984
C         2.49266687118564    1.37659554236300    2.42062549430077
C         3.15322306046333    2.30863512768199   -0.93114076877059
C         2.56557085446728    2.62489895565176    0.35380373984159
C         2.22240792701532    1.93091320203560   -1.99601672635823
C         3.74179778196643    0.10006808918168   -2.58855937436078
C         2.55676603552684    0.87767647390337   -2.85120202251432
C         3.62832245243453   -2.06402479456023   -1.40773671171344
C         3.34856858379708   -1.28819636309691   -2.57081168868932
C         2.29173740868798   -2.71458601091252    0.59336672972963
C         2.54486283561902   -2.82034087692267   -0.81940643634673
C         0.98298664858707   -3.00980432294063    1.10761346639715
C         1.19060426975938   -1.05118967351038    2.58399576463015
C         0.49079724408902   -2.23592502563494    2.21209408726395
C         1.10878478728074    1.35544278386575    2.41349315632750
C         0.43118463623952    0.15087666478580    2.73917343957002
C         1.15778970709414    2.77297761697309    0.46599825464074
C         0.42615736425688    2.30543507726283    1.59376625472708
C         0.83356802530514    2.25279316038639   -1.92155974247289
C         0.39906996308395    2.93695608841355   -0.74349646330913
C        -0.17848763935903    1.53300437382173   -2.63937651498313
C         1.54320678160746   -0.00212759192115   -3.32706343575785
C         2.06586866977099   -1.33446852983136   -3.16180702726620
C         0.17581083023501    0.26807771050902   -3.20172155381232
C         1.44990899613519   -3.10977138120127   -1.64946747943511
C         1.18100936876880   -2.33004787481870   -2.81680131536799
C        -0.01299995737029   -3.60807437806864    0.25782026941052
C         0.19425578779294   -3.51499959868487   -1.12862476292383
C        -1.37482545295365   -3.65510266156430    0.64368138077633
C        -0.86766936852012   -2.27599746352365    2.56271734103259
C        -1.74033014803056   -3.16040150004937    1.91719373921986
C        -1.01303766967501    0.15853893828999    2.72358910424187
C        -1.62881180621771   -1.07761509725167    2.84873399112055
C        -0.99881915065506    2.33831463385821    1.63595440228741
C        -1.77603400560729    1.29257597497741    2.23385625272084
C        -0.92653201772101    3.25587585099916   -0.62086738151422
C        -1.60003709970933    3.16161394551846    0.65770416125521
C        -1.57650943085712    1.82061747711426   -2.46328803956859
C        -1.88228326102800    2.92171406001001   -1.63703010230455
C        -2.58914338863645    0.78501803823279   -2.63442881667808
C        -0.76853416211446   -0.82640622095528   -3.09258354515430
C        -0.22626592989265   -2.10833527736219   -2.89831104239155
C        -0.83877207049618   -2.99944804960067   -1.96406574279416
C        -2.13562566245286   -0.58923519527174   -2.70447628291073
C        -2.44957332807176   -3.33578304485310   -0.25238170560576
C        -2.14826136344708   -2.79037916469614   -1.51967938853507
C        -2.85883160980120   -1.64256106624931   -2.04055127996384
C        -3.05035523563236   -2.56666226999922    1.85335701434027
C        -2.98629064662502   -1.26935974086106    2.40361943563865
C        -3.51792448091120   -2.74769294220936    0.53074967747689
C        -3.17902599445233    1.13588609099138    1.88740879982617
C        -3.74720604909530   -0.20834586952957    1.85924044016969
C        -2.96401464089707    3.09733789584992    0.42939561131064
C        -3.15847087269551    3.05419424679815   -1.02954334485044
C        -3.77893037893536    2.11571434115917    1.03580602675187
C        -3.89741276409117    1.02878568142538   -2.12888324520538
C        -4.17017461520840    2.17970035638913   -1.30704788166276
C        -4.69842433995716    1.71511867399381   -0.00443134657124
C        -4.06713427730927   -1.31051191360783   -1.37881699310516
C        -4.29541779838223   -1.75261673753081   -0.00484643703688
C        -4.60872465854942   -0.58525250137981    0.77940932535734
C        -4.59439627162283   -0.03574821735262   -1.50381264111974
C        -5.01625757017744    0.39659802190820   -0.16092624776669
