80
C80 Isomer 18486 Symmetry C1
C         5.28974949897564   -1.06922600351644   -0.03466829474587
C         4.91479973521411   -1.18167658496561   -1.37010367348952
C         3.96364080034678   -2.27701499881526   -1.48247603134759
C         4.54167280438760   -2.07543275551368    0.72082129042941
C         3.70982080503463   -2.79371641563416   -0.19106007739647
C         3.99513786868635   -1.46341164671485    1.85296144190330
C         5.19597394117320    0.17139306886316    0.65088550634261
C         4.47612498116437   -0.09129134447921    1.88271703856004
C         4.86065830571291    1.31469826262049   -0.08391780836358
C         4.38023002164235   -0.06490633050022   -2.07385579264904
C         4.44341190957817    1.18350314577634   -1.45760730446133
C         2.88569352059822   -1.84018127362681   -2.27384538910681
C         3.13538896355220   -0.49068148916213   -2.69043739783296
C         1.57542671582089   -2.27779735578687   -2.00035723947305
C         2.39375385851523   -3.11413334275715    0.17661690380518
C         1.37122684645851   -3.07676455203797   -0.83713942291477
C         2.68259921714212   -1.80047711338403    2.28514456231191
C         1.98965566681353   -2.79536685141910    1.52077958097971
C         1.88086445905292   -0.81707611899775    2.96744562909119
C         3.64728817096788    0.86174359038278    2.41806521580346
C         2.39317483188301    0.49152769777224    3.01964050185127
C         4.01220305341317    2.32075653512894    0.50572183339597
C         3.45546085334903    2.13001226765826    1.76015200542126
C         3.36767847927975    2.10286878332859   -1.68982454823390
C         3.15965920246026    2.87586155136118   -0.50665995794955
C         2.05618686210178    0.37312099766820   -2.88695224574915
C         2.26543071701715    1.74744775912591   -2.49911429155077
C         0.47714094970449   -1.50422269324319   -2.52284046998891
C         0.71076322439832   -0.16796299214596   -2.93526441216910
C        -0.86265622388297   -1.97769553320474   -2.30653787445711
C         0.02931402847487   -3.38169344669365   -0.48154688217945
C        -1.05014753912555   -3.04351357063681   -1.37492236684227
C         0.64788889142302   -3.01004030009992    1.82976148951130
C        -0.25653775073007   -3.56325621876246    0.87515253366053
C         0.44951146089986   -0.95507514148897    3.10358615406490
C        -0.10520939787838   -2.18010562523697    2.69887122264972
C        -0.45392908422925    0.15135395908858    3.15655383572700
C         1.50391638096710    1.58093051678369    2.88464824436294
C         2.12250765665347    2.57374477362642    2.04942967119518
C         0.11184058808861    1.45077350252577    2.95573500662970
C         1.89881022605877    3.42351944510070   -0.19710214399825
C         1.34595262581831    3.28965826642077    1.13365618217836
C         1.12930175064194    2.54225601800192   -2.34505105348302
C         0.97834376878489    3.43027246555523   -1.25716733985788
C        -0.42604588283769    0.73453632988408   -2.95332577481564
C        -0.17459191491225    2.08526842503907   -2.71525377257175
C        -1.98583582200583   -1.15672294802483   -2.69226112056102
C        -1.78285248914962    0.26420213318406   -2.81563938676213
C        -3.29037721410439   -1.62942655326535   -2.40010015585206
C        -2.36127069538775   -3.31892237550757   -0.90936696756211
C        -3.45789910705365   -2.72802927365274   -1.51731175770308
C        -1.57544334251373   -3.33162742725424    1.37518381399747
C        -1.50024155703663   -2.35948841063042    2.42139949207091
C        -2.63399195049392   -3.33456334507286    0.52004006003431
C        -1.88110121318362   -0.04799116158721    2.93185804389381
C        -2.43251637669854   -1.32276985187561    2.49842018557583
C        -2.66134291613060    1.07856129874556    2.71623726172452
C        -0.65133087556951    2.51690408872126    2.38068943552889
C        -0.07709448835956    3.34018317563440    1.35524844039754
C        -2.04700287938846    2.36543433918641    2.45307106616571
C        -0.41697878858143    3.62093037153981   -1.03331764246413
C        -1.12961384273900    2.89036540043034   -2.01621009676095
C        -0.93874025221685    3.73043064518958    0.27069018272136
C        -2.81316145259905    1.18021379174190   -2.39283518820961
C        -2.44938718266496    2.46169781305543   -1.83907167036078
C        -4.32012328125136   -0.70255180860704   -2.07320655567804
C        -4.06075992898952    0.65227614891696   -1.96208970317967
C        -4.41175746532327   -2.33702081450339   -0.46681883931602
C        -3.76859553306587   -2.50133045602917    0.79478099092114
C        -3.65214002906800   -1.41014622931842    1.69924073427451
C        -4.95953637040014   -1.13266606163535   -0.82375013139269
C        -3.90178457738172    1.00817607258762    1.96977161198428
C        -4.67437564358697    1.11495675730190   -0.71802637237097
C        -4.36827638385503   -0.19228915214536    1.37492645204919
C        -4.97654477352561   -0.04365650534851    0.08507611976504
C        -2.88292770594312    3.05305649751949    1.57354488323973
C        -2.33726531111031    3.54256864781014    0.35975410886634
C        -3.11533006313422    2.99336299415851   -0.70887334074936
C        -4.03137673019823    2.23296804418239    1.28895255711178
C        -4.21110960594882    2.25638649166396   -0.11732079564698
