78
C78 Isomer 23033 Symmetry C1
C        -4.49518731443770   -0.73591548022165    1.21602358147226
C        -4.63955110761123    0.07577435860991    0.08089276042452
C        -4.38362542016170    1.43029369924924    0.50340400249167
C        -3.79917341864651    0.06940521100043    2.21648604110696
C        -3.73711406381497    1.40397412895889    1.79730117904708
C        -2.65732320354286   -0.61963899645117    2.62606785005239
C        -3.86264234229652   -1.98891213297918    1.15155711319572
C        -2.73170869571266   -1.94562175153445    2.04973878257044
C        -3.70986412651009   -2.57470947520575   -0.09658288572677
C        -4.18004178083654   -0.38119732625222   -1.19509997616297
C        -3.91793055680068   -1.76117811087657   -1.27687620252305
C        -3.36762782816212    0.52279117535289   -2.00883200509332
C        -3.96377106869420    2.34055854897071   -0.43585182317993
C        -3.37643577140131    1.87438568145560   -1.68532110018021
C        -3.18684301262695    3.41692619196212    0.03545812706334
C        -2.56322278069693    2.16588744701972    2.05988828756912
C        -2.43608864805906    3.30410877916680    1.23256705688577
C        -1.41788814810206    0.07391555484163    2.78575201493706
C        -1.36878888505207    1.48943937338509    2.55199824080146
C        -0.23320659970729   -0.71688308458535    2.76730489774564
C        -1.56744101039279   -2.64096247517942    1.77482656877509
C        -0.35804917526448   -2.11206584890174    2.37782728103152
C        -2.56584289448107   -3.40941793469500   -0.32568874676800
C        -1.50359380361645   -3.47786571478229    0.59763876242287
C        -2.99724589442189   -2.22103437671511   -2.25062730173855
C        -2.23474080581644   -3.29691186317145   -1.70026481283856
C        -2.19097454786025    0.04532113823990   -2.72570904875601
C        -2.08585669096390   -1.34148570843202   -2.88229938004549
C        -0.97563563473294    0.83238106370656   -2.83896367174070
C        -2.24571158661926    2.71646645849428   -1.96906597712830
C        -2.24855277454529    3.74431408128363   -1.00072868949495
C        -1.00397043557268    2.21120625420176   -2.46165067472091
C        -1.12976532392371    3.83405634338150    0.97837838550770
C        -1.03875748361939    4.13800087953580   -0.41471008736535
C        -0.07208066905908    2.09170542580003    2.39245269587794
C        -0.00256943705631    3.34201452857991    1.66094748342825
C         1.05475370856657   -0.09151588412945    2.76211085966094
C         1.13522969135490    1.33115031601671    2.55655285459332
C         2.23759961025557   -0.91823868134933    2.61277505109360
C         0.77860217405315   -2.85590991455611    2.15286731120508
C         2.08854637626857   -2.30640612572764    2.36712962230187
C        -0.20290480894993   -3.82423074462435    0.09442923344654
C         0.83829641009430   -3.76218510134427    1.02856715871302
C        -0.89251667994973   -3.18122941183737   -2.12609176610825
C        -0.79543955307645   -1.98168513289000   -2.89296093241070
C         0.14961280863777   -3.58702771229282   -1.28027937940503
C         0.30790704595782    0.18390597373076   -2.98199139258149
C         0.38933409080466   -1.25290359930430   -2.92228747052475
C         1.51641863385374    0.93490249671629   -2.81631007613716
C         0.21255925187508    2.92710282964251   -2.14885607320470
C         0.15495450321894    3.93229972034523   -1.11794853241784
C         1.48388623927708    2.31582856856795   -2.41446988935293
C         1.20538554180806    3.76491405254599    1.09743700188178
C         1.26756595655636    4.14411049815476   -0.28641499395298
C         2.41723609646755    1.90372683789850    2.14840489933300
C         2.44594693945802    3.13558091129064    1.44457116218077
C         3.44085110964296   -0.34807167921272    2.14173725447219
C         3.52040096931975    1.05648280557248    1.89195829526534
C         4.27930284516281   -1.02426605389475    1.19410462847101
C         2.97266207928451   -2.99073464042339    1.50957481672698
C         2.16833675142767   -3.77494359047610    0.59158099169406
C         3.95635834550517   -2.30922600601826    0.77543856768505
C         1.46176162550503   -3.11845772641452   -1.63216406764658
C         1.56711757280116   -1.95198118747543   -2.46900573540399
C         2.51200254329851   -3.39549809971512   -0.72288533721661
C         3.68400499288646   -2.55892130507786   -0.63074026244251
C         2.72458408590456    0.20449767055955   -2.63457011911770
C         2.74655324315440   -1.19609099557848   -2.42094838417912
C         3.82591575324423   -1.51650914675270   -1.51857016463506
C         4.39660386499310    1.25039419371380    0.77020236505144
C         4.69632733139793   -0.04440484391057    0.22828426499751
C         3.84940801899962    0.75829408207478   -1.92332154930588
C         4.44621838522096   -0.28378649085305   -1.11808110964258
C         2.65671643308796    2.86892068170367   -1.80782379347864
C         2.53073130583035    3.78800818602419   -0.75486640705642
C         3.33578510274660    3.33400448277076    0.36529012460278
C         3.80548230680945    2.04947416437455   -1.47502693627387
C         4.17972423806412    2.31749955894246   -0.09364081982521
