70
C70 Isomer 4073 Symmetry C1
C         4.92869378753696    0.69697586253147   -0.13954513567678
C         4.42608332620176    0.91309858733936   -1.40179985775970
C         3.61266846027344    2.12804837552058   -1.37806317223551
C         4.40996695548651    1.78609329170278    0.71625432606422
C         3.49319180867113    2.59262835896727   -0.04057433391806
C         3.97047872754255    1.20034042317531    1.88061454606249
C         4.68511366110047   -0.56165509655997    0.52089127490950
C         4.17087218104309   -0.25386540068705    1.80505435493316
C         4.02813901250202   -1.58125407546508   -0.18864568007488
C         3.68181953603786   -0.08902522370793   -2.11539663067893
C         3.56462333596402   -1.35063547921288   -1.54620955509717
C         2.47740200099673    1.88079241592640   -2.13775204441959
C         2.49192334826548    0.52199632070988   -2.64301294694916
C         1.25807506959630    2.46494938596360   -1.76619739423711
C         2.20060530346343    2.89774762987827    0.46705087706229
C         1.12335473198242    3.05563595988266   -0.47793460334337
C         2.67212204535225    1.45237675615098    2.39297350028326
C         1.81420170124699    2.37330789882257    1.75571029094082
C         3.01911665468309   -0.86060032483935    2.32376015977369
C         2.14138737288361    0.17599759600140    2.79937130417669
C         3.01680538416681   -2.36273627335233    0.46553050012121
C         2.42337411727233   -1.98695118961278    1.69717856517214
C         2.34337644554626   -2.07570568616281   -1.75326661716407
C         2.14136783418346   -2.84545564837744   -0.56117823327086
C         1.28162546598908   -0.16675070063103   -2.81785281731592
C         1.21863624352558   -1.55570262374060   -2.42606221628876
C         0.11088386438186    1.95791708347821   -2.45229372115446
C         0.06468380218718    0.60121328585878   -2.90220944091608
C        -1.07193312358817    2.65175719102098   -2.17118720683852
C        -0.20260169738126    3.33187730510794    0.00781168999407
C        -1.24242811392602    3.35512268909873   -0.93528460453803
C         0.42755469335207    2.30095054038062    2.12649224487393
C        -0.53350196662107    3.05374251436228    1.37797682450813
C         0.77582840703675   -0.01875135997963    2.93578760567812
C        -0.01974481054291    1.17646375747965    2.89161885076993
C         1.01574845245941   -2.24378267021295    1.95332206335591
C         0.18666958188242   -1.30269034502185    2.64880063899382
C         0.89245847119173   -3.28866048505716   -0.25353139243334
C         0.33861407044775   -3.10834490122168    1.06309117558636
C        -0.07794344458516   -2.15706521624011   -2.20091910228177
C        -0.16676056641360   -3.13496099645656   -1.19709478430126
C        -1.21415269405919   -0.06979216317453   -2.96803523862977
C        -1.29823808905492   -1.46748109532995   -2.58050842049958
C        -2.29696215831229    2.08977043757202   -2.55936727125499
C        -2.38554189365628    0.71310366587835   -2.88054026704446
C        -2.63789375814822    3.18677482124255   -0.57104066344717
C        -3.29248739711384    2.42301252453138   -1.59451467653729
C        -1.90427084333322    2.91976773628548    1.71756409331002
C        -2.96883678494350    2.92968972246341    0.73389732316661
C        -1.38819375696517    1.00018171277179    3.11527023879614
C        -2.28222549957217    1.98048674844974    2.68099821568843
C        -1.25927196115619   -1.41475327029282    2.60802218512660
C        -2.01817045497537   -0.29375203443999    2.98739445191795
C        -1.06838470729515   -3.16816329567105    0.94310504092311
C        -1.37316789560474   -3.33263043842164   -0.46094376224665
C        -1.91707543135473   -2.39913040648340    1.76929876219383
C        -2.52798255723190   -1.94678988607456   -2.08904215927442
C        -2.55510110208515   -2.87884542375005   -0.98356994063014
C        -3.59065109286833    0.24945079824724   -2.23557524323223
C        -4.07002208528884    1.27757338427116   -1.32739847296489
C        -3.66798780737283   -1.07626709539294   -1.87641627314011
C        -3.91855565348576    1.85446427334944    1.04030566588772
C        -3.51919991312515    1.32557954080686    2.26650978639321
C        -3.35872548374169   -0.06671059287190    2.49190600411607
C        -4.42071929230313    0.96585559881088    0.02212609479842
C        -3.23044710076469   -2.15805821985350    1.27943116065508
C        -3.55963046645964   -2.47842166720630   -0.06366143617920
C        -4.28912930808893   -1.39902149687967   -0.63462279764532
C        -3.92688251146147   -0.93574745463515    1.57636636739263
C        -4.51964443157214   -0.40858595702337    0.36476192999402
