74
C74 Isomer 3233 Symmetry C1
C         4.88698213287846   -1.42886667324324    0.23317627431087
C         4.77360503943657   -0.66575208640177   -0.96412692287139
C         4.46972136286694    0.68928417920457   -0.62126807405090
C         4.47203592764606   -0.59900094986446    1.29950408884316
C         4.23095739861950    0.72060543904387    0.80974185408068
C         3.40306905126578   -1.23683037897483    2.00596106639308
C         3.93392223513120   -2.50467078302965    0.15770802216869
C         3.10856189009136   -2.46890524106484    1.31770048501499
C         3.86657238155927   -1.35764529643192   -1.83327777309559
C         3.29081974831119   -2.49127014299561   -1.10159046097893
C         3.03748975431792   -0.61568659849748   -2.64610472930183
C         3.65319902811538    1.45553013024442   -1.48549835526611
C         2.99832647091529    0.81621900916113   -2.57183890505600
C         2.93278339238477    2.50940245195543   -0.89140182411925
C         3.18031159367783    1.50137833798577    1.35198411306810
C         2.74814246056346    2.55392081983888    0.52771998734812
C         2.35509230800204   -0.46625953150630    2.56053505321721
C         2.20614887701120    0.94001510392238    2.28436955815092
C         1.19564912129026   -1.20315377678809    2.84808676858220
C         1.79215761775687   -2.95029838589117    1.23143803474581
C         0.94811366354728   -2.46030749085810    2.24221122959221
C         1.91487343173644   -2.82046246922132   -1.21465575174760
C         1.19070101658446   -3.24081266471388   -0.04835737261153
C         1.70693386699298   -1.08323249200800   -2.92783865333510
C         1.14528855381171   -2.17926525819870   -2.25505619556431
C         1.68156093026667    1.21850506586717   -2.95677531284615
C         0.91139926851697    0.05367216275108   -3.22622252075360
C         1.75877712912985    3.07108395858631   -1.48214925574328
C         1.02379106596591    2.36149476191582   -2.45975024820859
C         1.55095943246039    3.26652140853758    0.81014444620478
C         1.04990613339258    3.74728142961317   -0.44770991492810
C         0.91825882909431    1.55088912906885    2.44800922628944
C         0.66146406322198    2.82025054648698    1.80519262369027
C        -0.07012709784212   -0.58528288980474    3.06911767949804
C        -0.24996884116581    0.77654023678944    2.85355759764345
C        -0.45393562443163   -2.65103396431944    2.17231563372041
C        -1.09705824770131   -1.54770949954302    2.78459694559479
C        -0.22713213560762   -3.42097854325030   -0.12587457498169
C        -1.02589962175829   -3.30718106460270    1.06788635300866
C        -0.27447655866288   -2.31013902365150   -2.30872869737786
C        -0.91122019516979   -3.19751017214902   -1.37402428159893
C        -0.48831738136460    0.02803704024143   -3.13402342098176
C        -1.05247815670018   -1.27370633682278   -2.92513544110962
C        -0.43515827890284    2.39628703299965   -2.45555894202014
C        -1.20604261190079    1.22346419957361   -2.82371207356654
C        -0.28788339958167    4.01279599617041   -0.60615049200815
C        -1.05427709782883    3.35515382883088   -1.63959261515727
C        -0.67547840470763    3.29192976126431    1.70058515139260
C        -1.07465227556648    4.02446382471122    0.57221925291943
C        -1.63126159365745    1.20107030938644    2.60018389659891
C        -1.81412943471415    2.49615834691675    2.12754159108927
C        -2.40977826334869   -1.18582947432152    2.45310547684855
C        -2.70612183693784    0.22620762634048    2.38557512252232
C        -2.43496678326754   -3.18062245542799    0.99753274496127
C        -3.13885138055908   -2.13518501396921    1.70718161571418
C        -2.32327676179034   -3.30757707778725   -1.41470207546051
C        -3.08615575539534   -3.43277496344066   -0.21778389148346
C        -2.45295706596126   -1.32880124559685   -2.83865837831736
C        -3.07248769824156   -2.44302149852799   -2.25922895152869
C        -2.59518824358446    1.10386264537931   -2.43059420859307
C        -3.22013684819023   -0.14492876396942   -2.55557119221084
C        -2.38812471175981    3.15655876266610   -1.11435861417680
C        -2.41223240507857    3.62768588379771    0.21180765429992
C        -2.90612186162456    2.79830174475359    1.24009341884647
C        -3.16904612290207    2.03718353783301   -1.48475302538195
C        -3.80868965394412    0.57365580240975    1.58343056555406
C        -3.80069203205539    1.81267583795148    0.87755476932939
C        -4.06212553644027    1.53646085037182   -0.50592106259799
C        -4.24557847035505   -1.73741561156952    0.87715702019373
C        -4.24236672045351   -2.55874141290161   -0.29536751722574
C        -4.25672742084233   -1.97181164905029   -1.55714599134410
C        -4.32446283072698   -0.55906921233098   -1.70459489684757
C        -4.49613031770483   -0.38173129193056    0.74295738330278
C        -4.59085949813501    0.20992418208596   -0.57378009029046
