72
C72 Isomer 2331 Symmetry C1
C         5.08510668965480   -0.87434096199168    0.36030598591636
C         4.93017679563748    0.16445114067520   -0.63981904337116
C         4.61068534471911    1.34321188707077    0.01998479374734
C         4.59468479415001   -0.35214620457385    1.62368989266177
C         4.38535560764511    1.01947606802502    1.44911101289999
C         3.48148799260556   -1.14423549574979    2.06723255981135
C         4.21785538966271   -1.90625483407057   -0.00644644245817
C         3.31782058711080   -2.18832133119927    1.08999025308450
C         4.00672237483907   -0.29694266975862   -1.65833903433870
C         3.62213473788618   -1.62491643574536   -1.28961195816207
C         3.01336331416082    0.54353973933311   -2.19359982529054
C         3.52794092304657    2.13468613692683   -0.41424400351435
C         2.80622413363468    1.84474078581054   -1.60217729299338
C         3.17338282029642    1.61027185738997    1.83147964914574
C         2.73815200205570    2.44945520327032    0.73306829428574
C         2.30286773004813   -0.55515860959581    2.57972744772764
C         2.17192275891965    0.87940995737353    2.52736771787390
C         1.09106499241940   -1.34065368531999    2.56540800881199
C         2.08586338571224   -2.74494658417936    0.82499659876656
C         1.00872762485969   -2.51117686327546    1.75435365663341
C         2.35590065173699   -2.14873887081301   -1.58206733316313
C         1.74562877152151   -2.98183776036525   -0.56485016034955
C         1.87161274806775   -0.10851825872825   -2.80839007616554
C         1.51522583513810   -1.46503190470755   -2.51188430076230
C         0.86298103672510    0.72182454759447   -3.29117162891242
C         1.54851380293759    2.51143431777566   -1.76100642572132
C         0.76568240265784    2.07862267836798   -2.85795235796730
C         1.42761104720874    2.88870578611535    0.63815797063792
C         0.86042325539129    3.12165386641422   -0.65891344268283
C         0.88400021495351    1.48001230210749    2.60656944413043
C         0.60059900358178    2.63765949253692    1.78600763008993
C        -0.12348871541526   -0.73387197620688    3.03525150848112
C        -0.20699398944110    0.70817161580675    3.12226675472510
C        -1.32269546105199   -1.46320257973255    2.92556999188217
C        -0.24964342854849   -3.13766078974588    1.48985978856620
C        -1.40050614013771   -2.65757543666577    2.14136033930777
C         0.50334014503747   -3.48515508601960   -0.83570884686337
C        -0.44191913394382   -3.77341057516455    0.22723258036826
C         0.15270030623259   -1.92563935069671   -2.70817324180591
C        -0.22549254747188   -3.07940291284304   -2.00139654354715
C        -0.48672765451487    0.24256707947861   -3.53859698209098
C        -0.90561279167728   -1.04797990413862   -3.13821386060146
C        -0.59070835214002    2.45966297119017   -2.97268323485704
C        -1.35238749720835    1.32853227174013   -3.44780777203260
C        -0.56125991942244    3.38469338358623   -0.73030201508149
C        -1.28647835500544    3.02232194816952   -1.90923200929393
C        -0.70322227805138    3.11827880465610    1.72073653800432
C        -1.30978362093726    3.43856432263068    0.44564279537220
C        -1.48801843520298    1.31000249088732    3.15856244084583
C        -1.68689402188152    2.55994591510144    2.54481675488538
C        -2.60502283024077   -0.82121137083858    2.86278457667454
C        -2.70271358482058    0.54742354709695    2.96923293712450
C        -2.70541971931380   -2.71868912244626    1.53242233189788
C        -3.42603610717433   -1.54038563867341    1.92016824962852
C        -1.70727354260513   -3.81760973965579   -0.35494108531106
C        -1.58648990764268   -3.32221019439185   -1.72138450543074
C        -2.83775376406868   -3.21307224146867    0.23540229325021
C        -2.26882916978056   -1.19092653289260   -2.66394408974683
C        -2.58464225795331   -2.37806675658949   -1.95344299233595
C        -3.45135624754236   -2.37787988313138   -0.78170440801686
C        -2.56222441379577    1.25268583422737   -2.71409516471644
C        -2.58356098577996    2.36324739258102   -1.81753151596593
C        -3.06297318155289   -0.01686790056049   -2.34854284496055
C        -2.69156409306156    2.99037978099879    0.50314012069138
C        -2.92167166574578    2.51615221346597    1.79928350659659
C        -3.56882264019797    1.27642056276204    2.06921263125591
C        -3.27367586715482    2.29691460046241   -0.60095942941769
C        -4.15342962430601   -0.82706145064125    0.97426241617549
C        -4.07398946019082   -1.21452505000892   -0.41026475738900
C        -3.90684183190280   -0.02118261899512   -1.20619487041638
C        -4.17140571936798    0.60935165390411    1.00896414341711
C        -4.01523026400402    1.10533542604820   -0.34103011964094
