76
C76 Isomer 7536 Symmetry C1
C         4.58352547467158   -0.00502101080183    1.78732389159860
C         4.43876744050734    1.15725057124168    0.99372541667402
C         4.36697272176235    0.76935246414095   -0.38437308025314
C         4.47179370829708   -1.13795282970857    0.91799599188769
C         4.34731899840552   -0.67698489705941   -0.42759534522761
C         3.44778017557459   -1.97959614342315    1.41116410453648
C         3.46168247511894   -0.04547255765725    2.67402470655268
C         2.78056720496090   -1.27385433093476    2.49958394309294
C         3.36071361346733    1.94046773835913    1.51279107174577
C         2.71276279115729    1.16393151287863    2.54468989206256
C         2.60769637154887    2.75396148898393    0.66425734466581
C         3.59393216667653    1.54054816292973   -1.26624511822887
C         2.88226362859523    2.69836394436078   -0.75577168861886
C         3.01565469526318    0.84285403114075   -2.35852252979810
C         3.47409327262551   -1.35227936520979   -1.31420791703325
C         2.90108257140987   -0.56488348323344   -2.34123952901085
C         2.66020146884594   -2.72851436901012    0.53689337611276
C         2.71622564009282   -2.48496233867792   -0.86993304735445
C         1.45187624190953   -3.26387295786899    1.11870457381637
C         1.38189362672040   -1.32975181051566    2.62042610976606
C         0.74328402710734   -2.50541287859838    2.09728243725735
C         1.31376703194537    1.14129286188155    2.64051161617681
C         0.63489841340968   -0.12208851567805    2.81587644515325
C         1.29252584953642    3.11829436690357    1.14748202341183
C         0.60398356352065    2.26210801207229    2.08170168347137
C         0.52209773800032    3.92395868048030    0.29099712681310
C         1.93346907824774    3.29632902898066   -1.60489849207896
C         0.89879215309124    4.05730199583423   -1.06152647294960
C         1.84039078833099    1.34747973456569   -3.02330803184946
C         1.35496136510281    2.58289352805827   -2.73312735585168
C         1.62800626081373   -0.90983654455958   -2.91997233436729
C         0.93241447872154    0.26938981394588   -3.29131006162348
C         1.60143289429301   -2.95406096147322   -1.65593999113207
C         0.95723834602562   -2.08057774364710   -2.60621141212250
C         0.76478056278185   -4.17781500704214    0.31790796858678
C         0.84300577413560   -4.00099933282776   -1.13061435299658
C        -0.54988912320650   -4.54930088473895    0.65066006715544
C        -0.68049041495552   -2.60166759465951    2.15336200013348
C        -1.30592240676116   -3.68067955931077    1.47314973966965
C        -0.78549618574577   -0.16851027361555    2.73004554663090
C        -1.44090678755790   -1.41702848954165    2.44467026430567
C        -0.81515706415371    2.26813592229150    2.17857884492807
C        -1.50351563123435    1.08342945189961    2.63817979049825
C        -0.90551195933770    3.88270338787316    0.34520676135618
C        -1.56437181695627    3.19543896761959    1.36759057052607
C        -0.31172169177664    3.84397565625697   -1.84867131418055
C        -0.07878561136981    2.79163202858653   -2.74864856252087
C        -1.41378447706458    3.81427860818945   -1.00433303456631
C        -0.46119226583379    0.39745726968353   -3.12731930313585
C        -1.00159145073952    1.70540750105317   -2.83841500951209
C        -0.48303730028495   -2.06423352148380   -2.75567904712387
C        -1.19560203581175   -0.80001835181141   -2.81845413386985
C        -0.44955612243759   -4.25434151671303   -1.64728460342210
C        -1.27437639502701   -4.76227184798261   -0.59457508250320
C        -1.16259712994777   -3.20858670748627   -2.32650549327785
C        -2.54271225896422   -3.43079707853598    0.75477566397905
C        -2.44650115451055   -4.00410762471369   -0.55737407211906
C        -2.43212030582870   -3.07268366515717   -1.67464364037917
C        -2.80559227378152   -1.37060350052518    1.99857176819232
C        -3.20824216034131   -2.24237685447303    0.91315670738078
C        -2.90894923334955    1.03516922389530    2.52915496842979
C        -3.53899922362626   -0.20531354553384    2.15437382364541
C        -2.94258590545157    2.99843439645999    1.11872153575923
C        -3.66761007939503    2.08596097096033    1.91645005989526
C        -2.49475423940562    2.95225463572567   -1.30842000855555
C        -2.27339398883500    1.82336968569298   -2.17906398038902
C        -3.41113073847100    2.86837920643381   -0.24628753690615
C        -2.48466845861341   -0.67617038114292   -2.21913723586132
C        -3.01717704827679   -1.82796351757985   -1.52615366880847
C        -3.73379840266609   -1.60634034408884   -0.28166193102235
C        -3.05006178985333    0.62548433889973   -1.93708049183913
C        -4.56831257492973    0.10867203516260    1.19995833274858
C        -4.69799194653660    1.50245410315110    1.11136976250148
C        -4.39260333694468    1.85758569969184   -0.25610432286612
C        -4.39078116033845   -0.41820365667863   -0.13130980060707
C        -4.14136046235308    0.69213496741494   -1.03339689715517
