72
C72 Isomer 6377 Symmetry C1
C         4.67275876584451    1.32629093650438    0.10213757133112
C         4.79070360966584   -0.00610903823038   -0.17646841600005
C         4.25103867000305   -0.25690949157578   -1.53251445508706
C         4.15079121400181    1.96316053046227   -1.13574344829195
C         3.63070539955912    0.92388097543931   -1.99477719700669
C         3.35414637135971    2.98787707982876   -0.74389701505643
C         3.86906579572095    1.75098470776826    1.20187662773853
C         3.27341717767211    2.96499520920699    0.72969459128670
C         3.06231030577333    0.79381776283944    1.92042125875843
C         4.25914543735145   -0.97790636520646    0.69382646184148
C         3.32721793109394   -0.61124053241548    1.71420302596509
C         3.60659239834695   -1.47979144330795   -1.51475530601380
C         3.88251121049024   -2.03901814272384   -0.20094860209319
C         2.28772555152908   -1.62605441549905   -2.03103060029562
C         2.24532557617059    0.87529750617018   -2.33524094677831
C         1.59263462032159   -0.42413093324113   -2.40938736145249
C         2.02440215292560    3.09613674721196   -1.25176953411239
C         1.44411571352281    2.05862465268417   -2.02806289957074
C         1.98881892990155    3.28513220062568    1.06037445293952
C         1.25858905522909    3.59680847283348   -0.16898518408462
C         1.73235278825543    1.16387811804895    2.35118119199984
C         1.29050960767382    2.50363737312808    2.04084389600379
C         0.70068012176345    0.18180136741121    2.63718678219818
C         2.33128803753877   -1.58602401016999    2.09731208611703
C         1.00594987089750   -1.21672096936437    2.51920657794382
C         3.10574969960742   -3.02684856467137    0.25518032970148
C         2.49894368422746   -2.90302839358956    1.56785919543207
C         1.58187966706674   -2.83132477707270   -1.65939615463446
C         2.16130593537702   -3.64673802284853   -0.63767466380757
C         0.16059499995928   -2.90837941131134   -1.86800717146342
C         0.15682097212012   -0.48825004708358   -2.51655144255303
C        -0.54805106342598   -1.72706797553288   -2.33260171834902
C         0.01739251535849    1.98139163657359   -2.02474364417282
C        -0.58401685093002    0.75761676900726   -2.49536948222203
C        -0.11499429757806    3.59049623885978   -0.18833077627077
C        -0.78593418162000    2.90268716448603   -1.25589643403501
C        -0.03677780514145    2.84990386100415    2.15104530085155
C        -0.70531604378971    3.62088352340140    1.10994674025097
C        -0.69159652836830    0.56946122450646    2.77523500756865
C        -1.00409979509143    1.95019039346578    2.70500678082065
C        -1.78744756178707   -0.33871434180402    2.52103284210665
C        -0.09699297688389   -2.17222128953748    2.46158803294377
C        -1.45246518529121   -1.72212709160205    2.30719795835846
C         1.48491349733855   -3.84209672345753    1.59816984105556
C         1.36162677668530   -4.41250480098220    0.23159844149011
C         0.18891396053328   -3.52247509049599    2.05619835288657
C        -0.56748071495603   -3.87732076747430   -1.12555833401321
C         0.03187023458282   -4.57501167827607   -0.03691560704823
C        -0.70550322367526   -4.21508130744447    1.18354120770928
C        -2.37277227244321   -2.50984061438212    1.52098507971518
C        -1.87654391934384   -3.53836590698543   -0.66359345868496
C        -1.87594788201295   -3.62092225128065    0.78372309165127
C        -1.99329699993092   -1.70815090407447   -2.24232105780908
C        -2.65439709208201   -2.60019136769931   -1.30516133178954
C        -1.97387136924506    0.71667539933264   -2.55534306506817
C        -2.67856963745324   -0.51819063931963   -2.52788285528926
C        -2.20362966024923    2.72494056551115   -1.12775339552081
C        -2.80392010121368    1.73829408743701   -1.93836864997781
C        -2.05484999815650    3.38296080869634    1.22542146651903
C        -2.26481303187219    2.40501686370227    2.29176642252565
C        -2.84912430091172    2.99964564702119    0.12176358819094
C        -3.08822474066917    0.15387841274737    2.09963211798308
C        -3.28221416576402    1.54773434473529    1.89437136838803
C        -3.82620578884074    2.06910204722489    0.63868772634760
C        -3.48294618291208   -1.94670255671910    0.90677867226129
C        -3.72863550629556   -2.12445666754154   -0.49553105891360
C        -3.94938027203804   -0.64251579190542    1.28761590358426
C        -3.97123605030717   -0.23966711848380   -1.96092174721173
C        -4.02863275971183    1.15160600705598   -1.58497277914767
C        -4.48541060889603    1.21987013755027   -0.22218399460825
C        -4.46730187570256   -1.00446843583260   -0.90862527284332
C        -4.70620781087859   -0.11811089333937    0.22667506881153
