74
C74 Isomer 13911 Symmetry C1
C        -4.18145851065434   -1.24579098338339   -1.11745582548061
C        -4.32494786525279   -0.66382297013613    0.15122156930261
C        -4.34414189751449    0.77073601070328   -0.05068617439956
C        -3.79320176861405   -0.18280793040114   -2.03468587879208
C        -3.92511154701813    1.06271696290326   -1.40597926216945
C        -2.61989058721597   -0.57714209611581   -2.70241473879663
C        -3.32090959461967   -2.33640356115031   -1.33648397637362
C        -2.33614076261255   -1.93616583668162   -2.32034611613371
C        -2.92007893816941   -3.06941992817161   -0.23607457326800
C        -3.67404523644746   -1.23617695824932    1.28596946564168
C        -3.16573679322621   -2.54028552521357    1.08965378202733
C        -2.95988176045503   -0.35508819905013    2.20297555634325
C        -3.92282876580024    1.58256173723220    0.97223017792339
C        -3.17478850142585    1.02205959809945    2.08198422893970
C        -3.32516390079026    2.82211852053829    0.61215451664479
C        -2.98671381395346    2.08730130143626   -1.70279287787312
C        -2.82410381968521    3.06965805282641   -0.69126624031591
C        -1.60009214543238    0.37721826397509   -2.95845165669882
C        -1.85534108905150    1.74153899337218   -2.54884943607610
C        -0.27242518317955   -0.12729306848209   -3.14812761389452
C        -1.01907158641001   -2.38459151266804   -2.25190216167454
C        -0.01966510872590   -1.52857444963925   -2.86569251614728
C        -1.61568147454186   -3.67016704911639   -0.24733792642797
C        -0.65255792536366   -3.33770776770097   -1.22526740136127
C        -2.10478726538805   -2.99661904514686    1.90321854458595
C        -1.19633830212916   -3.76719763639083    1.09736839524408
C        -1.70020307836385   -0.76073740461218    2.80688373449193
C        -1.33242257878119   -2.11610082721852    2.68697202726362
C        -0.63203541933737    0.17809900663394    3.04572321823045
C        -2.13644421170585    1.96105737591341    2.38723137295653
C        -2.28611565629516    3.09460711575843    1.54884947599560
C        -0.83954398017224    1.56746143593503    2.76275565112277
C        -1.56039504146668    3.73700486684224   -0.51232469260140
C        -1.18522584950802    3.68980620212832    0.87863032529852
C        -0.72342125588212    2.56947944542573   -2.48258911234115
C        -0.57173246535924    3.55696910412841   -1.44198464077897
C         0.84659942278118    0.77563316868546   -3.16333826508209
C         0.57374733717250    2.11378231041690   -2.82445946902330
C         2.21253577078244    0.31378071221555   -3.01323150705735
C         1.29272248914783   -1.96612344183253   -2.76729811715952
C         2.42317302779470   -1.08008183926830   -2.93798472979307
C         0.73226855447974   -3.44702045351593   -0.85229408009185
C         1.65215219968316   -2.96694546979618   -1.79649516243062
C         0.12483952319270   -3.47764780105519    1.48649359986914
C         0.05216635133534   -2.50405724089625    2.52769797229604
C         1.15293773250165   -3.43025530411591    0.52786060187397
C         0.72602363661359   -0.28995749528674    3.16053615781418
C         1.10076034678824   -1.62098065678903    2.74983290963621
C         1.74833997617028    0.67093210772034    3.15013334800035
C         0.25815767541514    2.43285398685954    2.36490196771279
C         0.11887621739539    3.39369733387066    1.27909147917623
C         1.53514680461130    1.99478494365298    2.65161991154585
C         0.79788400065164    3.59653815198375   -1.04482358975263
C         1.52248401866985    2.86760875356604   -2.04374266271652
C         1.18662961880900    3.50794245833849    0.30519299798032
C         3.17692130039221    1.12354609452756   -2.35332002004090
C         2.76553148725238    2.37011431273808   -1.77171732973481
C         4.16714822111225    0.58395040353844   -1.47647581532187
C         3.48821024651875   -1.59664154220051   -2.18407388528544
C         2.97685266657489   -2.71626922877641   -1.40809758323268
C         4.28975566037116   -0.79971896699847   -1.34969594150053
C         2.36882523560488   -2.77655160452271    0.93637798638674
C         2.35418779008692   -1.90587971089813    2.08096215851787
C         3.34581372139734   -2.54411587552129   -0.06876183544007
C         4.25936227764113   -1.41392216049677   -0.02785756025927
C         3.06010998860670    0.29895767471279    2.78782331448549
C         3.36687638877746   -0.91820063684996    2.17639998334234
C         4.28346813994189   -0.62315827524955    1.08592019604394
C         2.69443841290931    2.38439466853491    1.86205033280764
C         2.50119967691363    2.98610155581566    0.59418687375611
C         3.32942886665515    2.51577887979794   -0.45962694675959
C         4.24107599689441    1.42253012077837   -0.29807214719501
C         3.65865184773577    1.38484255682200    2.02634531129984
C         4.38434105116700    0.82645626517064    0.95383032492457
