76
C76 Isomer 18386 Symmetry C1
C         2.65206902485157   -3.58318197287566    0.43266452533926
C         3.25101502594792   -2.83193080891351   -0.60272318494882
C         4.10112708586890   -1.86505774589068    0.03696536531262
C         2.84195345861335   -2.84144842564677    1.65535002882367
C         3.71661088651223   -1.75623139827682    1.42090840883978
C         1.59443233134484   -2.66951871567135    2.25976097921427
C         1.30945357127656   -3.99638221342920    0.38022202561122
C         0.62099136946909   -3.48198864107429    1.53425639431622
C         0.66678163590024   -3.90532900298500   -0.84541848027512
C         2.47626136599241   -2.43527949982965   -1.73483062766982
C         1.24731544936435   -3.08626491669967   -1.89029468845325
C         2.58525169590973   -1.08524088397459   -2.28070650984751
C         4.42264995654774   -0.72652252615978   -0.66237717866680
C         3.67676484095113   -0.33484929808486   -1.84111557048418
C         4.64557073895897    0.44657132929957    0.09114999481658
C         3.41182045342393   -0.48904323392028    1.98101774038232
C         4.01894374138867    0.62433110876515    1.33540905185491
C         1.23167453623685   -1.40505635568176    2.77179416257962
C         2.14458826853627   -0.29106727055156    2.63078451028883
C        -0.17633736124488   -1.21113513597254    2.96822400811428
C        -0.72607894707542   -3.14473697162110    1.48094436341749
C        -1.16406983462394   -2.09560600857634    2.37635382177811
C        -0.73709593687894   -3.74759437011477   -0.87276787219121
C        -1.48681819314750   -3.42096502242797    0.27382637669501
C         0.18137055732146   -2.46965440791864   -2.59951443337512
C        -1.02736119750433   -3.07304446841801   -2.11247413142926
C         1.42067204538719   -0.38232478624675   -2.81879628978507
C         0.19964893181576   -1.11479815281235   -3.00227159424610
C         1.36510957433874    1.05332965305893   -2.84379915403285
C         3.63837712805787    1.10310394550651   -1.87197256461800
C         4.33235382310393    1.58845223823916   -0.74665243388901
C         2.51408025806537    1.80326311869228   -2.38489789375017
C         3.42232620049867    1.94676651786433    1.33491268436706
C         3.73899704096251    2.56816339752845    0.07119254477098
C         1.60672102496341    1.04915215423506    2.66915605285763
C         2.18487187448512    2.16813345872570    1.93860854152230
C        -0.57685395918599    0.08114646345736    3.31598257270329
C         0.28654202745116    1.19874446824859    3.08115660546676
C        -1.92157090906281    0.52035633374982    3.18047243250569
C        -2.47857653593151   -1.64587390136478    2.23770603166160
C        -2.87626396709655   -0.34250429108755    2.67285390729248
C        -2.78387916160808   -2.81761064964477    0.07569363709305
C        -3.30479674964767   -2.00491667252031    1.10289364741099
C        -2.22802290197264   -2.48538806423965   -2.31168764484892
C        -3.21604420810152   -2.51755863929539   -1.25479157611641
C        -1.08010988578375   -0.44459400985552   -3.14941034335657
C        -2.26435278624659   -1.20753583594512   -2.98296103191703
C         0.06540220444326    1.71357950642650   -2.89522353884026
C        -1.17010684596592    0.96959662796767   -2.95315176668722
C        -0.02639803984344    3.05442204667253   -2.46433694747055
C         2.35027778921157    3.10618762833450   -1.84813919078754
C         2.83687636415164    3.41828178042306   -0.52128365658325
C         1.09815750397395    3.73110800831943   -1.96131439860802
C         1.33016746040839    3.24153687308884    1.43281228835628
C         1.73279537373942    3.90697364880070    0.25160775944676
C         0.74845192832951    4.30180974713635   -0.69462338342840
C        -0.52857740496807    2.31552869298362    2.69353557773427
C        -1.89766015523080    1.90359008938184    2.78870894803626
C        -0.08055158050991    3.25708254310798    1.75570564811572
C        -2.83807378259059    2.35477047981476    1.87940407900722
C        -3.89184853615164    0.14453003635380    1.77993051126014
C        -4.18096423688593   -0.90270109975218    0.83740112690382
C        -3.85015002217807    1.46983459582589    1.37078056946422
C        -4.05670001818764   -1.42765000431000   -1.50056027838850
C        -3.45665822075569   -0.61219675548970   -2.55894977217890
C        -4.49866832561845   -0.56386190552353   -0.48703989791328
C        -2.39186266595803    1.54740844565577   -2.42521717324834
C        -3.99062311540038    1.77836082945813   -0.03286537270896
C        -3.51573681565172    0.73025058934796   -2.19013590703331
C        -4.27838275097657    0.79649789860925   -0.94715260858007
C        -1.14699428721690    3.46822376589371   -1.64573464149958
C        -0.62201289067830    4.11140871494662   -0.47933888140549
C        -1.07090751008099    3.73248110484107    0.80398853755308
C        -2.37986350498270    3.20790239377276    0.82102451028854
C        -2.30946035468744    2.72003015255453   -1.59044946147835
C        -3.03704094817236    2.79573367571423   -0.37417989046105
