80
C80 Isomer 433 Symmetry C1
C         5.39817575425240    2.11497186412762   -0.14972551991916
C         6.06320859159651    0.99559960214152    0.37294926484346
C         5.94201799443426   -0.09602945889790   -0.57589980900105
C         4.78353807202561    1.69725257466042   -1.38403872370572
C         5.08069739008004    0.30044529167793   -1.63870721688427
C         3.42362406828059    2.06996143215966   -1.37131986316541
C         4.30386881161633    2.43932182987337    0.74430079440427
C         3.14686671898609    2.62783731355115   -0.04557958185191
C         5.33611350303963    0.55823679775928    1.53510367497513
C         4.21912857562415    1.43454941595312    1.76934365831619
C         5.60925710166795   -1.27321603217728    0.15919594156518
C         5.09203998801467   -0.84084596443268    1.45530470067986
C         4.92713786772503   -2.25353065196511   -0.52846839905041
C         4.05281707043079   -0.57723116096280   -2.11880613062175
C         4.15053605258876   -1.92358051824272   -1.70759683956667
C         2.43366736222245    1.26432262829534   -1.96821465796929
C         2.70614132571059   -0.07439192442534   -2.39204269760103
C         1.08441322635681    1.61504788342459   -1.63247388696056
C         1.91245833296019    2.37937838618814    0.52221362939153
C         0.83152402642676    2.25079605555182   -0.40782755824825
C         2.96279154425510    0.90329424690072    2.15421937623918
C         1.79101994801358    1.61192995886372    1.71978576003489
C         3.88502598746141   -1.38765155879328    1.96344933035410
C         2.79439426890263   -0.51926193856715    2.36792668701452
C         4.12889965245397   -3.12683014587438    0.25401293770988
C         3.54209133265417   -2.67248642916670    1.44868255733372
C         2.98481197806691   -2.76779231924329   -1.70348157908761
C         3.05705631822988   -3.61469018129762   -0.57452225983573
C         1.57180080958024   -0.95545105470868   -2.52228746298325
C         1.71611608483389   -2.32604240473496   -2.15091587739571
C        -0.00081288726671    0.90880369441595   -2.20671460183124
C         0.21670474902354   -0.43108712445249   -2.60735652242889
C        -1.31212676512380    1.37379436417723   -1.92548727679785
C        -0.46045926327216    2.25583169622828    0.13199536751789
C        -1.54687206937856    2.14645594932521   -0.76146984253501
C         0.49392205373478    1.15056687259147    2.05243839776462
C        -0.64152376148395    1.79973194243202    1.46224173316684
C         1.46224129915594   -1.04193313172835    2.47316030775223
C         0.32139897344806   -0.17132759623903    2.53361736676216
C         2.17782174783139   -3.14123405328168    1.47807871131576
C         1.91534760551964   -3.78110623835446    0.21832922503227
C         1.16145629382532   -2.38949808394520    2.06801736165841
C         0.55322794189836   -3.00446777046065   -1.64277179169426
C         0.66663321451464   -3.64567282037330   -0.37469830547738
C        -0.94187033978115   -1.28187159249314   -2.60591819289101
C        -0.74729855697421   -2.58698579174684   -2.04546532927313
C        -2.42634121002447    0.66681137245053   -2.46185638281499
C        -2.27214965685719   -0.73878936081324   -2.65397396334755
C        -3.69054565258010    1.24115245034141   -2.21928892019661
C        -2.85482606370529    2.34665643602896   -0.23207379043705
C        -3.90210158050207    2.18080749154539   -1.15889455034882
C        -1.95327774218565    1.48769004879788    1.87929433948840
C        -3.06350451162234    2.08443250896068    1.16690044811719
C        -1.01802641973671   -0.67279349834138    2.61911690443384
C        -2.11141161696858    0.25283165959223    2.58819169367596
C        -0.19188168730683   -2.77391763402423    1.75596392562218
C        -0.40982674593153   -3.52094289911318    0.55676469093432
C        -1.29090915161612   -2.03090575897656    2.25501231069095
C        -1.83665147501072   -3.16385684600651   -1.37467662753086
C        -1.66570140896419   -3.56027496692635   -0.01718687325245
C        -3.43613548272897   -1.53707912726535   -2.28018302347683
C        -3.16576012424426   -2.67125811698892   -1.49119500245119
C        -4.87898499883072    0.44505144236423   -2.32635786170892
C        -4.70008594792460   -0.95236286541280   -2.06260209560632
C        -5.26089074191053    2.01151328886407   -0.70274937518878
C        -5.88726275074649    0.96597970248073   -1.49585611302726
C        -4.38536353895528    1.73771407594233    1.56452548284678
C        -5.47914488739748    1.76136330600331    0.64260461243685
C        -3.43227003750983   -0.24910370056973    2.67074350517875
C        -4.52290355965736    0.55368844886774    2.33288805603482
C        -2.63642180335293   -2.40434520522326    1.86694435859468
C        -2.82561371903957   -3.17767738782395    0.70122885586661
C        -3.84122347402955   -2.82682660394243   -0.23855867374484
C        -3.71899395379050   -1.57957036643273    2.20148140662612
C        -5.54032736087026   -1.27024316066284   -0.91856579506425
C        -6.28289234423589   -0.08064497745771   -0.59610579229112
C        -6.17880759287273    0.44216116085694    0.71872655491322
C        -5.54919653138690   -0.28826628831228    1.71074589055684
C        -4.96999780870632   -2.06056858941819    0.12334799589872
C        -4.95959841296054   -1.56233989311836    1.46806695151609
