78
C78 Isomer 822 Symmetry C1
C         5.77855604865739    1.31825766556600    0.50505529876097
C         6.01316512791642    0.43503692490314   -0.54111375132074
C         5.70159316401168   -0.90817439462031   -0.07949770756031
C         5.33002819893309    0.57167565095399    1.67801670163026
C         5.36269968023443   -0.82386616515120    1.32708385088608
C         4.11127095384981    1.13558532896451    2.09282125723123
C         4.73635937031011    2.23651468805936    0.11455095074381
C         3.75352878937353    2.18563722411068    1.12687336206898
C         5.10707674888522    0.76903600154690   -1.62645154843876
C         4.32637149635686    1.91548187971682   -1.23163635643682
C         4.76074381125437   -1.45141785264321   -0.97104326274148
C         4.39691414322813   -0.40113567579629   -1.93583744126744
C         3.73783108047038   -2.33574354001530   -0.52289984541705
C         4.31585393583966   -1.61269758163248    1.77012629101776
C         3.65664172986073   -2.52597932613207    0.87148511443801
C         3.05799717567919    0.32992328262065    2.61546924712499
C         3.26741626456753   -1.06072826428221    2.59175150588655
C         1.69554399000300    0.80196926296122    2.55829267938228
C         2.41295154027928    2.38665250052424    0.80727851002715
C         1.40000830711778    1.91817796929460    1.73277686237213
C         2.96887578189838    1.95474833201492   -1.55066686438045
C         2.04262428727927    2.47355835150195   -0.57424092740269
C         3.07468154505895   -0.33496911650809   -2.40482201440368
C         2.39715022842849    0.92468089128703   -2.38162076128735
C         2.53979100583780   -2.50600318157818   -1.31107808326015
C         2.27658166491005   -1.53626480283333   -2.34289031911941
C         1.41402639902955   -3.20133863612866   -0.77210687504770
C         2.38188455468502   -2.82470525535851    1.42346053692926
C         2.12466709247655   -1.90986988853838    2.48592065478429
C         1.32602545837425   -3.30200375569028    0.65687742050845
C         0.58760872841575   -0.06762470303851    2.83539971917906
C         0.82173684496736   -1.47718514531418    2.73110650116395
C        -0.75180820651046    0.40645743159420    2.75718072747741
C         0.07048970918015    2.28386267027890    1.48357779773632
C        -1.01634295834851    1.69348848512163    2.20355838215346
C         0.67492301484467    2.55523970438745   -0.88312732264696
C        -0.22453153585010    2.85021646833822    0.19906054896295
C         1.00130751659213    0.97563905669719   -2.66161058473170
C         0.14089928365867    1.94980357791768   -2.05659796555389
C         0.99182360489187   -1.44471419347865   -2.87326477338796
C         0.37170286699149   -0.17907447038671   -3.12238538781368
C         0.16636302840206   -3.25098204149297   -1.49361417726685
C        -0.04156177286329   -2.36199452540164   -2.55998575043184
C        -1.00308963620755   -3.69316007841922   -0.85632674597480
C         0.05520822538107   -3.32330385721389    1.31759089525485
C        -0.23999065070919   -2.35762524428320    2.33464840585501
C        -1.01177782331996   -3.84912687288832    0.56959796671763
C        -1.84142970210343   -0.54490235283500    2.86317801297891
C        -1.58278770872589   -1.94254907778986    2.58588333120139
C        -3.14665351088404   -0.05325189094806    2.73684748238057
C        -2.36118870307507    2.15204668796910    1.95793296168458
C        -3.43211324097771    1.30755785382486    2.36970709292242
C        -1.52817950425724    3.12549565836712   -0.12423369929640
C        -2.59509305539693    3.00759374820214    0.84341438510609
C        -1.27351653843527    1.87417785999106   -2.22384384734060
C        -2.03613978570894    2.74283908751759   -1.41401422887541
C        -1.04274904012454   -0.35754467928771   -3.04956357492439
C        -1.31429363387880   -1.71532920326400   -2.75001337658375
C        -1.92350472844486    0.65971727932847   -2.65964165591007
C        -2.32551335120505   -3.24190262171707   -1.24562391995566
C        -2.48408927673184   -2.09080911972968   -2.06907908110427
C        -2.31836603262461   -3.66333222281306    1.01905977611973
C        -2.62822415277642   -2.72234569091354    2.01793632295288
C        -3.16147386919051   -3.37473685239432   -0.12665435544294
C        -4.18786243577633   -0.87679720968143    2.14038321925048
C        -3.86998788021912   -2.11655998240379    1.63452193033724
C        -4.09664408351753   -2.39383095055620    0.22516185480414
C        -4.67095234915210    1.31576216081009    1.65345363800335
C        -5.03235049911106   -0.05803102022993    1.37445599979093
C        -3.79052949656774    2.90677432768469    0.08813527556478
C        -3.41111951911411    2.56195390037959   -1.27636787066869
C        -4.81018431684906    2.03732734378612    0.46644151010223
C        -3.23551341414581    0.27818372146740   -2.18280420078514
C        -3.49290184612229   -1.08875177079899   -1.77475276266824
C        -4.39926995520180   -1.32421667023520   -0.66575783976889
C        -5.07702367515879   -0.22920793687216   -0.04967756412673
C        -4.03637579985272    1.32028837584833   -1.62104613443516
C        -4.99578870899346    1.05742646775788   -0.62018140371449
