76
C76 Isomer 16098 Symmetry D2
C         3.10540241732296   -3.28199246930587    0.90889110078201
C         3.78369114175758   -2.22252742271831    1.44511268871327
C         3.00294215330624   -1.69140397754048    2.57544200127517
C         1.95627087442559   -3.54143000079210    1.77023409445050
C         1.80432292858550   -2.42688196491679    2.68432131027268
C         0.90505747270006   -3.89752921450552    0.96801860530229
C         2.62645130378045   -3.24148689779695   -0.45779985319555
C         1.32900554160853   -3.80013011576772   -0.43073474441640
C         2.87329422966792   -2.12859285776486   -1.28027274103954
C         4.17726337377151   -1.14556566296607    0.62126653253048
C         3.83298523732710   -1.16459816114850   -0.76811532087958
C         3.00980612116427   -0.30394537722307    2.45051190916164
C         3.90077509540294    0.04863649456037    1.35560286243440
C         1.82713962074252    0.43801631138584    2.64263994179698
C         0.57370881552398   -1.73495701969274    2.76292564892071
C         0.60749173242978   -0.29715666562244    2.87292241375681
C        -0.41400545494541   -3.49955769721190    1.32927488983508
C        -0.60987421501551   -2.37990259972086    2.20670654728351
C        -1.36094500586983   -3.79931965639220    0.36191216734029
C         0.38296456048638   -3.48982983417131   -1.39567787265942
C        -0.93725768715713   -3.88678180811755   -1.03759807022907
C         1.80862668884443   -1.65950857205532   -2.16462697750345
C         0.58218043773373   -2.36375679200091   -2.26409323148292
C         1.83145881904622   -0.31005626724426   -2.67646604694473
C         3.90362639776282    0.07309544919929   -1.38518299268909
C         3.01593889046816    0.42835316107245   -2.48190412886847
C         3.83510006517039    1.28652646123564    0.73839727478135
C         4.18217589380455    1.26645347914151   -0.65027107882921
C         1.80937652085508    1.78752860852939    2.13076161512918
C         2.87722552858041    2.25337855689650    1.24858058440235
C         0.58482656010142    2.49545414998854    2.22775069554532
C        -0.63388216811880    0.40741807266680    2.87452256652632
C        -0.59986404811542    1.84608048264088    2.77636395516913
C        -1.83420597764767   -1.67122175267618    2.11297033985974
C        -1.85303527979714   -0.32585887123558    2.63571183848417
C        -2.65672155391363   -3.23700638127272    0.39347181870458
C        -2.90025309964921   -2.13000907090911    1.22486687094724
C        -1.98738809527304   -3.52094651204060   -1.83686097001540
C        -3.13573201968791   -3.26502624009947   -0.97345774514819
C        -0.59946030965696   -1.71077823061901   -2.81505132625222
C        -1.83214405557363   -2.39961494246857   -2.74198775704255
C         0.61451249076436    0.42878335191315   -2.90927046769296
C        -0.62898568079005   -0.27203232680586   -2.91336220883408
C         0.58480251436793    1.86669293676174   -2.79939071501394
C         3.01352248684263    1.81581889287779   -2.60686811594057
C         3.79353235874952    2.34460061182525   -1.47492126821989
C         1.81731596923722    2.55490640469713   -2.71822064444850
C         2.63536608533872    3.36700029554913    0.42559134434983
C         3.11725542128264    3.40604869308338   -0.94009236914441
C         1.97069488894863    3.66893632288518   -1.80379717574756
C         0.39069919493858    3.62207596975718    1.35889129291173
C         1.33968440607327    3.92952070501478    0.39590160289983
C         0.91889314848466    4.02825771687892   -1.00377327586003
C        -0.92756551152545    4.02310411687953    0.99820823833968
C        -1.83038174872235    2.53864001058399    2.70075387346812
C        -1.98037287754924    3.66049066170434    1.79538139910819
C        -3.03533151253262    0.41760531525952    2.44727075818206
C        -3.02875751638265    1.80400751471816    2.58347281028350
C        -3.85711990107192   -1.15907541607963    0.72054576585762
C        -3.92407306866677    0.07387086337744    1.34761713783159
C        -3.81092100309076   -2.19931811576701   -1.50112972842013
C        -3.02857066064084   -1.66144393282911   -2.62712068767609
C        -4.20132757118879   -1.12788261811390   -0.66859789949001
C        -1.84641999233547    0.46492121869643   -2.67706883433682
C        -3.03130909200159   -0.27500038952094   -2.49097647112254
C        -3.92127878181251    0.07137686279791   -1.39324872211484
C        -0.59797638364169    2.51518949939521   -2.24560277858776
C        -0.40061238312395    3.63427094748020   -1.36776629022597
C        -1.34866760899375    3.93683171517101   -0.40230807613174
C        -1.82465589087299    1.81021686529667   -2.15429896234438
C        -3.12789706959674    3.40804192683610    0.92967839165063
C        -3.80729170451827    2.34431806781814    1.45590093222137
C        -4.19902971750936    1.27394147243570    0.62237268190538
C        -3.85191681343249    1.30411476395838   -0.76604086516417
C        -2.64601247312982    3.37839772166886   -0.43642070412443
C        -2.89114345384736    2.27220316247496   -1.26838938457812
