80
C80 Isomer 13419 Symmetry C1
C         5.48602044056871    0.28924809320300    0.84490090530651
C         5.44400838935856   -1.04401044095992    0.58538839860386
C         5.38460046101802   -1.19661719671940   -0.89200889578192
C         5.44120304221540    1.00503625256968   -0.45724707859586
C         5.08120615652675    0.07859736237968   -1.48184784409592
C         4.69970417255658    2.13693337966318   -0.25028910645617
C         4.51987953885498    0.88537267312001    1.72761465429097
C         4.24661544812040    2.15016869243740    1.15444036608017
C         3.42710258005944    0.10869207181466    2.22930508613035
C         4.43477064158019   -1.88686590598427    1.17337795875440
C         3.37261770452418   -1.32292873480941    1.94625247234351
C         4.59640748852489   -2.27237714543176   -1.14589366784978
C         4.12076555174531   -2.81689688206440    0.14320467206405
C         3.46913738453827   -2.15875212339937   -2.01366310078165
C         3.85777804823743    0.25747212516275   -2.21066355900696
C         3.03683404989930   -0.90574566617720   -2.52231427354978
C         3.58622552244149    2.43699929900694   -1.06767280163375
C         3.13775083726363    1.50264997179877   -2.03982279894354
C         2.98054247785329    2.69846095784412    1.17262666117613
C         2.61836447214120    3.05043046316972   -0.18340623551852
C         2.18235708057551    0.78800826952776    2.45591237874446
C         1.96695980090273    2.11194887569869    1.95359081482598
C         1.00079911372256    0.02202166921166    2.76834344054280
C         2.07804500211020   -1.98162252315624    1.89899974126558
C         0.89330911591791   -1.36600516250684    2.45161441203126
C         2.83324761364198   -3.25300556117572   -0.05000954424724
C         2.48423484948185   -3.00095279746213   -1.44245980184694
C         1.84229418190063   -2.99696675128773    0.93252263080058
C         1.16555782939456   -2.91179254736440   -1.78596526773514
C         1.62691169495304   -0.78278986251938   -2.83798812770508
C         0.71368264694122   -1.86515920954380   -2.64680021917779
C         1.75885796077643    1.61178691048566   -2.42959503014645
C         1.02257619931646    0.51481174624587   -2.96158717276362
C         1.31497499389471    3.19584137371683   -0.55426655463425
C         0.98529672946126    2.69245747685056   -1.86162573917695
C         0.65399164568604    2.62159202556120    1.69376671015804
C         0.29110565770330    3.25085607413422    0.46513769267995
C        -0.18995318788139    0.72652764393261    2.96382517100988
C        -0.37938383490760    2.05276115769142    2.42561833326238
C        -1.45155295683375    0.10305154592146    3.00753876616165
C        -0.41104612455716   -1.96738361151870    2.31693372398678
C        -1.61651927887566   -1.24773535958769    2.66628055577158
C         0.53010205822125   -3.36998254022321    0.55220939525983
C         0.27394195772112   -3.52822912520410   -0.84783647018390
C        -0.56682654326995   -3.08202591435347    1.41685115177179
C        -1.01851342267880   -3.66310012645321   -1.29398755486598
C        -0.71512451482433   -1.74523089181981   -2.82154305386933
C        -1.53237673764905   -2.76545953155492   -2.31669045508857
C        -0.39829949750327    0.63364075962303   -3.22152391663040
C        -1.31621666137019   -0.47615022193091   -3.14068020429294
C        -0.31415915662055    2.86817742616103   -2.23820589340699
C        -0.95424375710415    1.92466585801340   -3.10111147419047
C        -1.07138491299924    3.36973432500734    0.08346431128099
C        -1.31139489501560    3.41053062300640   -1.32483196303033
C        -1.73405663856561    2.25391199823806    2.11789315148331
C        -2.42861359563002    1.10789933499007    2.64183662205004
C        -2.14680472178384    2.90558614230382    0.92989511116874
C        -3.65014247833598    0.76539419437812    2.16489207095276
C        -2.94167441882141   -1.63756658725895    2.18973218684065
C        -3.96164742048768   -0.63879413617568    2.01851704884892
C        -1.84812821719019   -3.47110629451801    0.98134669527937
C        -2.02363804935239   -3.90144894081644   -0.35392225351408
C        -3.04854121939132   -2.76023527085089    1.35917769795721
C        -2.91878793414520   -2.56428703731379   -2.01722687121375
C        -3.23630926215704   -3.32711109366052   -0.86522795146120
C        -3.93143016959913   -2.75550914052091    0.21272789792775
C        -2.72936113759534   -0.28325552968015   -2.89633721184449
C        -3.53034075399305   -1.30192203791554   -2.23613883428407
C        -2.33136290291194    2.10899557167119   -2.92797167158242
C        -2.54787957135252    3.04638785741442   -1.82853499012027
C        -3.21335784052545    1.04678947234465   -2.77876635192257
C        -3.43736013054716    2.52861285370526    0.38615986004914
C        -4.20833624596583    1.53443172184244    1.06341346549222
C        -3.60508348824258    2.55988467026450   -1.02562689562936
C        -4.15526009798819    1.43061629338212   -1.73602111730266
C        -4.86744488094016   -0.69568241118704    0.94932661700617
C        -4.71935037137208   -1.64246928919639   -0.08374863882812
C        -4.56645635484325   -0.94352821540231   -1.33774358593627
C        -4.99247542174205    0.62413190967788    0.34813398095721
C        -4.83194173478069    0.45258469453301   -1.04996863147152
