74
C74 Isomer 604 Symmetry Cs
C         5.48105998189372   -1.38914845530509    0.61502561203434
C         5.49096438481617   -1.39437182368112   -0.77480011345167
C         5.34810908509915   -0.01699694895945   -1.24719153683507
C         5.33155089238683   -0.00822547762145    1.07490864107874
C         5.33198427217143    0.83870274990355   -0.08939014896836
C         4.21676626993761    0.02216291587564    1.92631281253625
C         4.35290017018076   -2.16033360246128    1.07439625651718
C         3.61565101633548   -1.31822537659264    1.92952004670567
C         4.36949632781983   -2.16913013392262   -1.24451282323573
C         3.66795013044823   -2.68426151491454   -0.08803575709201
C         4.24561232490159    0.00691391445499   -2.11463151677890
C         3.64461848029357   -1.33352148295128   -2.11634958311097
C         3.36498903664912    1.12467593583817   -2.17436542517078
C         4.43711745779513    1.90171189618685   -0.09980640073719
C         3.61047963968721    2.15567669539853   -1.24928782111897
C         3.33540604290378    1.14029672884061    1.96503737127550
C         3.59407794070391    2.16421899428759    1.03577255796061
C         1.97518975644051    0.97169196667181    2.43839249752208
C         2.22228137515407   -1.43557686135650    2.01406694885723
C         1.43246968791276   -0.34485905118622    2.52550758354690
C         2.27932405176969   -2.68901791051653   -0.09793391542487
C         1.56492070618394   -2.31531526434973    1.10680909159047
C         2.25257310772497   -1.45156812774878   -2.21991635797877
C         1.58226964578564   -2.32449167980834   -1.31560742721692
C         2.01167580726818    0.95240232539524   -2.66584094525383
C         1.47024656107273   -0.36479976775296   -2.75075200370997
C         1.08515645426944    2.04628640716931   -2.55578236333170
C         2.51000254685723    2.97499730619396   -0.82395103001127
C         2.49993745593040    2.98032656052471    0.58842256429573
C         1.31760019408907    3.05953690530902   -1.55169479365429
C         1.05040223280506    2.06471846143027    2.30680831202283
C         1.29717958536711    3.07028936270937    1.29837168398666
C        -0.28150795551811    1.85069833870316    2.66609958793687
C         0.02507812385227   -0.56207174644352    2.66402391742202
C        -0.78326361346707    0.55104515736318    2.93035842038629
C         0.16227112125365   -2.39497214234980    1.10626275314795
C        -0.63078552187742   -1.69461072198004    2.06279726282717
C         0.17977110830660   -2.40425035318495   -1.33459520093594
C        -0.46852820072574   -2.78616898299742   -0.11729285990494
C         0.06494120398346   -0.58314099179589   -2.90780158170878
C        -0.59944977478608   -1.71123738123240   -2.30769880638998
C        -0.24137344029879    1.82959635848721   -2.93273026817841
C        -0.73931443265666    0.52790386073925   -3.19413459631889
C        -1.34811441465795    2.57448905792909   -2.37850516115672
C         0.21442046944369    3.59295977901743   -0.84814226942101
C         0.20424201137796    3.59818769300684    0.57494664597359
C        -1.13381516816544    3.38815873026514   -1.28977513251937
C        -1.38006954495197    2.59134619566131    2.09049300422386
C        -1.15014108991474    3.39678584771301    0.99878421524312
C        -2.01527742055180    3.29237662142468   -0.15135559893505
C        -2.19427197741545    0.53071524104860    2.68296112307974
C        -2.55497971641053    1.78447955849820    2.11667087661039
C        -2.06282521118694   -1.78962753404121    2.00793093271063
C        -2.88767304436909   -0.65400086270824    2.37445179773033
C        -1.83029203943093   -2.94944279712981   -0.12645955507248
C        -2.62098141958764   -2.66745932049110    1.04044233808952
C        -2.03213493339208   -1.80596435079575   -2.27275767391358
C        -2.60415258089629   -2.67641896690759   -1.30674836272111
C        -2.15371181146494    0.50927657752525   -2.96685451384568
C        -2.52241645204636    1.76725624860573   -2.41532329272353
C        -2.85154062018700   -0.67313741108101   -2.65953025044579
C        -3.16656804191889    2.50419653165786   -0.15659161009096
C        -3.52948558566933    1.83706596901830    1.08957184749901
C        -3.51162299187478    1.82756992354396   -1.40271351657600
C        -4.16840017217352   -0.46315529940407    1.78740553604038
C        -4.42472082951144    0.76002478149901    1.07400085853233
C        -3.95759028674939   -2.55349337979430    0.60196707575304
C        -3.94690213499696   -2.55913501198192   -0.88828793882587
C        -4.78355352559593   -1.51981345687236    1.02370630202148
C        -4.14055931994902   -0.47786344844177   -2.09235662772104
C        -4.40699702383319    0.75065599712444   -1.39197221879078
C        -5.08032010951177    0.39858947327177   -0.16238041175805
C        -4.76669590555429   -1.52873543542548   -1.32969758504564
C        -5.40965034957443   -0.95444399410587   -0.15967147907704
