64
C64 Isomer 2384 Symmetry C1
C         4.24349434519875    0.78175204958257    0.18846975348382
C         4.14894048153372   -0.54801052601442    0.48450615282809
C         3.49164849163750   -0.69276331167767    1.79375424662437
C         3.74821259944645    1.50887626226547    1.37372372930203
C         3.07003695207564    0.57964527749729    2.24241571240221
C         3.06862948572026    2.59763455298004    0.90995001167012
C         3.57975405753011    1.30958030457672   -0.98314745375673
C         3.03113224138454    2.53961584403664   -0.56594231720053
C         2.80171125937700    0.46207489542015   -1.82683648924680
C         3.55246956265786   -1.46392993832193   -0.41893488075344
C         2.94374174697200   -0.97670910349424   -1.62312057244976
C         2.62647633020805   -1.77436784406003    1.70424192920982
C         2.84773914970482   -2.41078465285435    0.40994786919848
C         1.32211660692386   -1.68088499974266    2.24216062316754
C         1.70096519397291    0.77102308506752    2.60214344681872
C         0.85572802701624   -0.40315595017698    2.72851534734094
C         1.76757502761595    2.90530417989060    1.37512837206253
C         1.06226797139088    2.02423265884556    2.24349500628902
C         1.77919394202864    2.97284651781031   -0.97182664307723
C         1.09123536610768    3.43353012206743    0.22268294013360
C         1.55479046113245    0.98477002885628   -2.37285185171676
C         1.03825570621663    2.26218431837655   -1.95475378623362
C         0.58002599340172    0.05161743984874   -2.91856989499809
C         1.96582195887374   -1.84272694852451   -2.16864965901650
C         0.77482884481081   -1.33047614146673   -2.81592237199469
C         1.86924161264255   -3.19933462149788   -0.14189547630932
C         1.60133927480019   -3.03202343629887   -1.52068971446759
C         0.37326897690810   -2.64616598922436    1.72798802977407
C         0.61205113772032   -3.37306723631597    0.54436694526008
C        -0.96833350066533   -2.48329341445099    2.06961229771504
C        -0.55911938378836   -0.22786956312600    2.96756574814000
C        -1.38650329425784   -1.38646222121606    2.88105730419653
C        -0.37879344913929    2.13124706669180    2.25087252038102
C        -1.18925845569975    1.06342995473450    2.78040896326107
C        -0.25949461948852    3.51673448878446    0.22688651282361
C        -0.99543175532041    3.03472898292676    1.35496227315717
C        -0.37541987266907    2.59397444088883   -2.03991791397874
C        -1.01155323380455    3.30231326071988   -0.97850048068931
C        -0.76835521281229    0.43328148252324   -3.11911552047440
C        -1.22990362652799    1.74760897754234   -2.78316573502387
C        -1.86511044534817   -0.48426944566428   -2.91735957065215
C        -0.33161465364865   -2.21303634814777   -2.52697951112175
C         0.17698355176959   -3.21775769961739   -1.69275512607634
C        -0.43761019808983   -3.44762454840374   -0.45210664582309
C        -1.65468272226461   -1.75204798306225   -2.33893150069485
C        -2.04698391127702   -2.81805672783145    1.16077119240994
C        -1.75673879759648   -2.98710375430026   -0.21822049416209
C        -2.43969648577049   -2.16205606564497   -1.18844991460354
C        -2.78972928959685   -1.29071334081692    2.70522765745803
C        -3.17495020590792   -2.11723585026973    1.57006786259930
C        -2.59540174982005    1.12752633634673    2.53474800175350
C        -3.38429797047397   -0.05874187466603    2.52654367380192
C        -2.33032243497691    2.86854294953083    0.87881673981578
C        -2.34739811695085    3.03682919228918   -0.55958117792522
C        -3.14896107337884    1.95370675797264    1.49814740473295
C        -2.60715633032068    1.65925609717587   -2.48859908400458
C        -2.98517987813965    0.26729082531064   -2.53394070656749
C        -3.17403140451635    2.20537404246076   -1.32149551088849
C        -3.52902374624770   -1.30717965283814   -0.73236783524173
C        -3.91274601803721   -1.32351018724447    0.64556121916816
C        -4.20330549018315   -0.10010567616541    1.32684853243271
C        -4.07204237838749    1.14740045052783    0.69622311913921
C        -3.75654234277562   -0.06600079519290   -1.40652428013745
C        -3.97998430889709    1.18253300478121   -0.68865901926526
