78
C78 Isomer 2229 Symmetry C1
C         5.75512988277630   -0.20499432425034   -1.70214671512394
C         5.90667939271220   -0.74940356621450   -0.35493451352541
C         5.96681717537419    0.34800665252865    0.52362013754933
C         5.34937140629889    1.17998156021488   -1.56125701085892
C         5.53270863774878    1.55412427629421   -0.23858042812477
C         4.03637606841174    1.35227236584842   -2.14713813237515
C         4.67666813532467   -0.86286156550556   -2.28632893755750
C         3.66914368680818    0.08659055141660   -2.69985367745797
C         4.90589786940234   -1.75423165743452   -0.13811020659642
C         4.21123061796223   -1.90140315914389   -1.40304226666243
C         4.11568145570528   -1.78129148981632    1.05560296213304
C         5.22720014879551    0.31990685675970    1.69561052833597
C         4.33743886758988   -0.74892946067819    2.01063982005932
C         4.48017395525125    2.19152287602586    0.49097215886622
C         4.43898856628104    1.54641558667595    1.75290220160994
C         3.02045421627797    2.09314316171814   -1.49599060898153
C         3.23642119239690    2.52606778192749   -0.12830235803055
C         1.67792879477744    1.85924320253549   -1.93393177434751
C         2.34197776816493   -0.32088547698633   -2.78759158889266
C         1.33155742451187    0.68353528701993   -2.67296259540118
C         2.89137624997820   -2.29870587784071   -1.47114173125308
C         1.97682736310194   -1.64731442060949   -2.38528661826881
C         2.79391021819284   -2.36553839261055    1.00306598001841
C         2.31006192753044   -2.83313490471551   -0.26577027319380
C         1.77416589447641   -2.03584242179193    1.95756219416916
C         3.16801121792317   -0.16139025816574    2.61335094083472
C         3.22637249983698    1.26374739725992    2.38290697736202
C         1.93571990432723   -0.78901813904182    2.64979726486738
C         2.07485946150559    2.58707412257371    0.70446633970264
C         2.06535452506438    1.92040213348594    1.96650692331383
C         0.60638511401225    2.51645000243766   -1.25341224710372
C         0.79555982916253    2.82213627217573    0.11070551206421
C        -0.71398906279277    2.41860313242369   -1.78889920815743
C        -0.02515641980498    0.31436180031540   -2.85341034488168
C        -1.01816012928268    1.33558919613187   -2.68288263905717
C         0.60836653150813   -1.98554897357337   -2.37878974623593
C        -0.40597393789195   -1.06166247999619   -2.80280743926095
C         1.01365938667660   -3.29048977550237   -0.36849792015770
C         0.18972130582041   -3.02216758481657   -1.51963809420867
C         0.44347601598451   -2.56529324682406    1.86474009727424
C         0.14763964908890   -3.36749827050983    0.75267828992628
C        -0.67790502924290   -1.93564852468342    2.53604375125914
C         0.76989762407867    0.03648848145344    2.86867711534448
C         0.83660029302176    1.39259673397059    2.47923776771443
C        -0.50861605681340   -0.58345246358259    3.00245636970077
C        -0.36048512679112    2.88382983858773    0.95592323758575
C        -0.34650663389588    2.11593799828767    2.16873431266499
C        -1.77109896846470    2.97085320180472   -1.05165675719564
C        -1.59915157821187    3.13574371484928    0.35951998249610
C        -3.14426591140993    2.64715639049137   -1.31098783305469
C        -2.34681267970139    1.00444545780648   -2.91472494976634
C        -3.43552497210752    1.75188463588540   -2.33932151316385
C        -1.78901110800356   -1.40695687354840   -2.65487105970887
C        -2.73533223972646   -0.39186821304500   -2.95043845631352
C        -1.16174214975821   -3.18998964247109   -1.16213811741305
C        -1.18222618565426   -3.48925395437833    0.24536950830061
C        -2.20518416369702   -2.45591494856340   -1.76214270901009
C        -1.98802903613078   -2.33108176900107    2.20210647182518
C        -2.24261867490021   -3.07740204004963    1.00380520885311
C        -3.13312453084336   -1.48154540002037    2.36601400906439
C        -1.62930491239318    0.26035486647664    3.09144656867159
C        -1.55171280031909    1.62190842072338    2.66881001595540
C        -2.96535334645789   -0.19107742516405    2.82763512194658
C        -2.84860190748088    2.79275552719952    0.98040910953426
C        -3.83214727807282    2.54530783276921   -0.04201970274232
C        -2.81951422541501    2.00824222065468    2.12422019786150
C        -3.72535930550872    0.89886680440240    2.25977295411947
C        -4.80403170597096    1.55856847560464    0.15840770068943
C        -4.69560994446448    0.67208330191629    1.30070175215277
C        -4.52274293710929    0.84557791517687   -2.17013490444484
C        -4.05912808310286   -0.49221442285805   -2.52582610256636
C        -5.18573633112071    0.75369893717434   -0.95864042663268
C        -3.45945167000921   -2.34621641911033   -1.03532087241076
C        -3.44031176753343   -2.60381016345765    0.36522607511278
C        -4.07026093903634   -1.72108605845607    1.29006718689816
C        -4.89754804145373   -0.69074050768684    0.82811516707155
C        -4.41921349996314   -1.39848354453686   -1.47823405281061
C        -5.18586698332582   -0.65112715436294   -0.54666337996071
