76
C76 Isomer 15523 Symmetry C1
C         4.74232414280105   -0.31990817005811   -0.13274395529388
C         4.58248842779076    0.99929642898186   -0.47971751717661
C         4.13491006223775    1.74081454088351    0.71183662457370
C         4.35359924036996   -0.45127069226805    1.26903601347000
C         3.83280660381077    0.80072177538494    1.72525925845852
C         3.60054488916162   -1.60773171911561    1.38053516223053
C         4.08298020022095   -1.33374196491436   -0.87980928061121
C         3.56440935204282   -2.26021154856323    0.08230772791826
C         3.26492824908797   -0.97087423643354   -1.99370718360334
C         3.76028412022439    1.38634472810774   -1.57521726000317
C         3.02709061460597    0.42332070316999   -2.31485626041947
C         3.21915371521393    2.71131264256317    0.30032081000978
C         3.12003312824019    2.59756895500232   -1.13882273479635
C         2.06644197350983    2.98677602803742    1.07136587410270
C         2.56367153747736    0.86579104351796    2.36553022150827
C         1.79260183991707    2.07175234486343    2.15330935266662
C         2.43643136580694   -1.61201762332739    2.20267360143858
C         1.88644749115883   -0.37158823456517    2.68723877082249
C         1.58007440389317   -2.69804910748428    1.99894689738808
C         2.52726223546578   -3.14101045618652   -0.23414672577968
C         1.65766763595563   -3.52109460347732    0.81979599096813
C         2.24177926965170   -1.88229183917239   -2.31225415043353
C         1.96920311780977   -3.03992074138413   -1.53180286334553
C         1.00706208156828   -1.48925438242058   -2.93358966331114
C         1.72747589451350    0.81402546540688   -2.85508967943125
C         0.67102455320842   -0.13792408462421   -3.12121634354982
C         1.96433618813077    2.99699607969695   -1.73332817018756
C         1.29955164418110    2.13558438455540   -2.67251963696092
C         0.97251092023074    3.67362802898405    0.41981172932103
C         0.98734553496497    3.71960046376088   -0.98748731849683
C        -0.32008160999465    3.78073681645964    1.06049809392494
C         0.48072452318580    2.07328247136954    2.64433255115439
C        -0.52720628425618    2.99386053947788    2.20893794569075
C         0.48044031254023   -0.35779696879861    3.00146953046984
C        -0.15264701854937    0.88367534905307    3.08039344827204
C         0.21931829529195   -2.68852915196066    2.42637331124175
C        -0.39047837948389   -1.50168621323265    2.84650440612061
C         0.36748576416596   -4.05359097326009    0.55686667122901
C        -0.47930888552276   -3.66559016191554    1.65151825430782
C         0.61925433340543   -3.43568983098583   -1.76668162803178
C         0.03613027456662   -2.48435365596018   -2.66065300937255
C        -0.16354534037160   -4.05156643586370   -0.76620743453725
C        -1.34147052090477   -2.19058659123043   -2.66780346090781
C        -0.73383073647955    0.21840848048694   -3.12414361412665
C        -1.72946873525378   -0.81460759932093   -2.93583743800062
C        -0.06968743789734    2.51084159611621   -2.68244234870683
C        -0.22678530227060    3.59485072361573   -1.74062532383981
C        -1.11259987318299    1.59223895410247   -2.90141326267451
C        -1.47326624921702    4.07201884440842    0.27455710189356
C        -1.42753128343000    3.87000769574284   -1.15708943881430
C        -2.74535868839616    3.62299526888442    0.67305427847189
C        -1.79628543043981    2.39152651501331    2.49256488479669
C        -1.57479703703273    1.04866336393546    2.91851571010717
C        -2.91332674411390    2.68912819018238    1.72352307960204
C        -1.81833772391197   -1.33449369302860    2.59401876050108
C        -2.40245822098823   -0.00923008859563    2.53464085228664
C        -1.84297754826339   -3.55078626246101    1.48926152426175
C        -2.51977551897590   -2.37566647458309    1.97415075503469
C        -1.57166680945787   -3.93814297679396   -0.91719261407070
C        -2.15772218604547   -3.05467464490438   -1.90998316702758
C        -2.39500392456378   -3.89809781425322    0.22586776270420
C        -3.58624835429824   -2.08372655497215    1.03237597980725
C        -3.38471690587846   -2.55774495051589   -1.36127341288477
C        -3.49858520772509   -3.01215951214755   -0.01991139854258
C        -3.01198096365424   -0.42361296025563   -2.50415926959067
C        -3.78030190486343   -1.26603443054151   -1.63071228512920
C        -2.42139011380536    1.96691693347728   -2.40521963468455
C        -2.58537924495497    3.12504273324087   -1.58388543539760
C        -3.45449321906666    3.10407032801407   -0.47732800244841
C        -3.33979010372091    0.92968191887760   -2.18524817752910
C        -3.76441354721866    1.61392652171711    1.28019584643988
C        -3.53149688146390    0.28469039412698    1.66375239078862
C        -4.00577271843783   -0.75707696207702    0.77643291841932
C        -4.29054309319488   -0.44097338840908   -0.57253287441354
C        -4.12751562823536    1.92422106201214   -0.09145647706376
C        -4.18654856088626    0.90698938683137   -1.02366564120773
