74
C74 Isomer 11982 Symmetry C1
C        -4.48443042628458   -1.62998498661641    0.19048700886717
C        -3.76989659038325   -2.79613304429733    0.25845142609427
C        -3.19708774385089   -3.05037847302731   -1.08340095564378
C        -4.37305760913123   -1.12369352459385   -1.17222098272927
C        -3.41766262781858   -1.90908220694177   -1.88995010492054
C        -4.21818212704982    0.24681815114863   -1.08720731007903
C        -4.19915435142202   -0.55923374264829    1.09298306603049
C        -4.25173813529007    0.63638329443428    0.31388615443486
C        -3.17036115636326   -0.72404125083258    2.06688942035923
C        -2.74087025006536   -2.98019749453387    1.21643023530150
C        -2.37575503499358   -1.93221525548614    2.11564328469937
C        -1.93000941008330   -3.58228737959003   -0.91698720949184
C        -1.72041863912174   -3.71241498772811    0.52071289918930
C        -0.85914082359354   -3.16374590165356   -1.73865082636970
C        -2.30797426835836   -1.28458356577809   -2.53386345741536
C        -1.05137934503238   -1.98695777744555   -2.55342203865638
C        -3.34474294073401    0.90907153088351   -1.99060640502735
C        -2.31852419313692    0.15460789403080   -2.67949039316357
C        -3.12802810706838    2.25913210087179   -1.65279899073456
C        -3.60279009215993    1.81468315323785    0.71858551868142
C        -3.20876580597519    2.71630326397704   -0.29198268070331
C        -2.53881568825924    0.47562190210175    2.47704283693240
C        -2.81428690006885    1.73264995294982    1.89189541494520
C        -1.18472179068524    0.50978427484174    2.95409666958242
C        -0.98180375897651   -1.85945214480035    2.53522063568327
C        -0.35464128873541   -0.60682044284081    2.94160199631230
C        -0.45316855950045   -3.71574550985898    1.00740326980677
C        -0.09966632439644   -2.85247498136056    2.09288162987658
C         0.45991834935812   -3.51876479032668   -1.26601847716460
C         0.65907199092824   -3.80549019599026    0.11127985813765
C         1.56397183226284   -3.01765522515814   -1.95082782144568
C         0.12564657960381   -1.29654600618923   -3.01446779551469
C         1.36046242564112   -1.96251344900579   -2.91374176385786
C        -1.09499366498706    0.83557811079254   -3.02671896428586
C         0.14339083735092    0.14033385205820   -3.15478122844634
C        -2.07031919417773    2.95278902935676   -2.26166163864052
C        -1.01426858139704    2.24740389128373   -2.85127713065042
C        -2.12711677960459    3.65471266601267   -0.07498480906481
C        -1.52415965682214    3.89336737618941   -1.31723831084026
C        -1.65811983457594    2.58436287926092    2.05560314935828
C        -0.67763760254302    1.83696797149668    2.74755685805619
C        -1.30630926030346    3.55772841286348    1.09458532420871
C         0.69678399019555    2.06604726618918    2.60698845979231
C         1.08585784234930   -0.39005430336903    2.89808554883080
C         1.59505345922051    0.95276462830757    2.79350514718501
C         1.30514941443857   -2.64063582267033    1.98033045679305
C         1.79082365704932   -3.29709896913586    0.80145874113988
C         1.93125751728928   -1.47814069385554    2.46755428756834
C         2.84209476111038   -2.82398361391438   -1.32052630482604
C         2.94145052762201   -2.84932556417298    0.10533449069240
C         2.56880798569029   -1.24939852846318   -2.98761685366437
C         3.49589422919743   -1.79824707254022   -2.03111433506648
C         1.39233883104902    0.85993383986082   -2.97220541258893
C         2.59161004075619    0.14431874500206   -2.86463583837359
C         0.21995986877737    2.89659164799923   -2.45957976801729
C        -0.11268737345524    3.89904554237851   -1.48211743568895
C         1.41160289054299    2.18645176554809   -2.40434193136977
C         0.08312812449850    3.81603294004324    0.95628758693438
C         1.04473449162971    3.14863970961596    1.75555821815126
C         0.67990649930741    3.99599566559814   -0.35806687844136
C         2.40042831421208    2.53993416373663   -1.39946651757963
C         2.26632333878161    3.06887656854524    0.99815294085944
C         1.97186026021685    3.39811546859240   -0.37321775925066
C         2.92282058690831    1.13514849215277    2.31615674286177
C         3.20870485630228    2.14362203834480    1.30811510031736
C         3.23827471757254   -1.25683486934935    1.96036252960539
C         3.72964321096395   -1.88342759001171    0.75109831538479
C         3.74007725081117    0.05371530816909    1.99490749805223
C         4.17460873347155   -0.73616122416255   -1.38925913721348
C         3.64040887741458    0.49812372567724   -1.90821854610841
C         3.49376883193721    1.63592470931498   -1.10169903781363
C         3.98038710378609    1.54314263007072    0.24267286978557
C         4.43052506058351   -0.86545343635086   -0.01325885180589
C         4.43793864757412    0.31544946176140    0.74481831214289
