64
C64 Isomer 930 Symmetry C1
C         4.96996074497681   -0.75496489512901    0.26758261648209
C         4.31174214002675   -1.07528282385767    1.52466072814419
C         3.57900873921985   -2.23046524209795    1.31094027516354
C         4.33376026324195   -1.55685535121270   -0.78760975827066
C         3.61054294899217   -2.55032407631164   -0.14581218795494
C         3.65555940229637   -0.67596942448197   -1.69120520999679
C         4.73755346141568    0.58062482928982   -0.00747894975414
C         4.06969507256099    0.66670961674579   -1.29838198670120
C         3.62727124302436    0.09938107704360    2.00726643438190
C         4.07120518724800    1.17876308782222    1.14395778957006
C         2.26719481146627    0.04168769177636    2.41539791720613
C         2.23910422481991   -2.31145732955406    1.72922318135915
C         1.55998941198219   -1.22289545529010    2.35831934601581
C         2.29731530972134   -2.82903335591015   -0.54668731700149
C         1.53095781548748   -2.96463602022171    0.67033473981222
C         2.30525392699161   -0.90885957995524   -2.07762106259770
C         1.65056633572176   -2.09218249872914   -1.57779954609285
C         1.43053118528182    0.22639821604506   -2.37496905073168
C         3.22877548803466    1.72227718449397   -1.51650195217986
C         1.94198857497353    1.51592762514898   -2.15391620640358
C         3.24221642768177    2.24385841278635    0.91302581464782
C         3.03940329304141    2.68363776101129   -0.45896424918460
C         1.43541161927573    1.22339235549103    2.26966200336304
C         1.97422940913348    2.33102081033014    1.58464374828060
C        -0.00447425140550    1.14011478924867    2.40427510375713
C         0.13048547374970   -1.28369051429526    2.37947213470075
C        -0.66970976263639   -0.09771041070920    2.60959623891907
C         0.17026479785276   -3.00390042208009    0.64284280909848
C        -0.52838377432540   -2.37600356259179    1.72881800564760
C         0.22919025318973   -2.23115346899335   -1.65634513773970
C        -0.44053112111613   -3.04196765071901   -0.66666119475618
C        -0.00916728948491    0.08100085374630   -2.44120016957355
C        -0.56951991824697   -1.23864981528983   -2.30815682993808
C        -0.89254703407071    1.18786023193559   -2.19778495281606
C         1.06214698960833    2.52207087852943   -1.65566446047729
C         1.74019339317347    3.17875307049687   -0.56482758744412
C         1.10616360537522    3.09627882195502    0.71724860170152
C        -0.30761754315578    2.34885463216021   -1.60116714279280
C        -0.81143751981649    2.22763507919047    1.88303853034107
C        -0.25068347086465    2.98396325617558    0.77724042792391
C        -0.99454761233326    2.96517307433149   -0.47587169158965
C        -2.18628428429132    2.21075572577835    1.96437147237024
C        -2.12652813739382   -0.17118660910785    2.55522216665571
C        -2.88826079013266    1.01230383486063    2.38151313394838
C        -1.92839082634556   -2.44353219761907    1.65066227692018
C        -2.76223698432366   -1.36722794324638    2.12549108934232
C        -1.81806678038951   -3.18227045244169   -0.68170548584208
C        -2.54335448065196   -3.07983560018086    0.56049128970290
C        -1.98027412613565   -1.38683908600988   -2.28911957883613
C        -2.57760306120498   -2.48686014905034   -1.65219346529257
C        -2.32919441076631    1.03114593532190   -2.05484796977717
C        -2.88185688882792   -0.25383550948562   -2.18545693304601
C        -2.35179542051106    2.87934689492597   -0.39741301448323
C        -2.95909444276480    2.83672750258614    0.90885582902436
C        -3.08439257394775    1.97584198854093   -1.29029818974366
C        -4.12460218244804    0.98899309695143    1.67500358263493
C        -4.13729605699903    2.11112815467015    0.77292526172609
C        -4.23254330687753    1.57344501727916   -0.57931538533429
C        -3.95683266844425   -1.37030176575071    1.32537013834855
C        -3.78556553605386   -2.37955698931346    0.31525913898475
C        -3.80552994419314   -2.01940058869531   -1.02566535032762
C        -4.02964555035277   -0.66137062707300   -1.41634501977391
C        -4.54072396103788   -0.15937118911771    0.95214478421369
C        -4.59398983801540    0.20551909785283   -0.47686957393459
