74
C74 Isomer 13009 Symmetry C1
C        -4.45994172157130   -1.00847199387965    0.63644599428336
C        -4.50081961671486    0.01758913936683   -0.34582185228351
C        -4.02234234927007    1.22738808888738    0.26577888824390
C        -3.91346245407419   -0.42508944255746    1.84539484301470
C        -3.63100248946782    0.91864428678896    1.64022561337493
C        -2.91227585586800   -1.27650215629036    2.37308452933873
C        -3.77409293934737   -2.21758822140069    0.41792552381537
C        -2.82186933956016   -2.40409933567996    1.49898810629775
C        -3.36683250515550   -2.53860506032277   -0.88063457478786
C        -4.08369607216360   -0.27976278810455   -1.64397723925184
C        -3.66100597169383   -1.61248238096815   -1.90981663524158
C        -3.15588472262453    0.60339878088672   -2.32137673760599
C        -3.26680791203619    2.14737302741706   -0.45680505026485
C        -2.72341852411545    1.80436114129097   -1.76782017420794
C        -2.53542267842558    3.06232725345204    0.34265581084362
C        -2.48154481332791    1.51675463335792    2.25150020428695
C        -2.10855463547904    2.72882794071245    1.68843360309471
C        -1.75991081156815   -0.71105165314633    2.97749780290006
C        -1.48369258741642    0.70337342159821    2.92806778457441
C        -0.68222208102606   -1.59275818388574    3.06039077074605
C        -1.57745417395222   -3.02405170527563    1.26698607672597
C        -0.60126003416876   -2.74993086432830    2.23017350670946
C        -2.03033529649006   -3.06278742046474   -1.11663417289547
C        -1.12298897089064   -3.31402743968444   -0.08554382542757
C        -2.52987226365152   -1.56298116254005   -2.79686473293176
C        -2.20698379419235   -0.21996644612814   -3.04017508806086
C        -1.54571480174832   -2.47138023978915   -2.32667908632128
C        -0.86279385981485    0.14615453491391   -3.20111999202119
C        -1.41368177869724    2.31511810547003   -2.16586994714675
C        -0.46438911372377    1.47825695322591   -2.86203294163812
C        -1.52525149869922    3.81170736190560   -0.23740949203162
C        -0.88391893643189    3.40049326684731   -1.45281891648701
C        -0.79855835439736    3.26642355082926    1.89122469483854
C        -0.50817349980775    4.05572116347399    0.74996631204894
C        -0.12239987688997    1.16169647897792    3.01877064696522
C         0.20923494418062    2.47987743907052    2.49998439850160
C         0.64230101745620   -1.13973259467216    3.30760112371971
C         0.96556074586221    0.22224884194810    3.22104292994378
C         0.77355581163617   -3.04587118217706    2.00719607927562
C         1.52637537111864   -2.16835754650632    2.84924751597380
C         0.29591429961519   -3.30793239649191   -0.38573924317189
C         1.23376539900922   -3.37416100901571    0.70969041693811
C        -0.19659170812311   -2.18684214726576   -2.51853680861390
C         0.10255247092720   -0.93265680267027   -3.18457085024038
C         0.76203566421162   -2.78898216275358   -1.63576958940987
C         1.42519710261646   -0.58083162783919   -3.31064758158013
C         0.93945542843977    1.78347610952960   -2.81461900447245
C         1.83222553420637    0.77897988069659   -3.23985944294462
C         0.52951402742097    3.58041163096875   -1.26429490677024
C         0.73729509968654    3.99417175345960    0.11318138896357
C         1.46890738806928    2.77237966445877   -1.90301729760765
C         1.52837114457282    2.72326417417421    2.04350427493687
C         1.78185389791658    3.45049083153184    0.83714907270774
C         2.33655337584068    0.51893658017835    2.80797794508718
C         2.56891786979390    1.75306702874946    2.15413142344313
C         2.84088172788486   -1.87634885837730    2.54705814727445
C         3.25432603373809   -0.50387111017467    2.50877031261622
C         2.61695355652440   -3.14637131471911    0.47092090105378
C         3.42437616144138   -2.55872703377346    1.45649959055184
C         2.15699508759309   -2.45691836058168   -1.83408898014047
C         2.48082553337542   -1.42604336898438   -2.76927809720178
C         3.09601165400892   -2.69668991714945   -0.82115822919742
C         3.18277689038481    0.75879848293652   -2.79990956660164
C         3.59642655391458   -0.61335758234074   -2.58760893045573
C         2.74901602995770    2.54006222158747   -1.22995012442771
C         2.85302445073288    2.81934124715423    0.14236300576203
C         3.44603725581767    1.87078020582900    1.04101458825529
C         3.60031820988195    1.50634172386875   -1.70156937824184
C         4.20522808267018   -0.38013074231236    1.40430294968244
C         4.33140598697789   -1.64060544364923    0.80249197972017
C         4.21483596027550   -1.80546266642663   -0.60162313852698
C         4.37773708126388   -0.67359732457820   -1.40160633875669
C         4.22197409264978    0.78172333692392    0.58223923330896
C         4.36943110091164    0.63706740443713   -0.81463002285233
