70
C70 Isomer 2046 Symmetry C1
C         4.58337770703251   -1.99188851736251    0.14797380414417
C         4.96953696780139   -0.63035493682251    0.04089735103524
C         4.49457557833645    0.03834568447766    1.21048231186264
C         3.74309598311495   -2.13174295595910    1.31646113004732
C         3.59829693328918   -0.86090533833105    1.93288643762254
C         2.58238593077199   -2.82614424803535    0.93586308976344
C         3.78505177833651   -2.32052713689195   -0.97360134483526
C         2.60048966208056   -2.95626258514393   -0.51558891245284
C         4.54290928812131   -0.14332693706035   -1.24851783216746
C         3.69418104631830   -1.15414111285873   -1.83347033709398
C         4.16008910053306    1.18742294486674   -1.34636013745327
C         4.14033692123193    1.37147143496909    1.10127373432790
C         4.22284329466361    1.99517553985344   -0.17605275722536
C         2.96514326435785    1.87076053862414    1.79540433812598
C         2.32507490264326   -0.41779139379559    2.38606075658663
C         2.01703925077025    1.00574405095438    2.37592533554620
C         1.36625327869962   -2.51138580053528    1.53600764710133
C         1.21959464684957   -1.32715595774931    2.32934686803849
C         0.22472444537626   -3.07221590468110    0.86683448833009
C         1.41441362213402   -2.80534405566144   -1.23242455186300
C         0.19637754238461   -3.16455161302714   -0.56056381808064
C         2.45442472020279   -0.81867513976317   -2.39157062573626
C         1.38563519374754   -1.79834685643609   -2.27033350210595
C         2.95078598929283    1.55445063635616   -2.04838461008593
C         2.07721346713482    0.58499068762053   -2.54031537117952
C         3.16487964738758    2.95530239420823   -0.25364883933405
C         2.51843039213148    2.99758158925712    1.01546995273038
C         2.38914946850516    2.73355866372122   -1.41040786269328
C         1.20432551009480    3.35316227005974    1.02809325827972
C         0.62252824526406    1.44106260858746    2.47492189802480
C         0.30036677996424    2.69543960134583    1.92471763982216
C        -0.13186313283601   -0.88169975058048    2.61693428164651
C        -0.47464356979306    0.51900451642184    2.65641235957631
C        -0.96714298017625   -2.93892117425249    1.56194455093521
C        -1.15757947318694   -1.81094880941811    2.43696183360379
C        -2.18978807489560   -3.18464069369222    0.91056295760358
C        -1.06046336031428   -2.98865010892389   -1.22630612570696
C        -2.27562111320947   -3.07824688230739   -0.49594810710961
C         0.13285780052065   -1.43498338915680   -2.72261612203450
C        -1.06647143219563   -2.10164585764504   -2.32752983921736
C         0.68044785006918    0.96346227832631   -2.72312149657291
C        -0.20640790008997   -0.06678695998289   -3.01895572458925
C         1.00290637572792    3.00459226559807   -1.39814273959493
C         0.49613677293192    3.56904747480995   -0.20441461325774
C         0.10557327652541    2.18126731057235   -2.18391652952655
C        -1.00037204304776    2.95950603638876    1.44316194892850
C        -0.87122958297558    3.44544068646662    0.09705603196145
C        -1.85349160726453    0.92280866116187    2.44804671972147
C        -2.10149725896391    2.19663341124154    1.82552598901074
C        -2.54362740560304   -1.42562609194093    2.32698746964447
C        -3.19742472329223   -2.35305409161023    1.49217434771693
C        -2.91676063940536   -0.05423494625608    2.31433955676279
C        -3.44619778580209   -2.29255610491340   -0.80887677164200
C        -4.05850442617742   -1.91846458830898    0.44750368784251
C        -2.16245305876414   -1.22237843618988   -2.54972419646448
C        -1.61268802457798    0.05796548528946   -2.90492194498266
C        -3.38781040668911   -1.32285420636406   -1.84735640308255
C        -1.30546810157646    2.29954615391499   -2.00928251376706
C        -1.80270648985875    3.05807503878220   -0.87864934894700
C        -2.20749121215192    1.26449015402468   -2.49208359472008
C        -3.24837945161847    2.44326622264500    1.03045190076348
C        -3.08489779728225    2.83541621141282   -0.35480912108547
C        -4.11978057912072    0.24666474628504    1.61008606380534
C        -4.65272676690885   -0.68195260621654    0.60942019159432
C        -4.34033738198204    1.55055945802910    1.07558321429637
C        -4.13967334893033   -0.12252452459890   -1.72326719229472
C        -3.54651450598147    1.16816807881055   -2.04517032640506
C        -4.06596290866388    2.12709267152215   -1.11542434812563
C        -4.94422513858911    0.08037991370842   -0.56682126810646
C        -4.94225095242296    1.46807429215944   -0.22519431726302
