74
C74 Isomer 11488 Symmetry C1
C         4.67554180176028   -0.09105136550325   -0.20925537957812
C         4.24476190134043   -0.14815137094559   -1.52542014938450
C         3.79040038185947   -1.50625040664991   -1.80811667663365
C         4.46152021620705   -1.41914412311811    0.38810617252245
C         3.94272583230767   -2.27765949148087   -0.61791478262018
C         3.79141622679468   -1.23651307909635    1.60279635842926
C         4.17125310880401    0.89922910684273    0.65937462928143
C         3.74269704033847    0.19095063693468    1.85323277537458
C         3.37349705512382    1.95347910818751    0.16099024646577
C         3.26278942516148    0.76275211605457   -1.98128746770235
C         2.89434276812054    1.86911269032079   -1.20116729383197
C         2.54094140068922   -1.40847385979075   -2.42844014613238
C         2.22147744722826   -0.00826398354594   -2.60827705371373
C         1.49155601681520   -2.32312355901880   -2.13453130138163
C         2.89436144751111   -3.12044231601097   -0.26012667112675
C         1.76482333855562   -3.27667508775118   -1.12948081934857
C         2.67831133183491   -2.06533322421258    1.97666512838305
C         2.37374573269663   -3.09815686657263    1.07747822250358
C         1.57795182643898   -1.50157406067968    2.75275462332219
C         2.72651931864972    0.68733862198848    2.61986702935471
C         1.66352949863325   -0.15201542525687    3.10462869980924
C         2.51819577094685    2.61549826046726    1.12012886590232
C         2.18694932301192    1.98174207707074    2.33613245600032
C         1.57306949784681    3.52798930005370    0.65649242354576
C         1.65646725658314    2.49672577893780   -1.57899319823884
C         1.26371010205189    3.58705599655553   -0.76950990256552
C         0.90490543453821    0.42854247929532   -2.67084752229996
C         0.64047319571537    1.80936954954798   -2.32453864235775
C         0.13378378418896   -1.92204512765478   -2.38836625510923
C        -0.15345453734840   -0.55621466692117   -2.71926942413695
C        -0.92384351563813   -2.77377519330458   -1.89074753616781
C         0.68014489142706   -3.76035327741527   -0.33421585502708
C         1.03547148911962   -3.60486499638445    1.02357560796088
C        -0.64987734959101   -3.66682084433641   -0.77445895292081
C         0.25218195331123   -2.07118176734110    2.74944217946105
C         0.04499795474421   -3.25298542831874    1.95911820487670
C        -0.89587892303790   -1.24576559137452    3.03407730189314
C         0.51014139136983    0.68276361641590    3.22770155680096
C         0.84586760027802    2.00742696575669    2.81396341465244
C        -0.78886919904916    0.18743858576712    3.10206276892817
C         0.38189882114827    3.83172200148137    1.37622330189630
C        -0.12455407733087    2.89657309448624    2.33049650670304
C         0.01677698071920    4.15790845062671   -0.92507475435035
C        -0.51000720325228    4.40640290235530    0.42983047255931
C        -0.72136943999492    2.27377036860630   -2.30766432094416
C        -0.99711645991471    3.52844907874831   -1.69075044914888
C        -1.50212288207768   -0.08041558912966   -2.70584471303288
C        -1.79421809511184    1.30737982053244   -2.41782965008118
C        -2.23863394873897   -2.37433183140180   -2.07935659376883
C        -2.52628667415736   -1.04371618132791   -2.54667612729816
C        -3.29920369093763   -2.77664500926349   -1.16416314110780
C        -1.61664119498295   -3.89161326098796    0.21533537086923
C        -1.25683592133402   -3.64820107191738    1.58869316232643
C        -2.97781150450708   -3.45414891488280    0.02490895680662
C        -2.18709667185463   -1.75664798919800    2.77016564190754
C        -2.35710032715097   -3.01796809418064    2.19350685958302
C        -3.46139043649788   -2.95235304575397    1.25073615961980
C        -3.24998468904049   -0.89993881603159    2.27847421157526
C        -4.04915775752593   -1.67008372859545    1.34849076019339
C        -1.82794160782103    1.07748103704832    2.62115686259175
C        -1.50356763942085    2.43557430098940    2.27473317440895
C        -3.04218230246798    0.47163187055649    2.10813628375103
C        -1.83678012755104    4.09388653902829    0.44073299631440
C        -2.19981586888849    3.70273039646903   -0.92439237035712
C        -2.36404337549471    3.10319535101988    1.34669303254451
C        -3.02442265547415    1.58027223694740   -1.73418744822788
C        -3.73471836259914    1.09680935068804    0.99694612062814
C        -3.08669585872484    2.66371040325284   -0.81691733450941
C        -3.30152113732780    2.36412496254208    0.60059083891320
C        -3.78635570375407   -0.68894698721430   -2.01199203716731
C        -4.21052323612414   -1.71639353221445   -1.08324866144666
C        -4.51326372286152   -1.07760393305646    0.16065780067145
C        -3.91647636848007    0.54978577705831   -1.39780336537813
C        -4.33643609780677    0.32002026520680   -0.01223118223483
