80
C80 Isomer 19781 Symmetry C1
C         4.52266077695390   -1.38757545596219    1.67403258852221
C         4.87414848474576   -0.06550617655441    1.47479476096643
C         5.18924878239039    0.11570528549982    0.05600320336542
C         4.52687029419130   -2.02588886757090    0.35510945846117
C         4.77631339558613   -1.04456967127678   -0.64677601608666
C         3.40806079188776   -2.83622426881412    0.27996012904290
C         3.30908100444204   -1.71993492606849    2.31185851996745
C         2.70926443301048   -2.78673818748258    1.54701378887648
C         2.44473749626161   -0.71892935282733    2.79554331990373
C         3.99602318474810    0.97378702815010    1.86141848495221
C         2.79923349711713    0.67010653376830    2.54449468945354
C         4.73083042239432    1.38511478296329   -0.31062518193408
C         3.99508383057693    1.95767414194706    0.79419952594499
C         4.23915402796320    1.52181881871476   -1.62200883816891
C         3.86803303578638   -0.92365356321263   -1.77152523029383
C         3.73366733179616    0.34868683743985   -2.32650437259106
C         2.64090247678650   -2.87850804964894   -0.92472750282419
C         2.74524802300429   -1.83367356439743   -1.90826092200737
C         1.44383373999140   -3.54775368222372   -0.77880244136351
C         1.35628801267273   -3.10308520948662    1.63679574759836
C         0.84079749318260   -3.78493712538470    0.51499589277471
C         1.05422600496133   -1.09863567292888    2.96050242700021
C         0.46312154418307   -2.29774516531795    2.42932113503191
C         0.17797836979563   -0.06912466514126    3.27397697880425
C         1.74966028158233    1.65668073197598    2.45586320950971
C         0.53454403814110    1.29945536173473    3.03412954488101
C         2.88597401565830    2.79019115329216    0.56347090763391
C         1.74968364757081    2.70318605960203    1.45343948975296
C         3.36169627024568    2.57353833017807   -1.84855907440857
C         2.67664192463364    3.21070754114391   -0.78177159776320
C         2.51328508449543    0.74205991805693   -2.99437311592513
C         2.36833405083544    2.13679179802102   -2.81369516836130
C         1.53028314106554   -1.42942044802659   -2.57374852913201
C         1.36672496047879   -0.07270253764280   -3.02663019787789
C         0.38368865866066   -3.37353732848177   -1.69826821478231
C         0.33182860726662   -2.21790480803187   -2.48923356904716
C        -0.53519575998171   -3.95438476903643    0.35430677848979
C        -0.78416026864822   -3.90068598327340   -1.06614879841423
C        -0.95791054980434   -2.40529218725569    2.22812176624461
C        -1.45913718675160   -3.35999949788964    1.26166173263561
C        -1.22754693116951   -0.18851618971251    3.15387500235101
C        -1.83659063597773   -1.32150276082344    2.60747062217512
C        -0.66580873651894    2.01308156596232    2.80932347836039
C        -1.77033286705251    1.12821605804803    2.97319705808723
C         0.49748295015929    3.25438556057456    1.05411970644905
C        -0.68769313775788    3.02527137942641    1.83182823636355
C         1.33927026674287    3.40894425791858   -1.22909556974342
C         1.14154463199367    2.67248770876091   -2.46239346727760
C         0.28534011358849    3.51831530329070   -0.35025808628831
C         0.05146136442260    0.55080166813490   -3.00509558678943
C        -0.04028049149608    1.93030549578550   -2.66453068966067
C        -0.98847050447573   -1.65903946766607   -2.77151054258557
C        -1.14996881531442   -0.23124413988397   -2.89577103058033
C        -2.00820649851401   -3.55193357065116   -1.54260913084942
C        -2.11875708572641   -2.42244483309331   -2.43869227668354
C        -2.77606984067273   -3.22472246120093    0.78535701528680
C        -3.06250712390241   -3.48070817382356   -0.59292825950151
C        -3.17092954279371   -1.13207728117230    2.05076496766401
C        -3.63680720858236   -2.14431908016430    1.20438237647532
C        -3.01995832522856    1.36172119901940    2.39200520291010
C        -3.77711486840300    0.20082253088291    1.95222906195321
C        -1.95510160286207    3.32291792375554    1.31617577271303
C        -3.13354695115159    2.62678499500249    1.72840048227913
C        -1.01513150976939    3.36810876671997   -0.94585135762025
C        -1.20679093241371    2.48004070100038   -2.05833056131310
C        -2.09926136118275    3.61381858753079   -0.09909636788619
C        -2.41297054282141    0.40555503954662   -2.61995090247568
C        -2.44969920714058    1.80721234127011   -2.25158945216842
C        -3.37648379541406   -1.80153468326919   -2.14656592519927
C        -3.98513967291503   -2.52080042698665   -1.06048142812556
C        -4.47053497524850   -1.81569608902494    0.07208424144454
C        -3.54769309300934   -0.41472656902503   -2.24612352930705
C        -4.73337818391510    0.42396156799124    0.93338148324269
C        -4.87722922346249   -0.53064005921312   -0.12591794699819
C        -4.56702067724509    0.13079319472986   -1.39347441055205
C        -4.07996779308430    2.76568646589853    0.67272177725487
C        -3.37980280909071    3.26784010103951   -0.51120470743554
C        -3.57824556139824    2.35071074592533   -1.57871223819501
C        -4.84255494436566    1.69457522482537    0.29068427524585
C        -4.62725124670851    1.48745424411963   -1.15017260185195
