74
C74 Isomer 2246 Symmetry C1
C         5.57814557724113    0.78232749326540   -0.18198303782267
C         4.86924842031824    1.78946918001744   -0.93648881463211
C         4.28384755377804    2.64096691886399   -0.00812695367467
C         5.11903202245327    0.85364387937430    1.21556098557007
C         4.40540615521917    2.03762049285367    1.34557442983218
C         4.49061209335712   -0.37625496323567    1.58446605242969
C         5.18221841971236   -0.45556000217640   -0.67055376971828
C         4.74155497130750   -1.25454767861501    0.45523546850377
C         3.99736615867269    1.12353879136832   -1.88958721032337
C         4.25479462004702   -0.28428525526777   -1.77597528988547
C         2.66935389339918    1.54660516689048   -2.09413131003642
C         2.95379502312500    3.04963903377448   -0.17279067989739
C         2.18098997558754    2.64763286764309   -1.29176522194606
C         3.12279817817388    2.03311322469893    1.92199201515534
C         2.30803932319104    2.89356504152686    1.09581584112102
C         3.19272758385793   -0.41094955733447    2.18428262616016
C         2.50940084630847    0.83853220742811    2.40484484869581
C         2.35861871366482   -1.59400945952184    2.01478796577238
C         3.88606262019398   -2.26259659209368    0.18360089293830
C         2.84162649415657   -2.59691220860086    1.13348188776251
C         3.25168301496400   -1.23918778789856   -1.99771642242364
C         3.33116688681007   -2.40508664517614   -1.15992617110398
C         1.67847298475080    0.58434909917762   -2.54530385250309
C         1.95083161256508   -0.81889715355886   -2.48308462286737
C         0.32932861670392    1.03406873301901   -2.73252596034380
C         0.79066721854451    2.88252872463391   -1.19689207385792
C        -0.05008530277248    2.31239935590240   -2.20365219120157
C         0.94236835911787    2.90636346923622    1.20424873150804
C         0.17126480189740    3.22076854105679    0.04207617999853
C         1.08370860321607    0.86573231939034    2.58190318084063
C         0.36803634010887    2.05464007445926    2.20656625891485
C         0.93460649763353   -1.55873391647625    2.26517426946594
C         0.30956324776562   -0.33270072526470    2.69006453031628
C         0.04966291301090   -2.50212164053664    1.63308800873048
C         1.94217820063144   -3.39710942222340    0.41669465994358
C         2.20966486904721   -3.19349617028322   -1.00781332073988
C         0.57243468104928   -3.33021401421990    0.61387718242696
C         0.81654226697020   -1.71535929961825   -2.38034122527411
C         0.98328494262052   -2.90537352508747   -1.63874221061470
C        -0.03865934380074   -3.24124976076711   -0.69918967624531
C        -0.73368982580156    0.09239243282506   -2.97983322704044
C        -0.53211031612830   -1.26069469873042   -2.56067771069872
C        -2.06330545510393    0.55295493551978   -3.08320510423840
C        -1.39805625831610    2.69111709294965   -2.17582295328583
C        -2.34915885303503    1.90522505113031   -2.82925187063169
C        -1.25221730976055    3.27235604160525    0.17129548257275
C        -2.03733054362725    3.19670457677314   -0.97889661163528
C        -1.00637501713779    2.09651851324011    2.31077963506169
C        -1.84315096366574    2.83168540817533    1.38662062975202
C        -1.12583346561090   -0.26264169021206    2.81911633434491
C        -1.74311490367993    1.00266996757598    2.80311678786569
C        -1.36866085130030   -2.32620805246697    1.58320033103038
C        -1.98770358555146   -1.35882411714588    2.42989573431887
C        -1.31680312021407   -2.77885583811758   -0.83441187400800
C        -1.63943226377993   -1.93360938327904   -1.94177843379924
C        -2.07456351429530   -2.71132095334995    0.39269914480345
C        -3.21159859540886   -0.20740410975150   -2.63782496402710
C        -2.98311718043155   -1.42436018081785   -1.98705764114842
C        -3.61238476764489    1.99264848204891   -2.12059663515449
C        -3.39771935262552    2.71619886329204   -0.92876141255313
C        -4.20986407351507    0.71778065565629   -2.11320616543236
C        -3.15153258260888    2.31585038102412    1.44991121703457
C        -3.11130885949465    1.22207738588028    2.40514459103582
C        -3.98717191154714    2.24417625193995    0.28706552118538
C        -3.38520494569871   -1.16933009569271    2.32162652417960
C        -3.97341829060671    0.16643085677825    2.31209553370753
C        -3.42430509372496   -2.44269294823867    0.25859446372821
C        -3.92639007754909   -1.83228850457292   -0.98211052186478
C        -4.12425614630816   -1.90008955051872    1.35194318040212
C        -4.99373471314228    0.37288748399134   -1.01536701963252
C        -4.90504852722026    1.16442653229416    0.19734308913822
C        -4.99809674647316    0.22748000753173    1.29629113214530
C        -5.00964447630427   -1.01182820556850   -0.63398604566261
C        -5.16805746728671   -1.06829142839332    0.79730285753177
