80
C80 Isomer 13282 Symmetry C1
C         5.68091007268019    0.52128245307695    0.05848922553723
C         5.66152808629578   -0.84945448943999    0.15101479285035
C         5.02104688210543   -1.39350029022718   -1.08197300511513
C         5.22559113224600    0.84543772200635   -1.31122701583604
C         4.60551036111226   -0.32491744531177   -1.89418938423814
C         4.52918528188076    2.01434474700187   -1.23570491975040
C         4.92083491743478    1.32968873000866    0.98356255334999
C         4.40220967007555    2.38099574255951    0.19065340105036
C         4.04297959289771    0.71786050980197    1.95107783827905
C         5.03928059259673   -1.44974889548466    1.24975183422522
C         4.18965235476432   -0.68881972159210    2.12259710753158
C         4.11717892778278   -2.39180483404112   -0.69546968696428
C         4.25177035772968   -2.54409358001584    0.72637348738009
C         2.82328428750771   -2.43404920809577   -1.28428639879780
C         3.25466671763985   -0.26532330158174   -2.38460062251474
C         2.37929623870215   -1.39908242559126   -2.17818737386403
C         3.25506337074057    2.14141573809145   -1.84679294058608
C         2.61781489024838    1.02467586984718   -2.46195588289148
C         3.11992190280319    2.86406485932309    0.36683518998406
C         2.48719746845737    2.92347892443524   -0.93249115287130
C         2.71095678918029    1.27004368964735    2.17535310030323
C         2.29063280752185    2.41688822726904    1.42881403773639
C         1.63256859013962    0.45657085443731    2.70203420671875
C         3.02928181593821   -1.49380563056687    2.37935677586370
C         3.09995131801878   -2.63626706822232    1.49380949937724
C         1.77813134650611   -0.96615038698142    2.70874502439958
C         1.81524116609438   -3.09040593677473   -0.52112971622170
C         1.93364679599894   -3.10468611756891    0.89905154999667
C         0.52173553209479   -3.23620354465901   -1.07726133888677
C         0.96487640297836   -1.30551458667940   -2.48408201415113
C         0.05942700476911   -2.36144118605991   -2.11174733884667
C         1.20239395589812    1.11922693105403   -2.62672420112435
C         0.39318500147123   -0.04190863750101   -2.84625014430677
C         1.12771761883562    3.02040900992574   -1.05204414557851
C         0.54100681264456    2.29616476756050   -2.14431003822174
C         0.92132623277598    2.79352063835721    1.34440438704057
C         0.35312706134073    3.27775341442199    0.11789580093484
C         0.31117803839749    0.96583750495551    2.84304249853966
C         0.01692663021617    2.26188536006608    2.30433818525548
C        -0.80706057987266    0.07144177649110    3.09233435481729
C         0.61699610390485   -1.81725276557375    2.55331955707577
C         0.76051352412968   -2.95028205900151    1.69788750115443
C        -0.69523705308346   -1.32783281835490    2.79237708228223
C        -0.40481099211960   -3.87010406124391   -0.22560665865733
C        -0.35358008944859   -3.58663358346625    1.19860692269778
C        -1.73958984287118   -3.91872684722200   -0.58290733959824
C        -1.36595382591185   -2.26836916985945   -2.35590225368418
C        -2.23583487060529   -3.14348324839866   -1.65802676433224
C        -1.03359834097651    0.09763311613788   -3.00263148419275
C        -1.92911890101290   -1.02534136552224   -2.84140245547211
C        -0.82351865304988    2.40872423457078   -2.26731704069018
C        -1.59207182771082    1.38368126671304   -2.86668735776976
C        -1.05493370640753    3.42733338799886   -0.04464625006913
C        -1.63328092553462    3.10517824019736   -1.30613026290142
C        -1.31028637402592    2.71652217019385    2.25905133785497
C        -1.88161249915825    3.31630821188757    1.07596817435048
C        -2.10881824942402    0.59783352504434    3.13796571878254
C        -2.31993139724208    1.96939185569012    2.86998475063199
C        -3.26468217915237   -0.11542751955926    2.64049480839237
C        -1.86959011010884   -2.06869162394419    2.36012947853760
C        -1.65724178248006   -3.26009098592408    1.64224599944554
C        -2.54254678382780   -3.63825565060354    0.58787188506448
C        -3.15188455464537   -1.41449401204181    2.15127031150573
C        -3.54534237692380   -2.71554853794540   -1.23631613287583
C        -3.63786186849030   -2.87439227361677    0.21155707277510
C        -4.04644403218317   -1.80297548203322    1.05561838328176
C        -3.30846115281815   -0.76766060056092   -2.66805303527468
C        -4.10918972448529   -1.61264918900791   -1.81301537971202
C        -2.94328121604724    1.62685928203015   -2.47408779208773
C        -2.96121574946627    2.63538324006799   -1.43327355298208
C        -3.81830631225189    0.56948556784506   -2.45560940758270
C        -3.25229639686710    2.89745548788349    0.95959393050393
C        -3.53195542474591    2.12209183396767    2.11081318159293
C        -4.15425790272015    0.85708718373096    2.02212147222460
C        -3.81039287912068    2.50517314618553   -0.29379903200074
C        -4.84851143219784   -0.82523564398181    0.42714225483027
C        -4.94262164010081   -0.79830713242521   -0.99258022485629
C        -4.79807913839111    0.55078521680123   -1.41833339788303
C        -4.84101056442557    0.54585516207620    0.86440918143684
C        -4.72333230465114    1.41116225732160   -0.29121071220318
