74
C74 Isomer 8437 Symmetry C1
C         5.02599281683294   -0.32437363016815   -0.46326813817318
C         4.79836036075899    0.99934042572006   -0.17365870349168
C         4.02229170947338    1.57183312913947   -1.28169094004979
C         4.28580825914898   -0.63756466306526   -1.71450678748912
C         3.60573397166482    0.52935095440894   -2.16040184065913
C         3.54978316534909   -1.79832367386705   -1.47652909399171
C         4.70528707742234   -1.31541340776334    0.49796462020792
C         3.88942524429266   -2.27888202897637   -0.15799797756368
C         4.07043343768732   -0.96351785432898    1.73141429941350
C         4.17110940117009    1.40433993438213    1.05721280858280
C         3.84108230759297    0.41136138279849    2.03325041480467
C         3.07997909020371    2.41927451700632   -0.73493170429760
C         3.19686297262107    2.38777471262822    0.71260686898248
C         1.81251376709145    2.55818877041010   -1.33507788000805
C         2.25366131737842    0.47181970084484   -2.57735300940494
C         1.41371479016868    1.62068441557428   -2.33453594574653
C         2.21205042411142   -1.91180600746095   -1.92519610738288
C         1.60089925291332   -0.81641959165810   -2.61662833049507
C         1.36221183382970   -2.80279604376160   -1.17026430243136
C         2.85963514591034   -2.67012944135720    0.73218149843670
C         2.99329316360951   -1.90541608869208    1.93642716253472
C         1.60547471735605   -3.02401945076171    0.24160407026208
C         1.82947906383042   -1.60802038199624    2.66323508932755
C         2.69608939446443    0.68862467003939    2.81988044976197
C         1.79343011497531   -0.32523888560670    3.25060983012490
C         2.05146951917227    2.65468927979379    1.49262104032793
C         1.91731783690819    1.87736449729469    2.65139352781473
C         0.83326998116216    3.26183735876861   -0.55789393280532
C         0.87373836655858    3.23540185988398    0.87825662334484
C        -0.38346365252749    3.47843841023302   -1.21168917858702
C         0.02461488919850    1.57611389373020   -2.71511354211750
C        -0.78899347150745    2.63909177186043   -2.31758294774693
C         0.19433720444018   -0.87814318712153   -2.90785739317401
C        -0.59109829313533    0.31954550901063   -3.08183171942314
C         0.06776707231297   -2.94912341576330   -1.61767759058232
C        -0.48217350806406   -2.06828741980910   -2.60305499172491
C        -0.98737269268797   -3.42996752468460   -0.77973790287806
C         0.48413518704616   -3.03213772496004    1.14740862987825
C         0.57780200527083   -2.26706687394458    2.34923051470591
C        -0.79840831213803   -3.41410992494744    0.62346839517231
C        -0.64615567041574   -1.77210769411665    2.95263865803781
C         0.53712007550699    0.28426082023746    3.55555082738521
C         0.61096544671441    1.64914764289829    3.18917951651456
C        -0.66692065962042   -0.42806928498055    3.51030524783178
C        -0.36874276287110    3.24243693511195    1.60233180109627
C        -0.51178552705327    2.35913784322743    2.74220863344632
C        -1.52042524714741    3.80535221896792   -0.46601091288646
C        -1.56133946133408    3.57596337713180    0.91614015141419
C        -2.22128059515884    2.50189593609176   -2.23148658404652
C        -2.67797771668518    3.20048212981218   -1.09189382294910
C        -1.99416632984066    0.21319066028722   -3.02248960920110
C        -2.80690542230116    1.27772809587058   -2.49853763621295
C        -1.90110119614368   -2.14565745989777   -2.47191214857718
C        -2.22002033656290   -3.03299223181553   -1.38000891089950
C        -2.65316555561677   -1.00840042521519   -2.67451448846179
C        -3.33854848733835   -2.77579779546212   -0.58882267303357
C        -1.94991400599133   -3.18746640944714    1.41077444515444
C        -1.86522519691199   -2.30990992659393    2.54786186699642
C        -3.20476425363638   -2.98605888488106    0.79566651226805
C        -3.09387273562593   -1.52902108527985    2.57821207621894
C        -3.89056039091859   -1.91306406454632    1.48327817358927
C        -1.82307670532939    0.37004210598252    3.39459189478178
C        -1.75147913349356    1.73096894514635    2.99471064992031
C        -3.04616114003027   -0.17918271801101    2.87338328840636
C        -2.82346814814681    2.90059656210646    1.16233758901410
C        -3.46205514215871    2.58636546548777   -0.10822374649481
C        -2.90979191128809    1.98878308645043    2.17590020890976
C        -3.68301411882055    0.78102422760655    2.03007454326981
C        -3.79793508880030    0.73431695520551   -1.61625798036499
C        -3.75997776154136   -0.69554035801086   -1.79488027530326
C        -4.09557014985818   -1.54607393300991   -0.76847763702140
C        -4.37817296764899   -0.98498674871570    0.54231200891630
C        -4.05233801546913    1.30879707972965   -0.34491830744100
C        -4.25371862032915    0.41352095979849    0.78469075626261
