74
C74 Isomer 8957 Symmetry C1
C         4.70254348495523   -0.54669764531506    1.13582289023646
C         4.94885736570243    0.48677404400122    0.24115702474403
C         4.43307635789952    1.71444062579352    0.82280537833588
C         3.92096402485388    0.01137351247814    2.23480804006664
C         3.71244083516493    1.39902045053781    2.01375774618273
C         2.82601390260075   -0.82625406765906    2.47052521664832
C         4.05962820875658   -1.73810503141749    0.70782382175480
C         2.95694636255547   -1.98179551266693    1.60064101735797
C         3.82215587645590   -1.92266942766685   -0.65361736890022
C         4.46992291161439    0.41147095958930   -1.10764544846596
C         3.98153289567391   -0.80366884988527   -1.56193943362933
C         3.79028279607837    2.41967157381273   -0.21312088167563
C         3.71173963968127    1.60477451878480   -1.40822508337302
C         2.70562999089789    3.19043068547893    0.13647617295629
C         2.42421600727439    1.95179741886444    2.25643594357317
C         2.07883488324620    3.03782866969137    1.42544958395740
C         1.54744043881626   -0.30184077819766    2.79603754699084
C         1.33019223783054    1.12377003151529    2.73234441273326
C         0.45562501503524   -1.22260554053129    2.72535491909861
C         1.82313827641455   -2.67450849201982    1.20447447721374
C         0.64075347639622   -2.45489368065959    1.99682584994037
C         2.67052228000343   -2.65755501289583   -1.06342899149544
C         1.70339223200202   -3.13230068508224   -0.16242734155742
C         2.87738263952875   -0.81463600825525   -2.47511373485034
C         2.22597873233063   -2.07956724582166   -2.30255756036648
C         2.53079734846771    1.58707122733544   -2.18342412011175
C         2.12271102639227    0.33752409079206   -2.79156182365127
C         1.68548142210401    3.43520856330582   -0.82610188953650
C         1.51829353875454    2.60443531933003   -1.95067254023196
C         0.73784321130523    3.45650297104667    1.28997445827641
C         0.55544560053688    3.87523955542686   -0.07196697507115
C        -0.02085856633423    1.60612196273661    2.66550624989764
C        -0.31990233423591    2.83583025470092    1.97075776322357
C        -0.86498815469675   -0.73311769247247    2.99649625424858
C        -1.10912577572021    0.69489926208039    2.94650820331904
C        -1.94960015705052   -1.61519802371083    2.77907803956651
C        -0.48873209146172   -3.18615477629120    1.60646824970904
C        -1.73662180460876   -2.83461165254929    2.11241103579207
C         0.38612948969007   -3.44341983445096   -0.67768090222350
C        -0.67076169522632   -3.58875587519430    0.22411737009200
C         0.93976834363323   -2.24550495257524   -2.73298050977636
C         0.01684461810571   -3.04396792402406   -1.98205941864903
C         0.75519946046755    0.16182231002436   -3.24271399595118
C         0.24845964124029   -1.14951638017294   -3.32766718902105
C         0.17296742139814    2.45923552714983   -2.47620940161499
C        -0.20925039711053    1.23707822834126   -3.14277216187275
C        -0.67998471745658    3.86951811070023   -0.64073145984457
C        -0.86079643695365    3.24394210141578   -1.91761013501468
C        -1.65089564200223    3.12597022346637    1.48264165849086
C        -1.83109765171255    3.66932320368800    0.18375661231560
C        -2.42806946500794    1.13833029357799    2.72975855198036
C        -2.70689226584862    2.33928316733618    1.98357823641295
C        -3.22801222456790   -1.13492709378206    2.32056577444864
C        -3.48698220167536    0.20842057861598    2.40465026975145
C        -2.71445189088545   -2.94752073262141    1.04775199863100
C        -2.03375236844649   -3.30099834476017   -0.13452280078622
C        -3.60736564822707   -1.87018425610715    1.12714667899854
C        -1.29949435337118   -2.57240716539116   -2.27349566425775
C        -1.13783504363592   -1.44986462809801   -3.14786034644902
C        -2.35510067884580   -2.61455275576476   -1.33795034475953
C        -1.58712407985359    0.92018331450161   -3.20657683866042
C        -2.05347159888322   -0.43465655258845   -3.11136695843171
C        -2.24403554156212    2.87722559827464   -1.95269669752681
C        -2.86655434230989    3.20674365428102   -0.68912335011741
C        -2.60495454501723    1.71433412608005   -2.59747460520234
C        -3.86593543323925    2.12875724279295    1.19875358913467
C        -4.30361990299581    0.77445140527768    1.39414129741512
C        -3.88652551157037    2.41115808674325   -0.18589645918556
C        -4.00621273499660   -1.18757067129788   -0.05941516500601
C        -3.34554022283008   -1.54526264334327   -1.30456642633826
C        -3.20680399705820   -0.51764200704237   -2.26624974944606
C        -3.61040232438160    0.83843595331478   -2.02506344901240
C        -4.46123650834451    0.14753615887349    0.13529960342803
C        -4.25616368574021    1.17899695855419   -0.85861471485853
