76
C76 Isomer 18984 Symmetry Cs
C         2.53593826966024   -3.16930167383658    1.68270093128057
C         1.52637009888327   -2.70633147586027    2.53594033614578
C         0.27972214516738   -3.27208930434253    2.06259377925151
C         1.89318055089686   -3.80156663787053    0.55334258672091
C         0.50600163406940   -3.87944249322652    0.78750654120084
C         2.39274562935452   -3.25276093296621   -0.62931389580652
C         3.52989203769384   -2.30768279823825    1.16866127139327
C         3.47901209108911   -2.34944142750098   -0.27140607318764
C         3.68445979350364   -1.08675764519510    1.78862751484338
C         1.55289712036334   -1.37917400118232    3.05065524503608
C         2.73011018018835   -0.65208932762814    2.77748211322226
C         0.30899375228776   -0.66024228335706    3.25885278132620
C        -0.92745728243993   -2.65875099698545    2.36867314351830
C        -0.92767035188790   -1.37554217082893    3.04482759702798
C        -1.99037901928968   -2.98637812336406    1.48995834330657
C        -0.40433506359447   -3.65946507424086   -0.27559343650470
C        -1.71172229387521   -3.39105003683184    0.15904387175801
C         1.48493261122649   -2.94530870104380   -1.68702487309367
C         0.06122417388011   -3.11821356392759   -1.52562443274458
C         1.96242407925331   -1.98387699056384   -2.58360807534787
C         3.75562043609406   -1.20525526274417   -1.02923017410937
C         3.11282376440928   -1.17563470802850   -2.29616904324227
C         4.09086055966649    0.06018153539296    1.02790503288350
C         4.09091946231447    0.05943946385950   -0.37341542720692
C         2.72856717554932    0.77098457919726    2.77684367093695
C         3.68173514883607    1.20702203805348    1.78765807557567
C         0.30735074103772    0.77376212624777    3.25824440424479
C         1.54947108351525    1.49559130884660    3.04949750522057
C        -0.93097092826565    1.48587028806282    3.04328953293822
C        -2.12631124430523   -0.65475222406935    2.98466336718592
C        -2.12787075524051    0.76221536248277    2.98382574177178
C        -3.20562598830293   -2.23578807405096    1.46160302586241
C        -3.28986358255846   -1.10351927999128    2.24412874330602
C        -2.69359787098102   -2.81332937957776   -0.70529889425805
C        -3.70902923214333   -2.22189324276460    0.11389281121207
C        -0.85308142259666   -2.28129619513339   -2.26778564040315
C        -2.24901756968722   -2.21695251980145   -1.90309509799560
C         1.04217733855958   -1.17401931653932   -3.33079165318239
C        -0.33104568633773   -1.21759852208878   -3.08148159026314
C         2.93354881053172    0.05608045000648   -2.96952986354711
C         1.67673157622122    0.05429907395984   -3.63147213103260
C         3.75334760190938    1.32280441540462   -1.03097280610634
C         3.11093054105865    1.29044339258327   -2.29768534319581
C         3.52413875612032    2.42680504482496    1.16636712805688
C         3.47352276666255    2.46714812681617   -0.27413928073075
C         1.51989489715009    2.82215776218954    2.53373038348408
C         2.52818821810989    3.28641807328300    1.67948778937789
C        -0.93351562503263    2.76831149023970    2.36551570015130
C         0.27205262872940    3.38415847595768    2.05931438218770
C        -1.99719050490822    3.09217476145218    1.48603412149458
C        -3.29224685816663    1.20740080919112    2.24239316025049
C        -4.00134709627021    0.05076763923400    1.76433459125551
C        -3.21080014348059    2.33897290670193    1.45866086282986
C        -4.42776004770277   -1.12096062942181   -0.34116446175503
C        -4.58789282565027    0.04934058528214    0.50253816347100
C        -3.03324563041380   -1.12560711422475   -2.37225476622765
C        -4.15258156695529   -0.67811765836443   -1.65487542405774
C        -1.04503637459408    0.05114218237145   -3.19294510365341
C        -2.38633193755562    0.04984272783164   -2.90401640131061
C         1.03993393039320    1.28029285750870   -3.33155072380607
C         1.95881218470773    2.09401462341970   -2.58542356266749
C        -0.33387847665278    1.32146436298591   -3.08236163307307
C         2.38546935420209    3.36691340342618   -0.63307802069015
C         1.88403146211701    3.91593215053742    0.54943374402888
C         0.49719275754784    3.99060403146748    0.78296551876100
C         1.47846846590840    3.05584619555962   -1.69019934329031
C        -1.71942881386870    3.49568086077193    0.15473047912360
C        -0.85821842456864    2.38481782798778   -2.27068832526601
C        -0.41247222458993    3.76652745546119   -0.28003294232599
C         0.05452092027126    3.22519313887261   -1.52903332312535
C        -3.71406839322000    2.32232220547192    0.11087083936579
C        -4.43025444219390    1.21897444660488   -0.34280027955361
C        -4.15419729739503    0.77514092121391   -1.65577355737826
C        -3.03574143218427    1.22429857362106   -2.37394036125738
C        -2.70008875267091    2.91482860670878   -0.70894153224195
C        -2.25393958956036    2.31800350469946   -1.90607733736954
