74
C74 Isomer 1394 Symmetry C1
C         5.28289949577247    1.47978828020488    0.93500309803350
C         5.41668983765399    0.71757785476439   -0.29071427170054
C         5.29778993314550   -0.62824424497560    0.05237666110855
C         4.87466125191172    0.58913145349960    2.00161572454514
C         4.92727545616431   -0.71547036776200    1.48447280795107
C         3.63571477635538    1.05681477002272    2.52635779478050
C         4.26111324763020    2.42460510295301    0.74639179855214
C         3.30760662711849    2.28013855358829    1.80547669498682
C         4.50743512492119    1.27883958253929   -1.26071293857228
C         3.78020019209805    2.36175416893641   -0.60768925160847
C         3.76959585580206    0.41419618609170   -2.05799066334621
C         4.42741385831120   -1.48890974280315   -0.66620754360367
C         3.77552711544411   -1.00869460115860   -1.80559482724699
C         3.82449429295645   -1.57561009296669    1.59645960629791
C         3.61276201102737   -2.19058724905637    0.29554439732351
C         2.57615212552692    0.16291189305795    2.78931991011336
C         2.67366893555529   -1.20473917876599    2.36168520914316
C         1.25283316978564    0.71097753892368    2.91014120412718
C         1.99350901755972    2.61809477401212    1.57176136963897
C         0.98757942239378    2.00462805965491    2.39259464840461
C         2.42506503105054    2.59604767032054   -0.85760939949705
C         1.57638418427916    3.00220695750304    0.24107925722489
C         2.42570077011041    0.75428487507860   -2.44407183413584
C         1.75951530056757    1.85926561567717   -1.90956210321091
C         2.47220879450941   -1.50562254724894   -2.12415734575184
C         1.66273914390517   -0.44040913616918   -2.62548707918863
C         2.37365650316805   -2.69880413665373   -0.02952999942623
C         1.81611130328311   -2.45522702271290   -1.33880920360087
C         1.47805651994103   -1.96742079493026    2.17462293737579
C         1.44167159196226   -2.86307422531171    1.06022094384131
C         0.14400543626527   -0.16949039417531    3.12229430168390
C         0.22114023925873   -1.54969464685262    2.73429258920903
C        -1.12054244332250    0.42103908292596    3.24182614398044
C        -0.33219212015324    2.49927948525518    2.26490354918473
C        -1.34506136556767    1.78855162624664    2.90959604705736
C         0.22516121181836    3.25572279365070    0.00669892789874
C        -0.68969933104434    3.32100537724096    1.12890510143916
C         0.34117246445362    1.90198599703832   -2.02857822339792
C        -0.33334707072520    2.92027956666701   -1.28217886010363
C         0.26026754813071   -0.46653849972026   -2.58209506394596
C        -0.42256353337729    0.78006499818429   -2.46724058867138
C         0.41784946747244   -2.65317990025887   -1.56268539052051
C        -0.40323724115437   -1.68575963522041   -2.21505657737069
C         0.25087811431712   -3.47582278505044    0.74641738235875
C        -0.20023842658265   -3.53170372240574   -0.63798180526747
C        -0.99761945583516   -2.28522367266473    2.48359235376958
C        -0.89866022945017   -3.37258248959841    1.57866294205468
C        -2.33603140040593   -0.29379206423719    3.00894124535532
C        -2.30485592349770   -1.64554158235912    2.61615155110134
C        -2.72511664210192    1.94835073824898    2.56032604930092
C        -3.32530875956712    0.64039334299868    2.56106578027283
C        -2.03590988212889    3.58669891969923    0.88783855821931
C        -3.09635283285650    2.90845550717702    1.63711209065220
C        -1.68917893992915    3.08417435097763   -1.49650167162710
C        -2.48680508952517    3.67854316145737   -0.47086848842502
C        -1.85824722449009    0.78112411620804   -2.34701664640795
C        -2.47101035031762    2.01957121119201   -2.09930003534970
C        -1.84345608079721   -1.68943409147850   -2.02730441253201
C        -2.56706753449281   -0.44600248123957   -2.04338569129850
C        -1.56748786425376   -3.70654331856953   -0.64579334839590
C        -2.00614300428404   -3.74904950392546    0.75635936253506
C        -2.41784179357428   -2.80452690409545   -1.34802512989558
C        -3.39407895973138   -2.03784561263658    1.77699103350578
C        -3.20434764083277   -3.09772601751413    0.84060283980212
C        -3.54768103097557   -2.60599744600225   -0.49499199032924
C        -4.21246985872614    0.28523351109350    1.51222354644473
C        -3.78415071679915   -0.31899553659400   -1.25807457389901
C        -4.16277897442765   -1.05031391095143    1.09683707406364
C        -4.10282608577332   -1.35692901333965   -0.33507899046221
C        -4.15828262640147    2.59740757125933    0.71936674946501
C        -3.78931902577799    3.14886584757583   -0.56325938388042
C        -3.77838966664516    2.09351474004337   -1.52401828019842
C        -4.53727786362988    1.26206889749122    0.52550127685677
C        -4.28492838247154    0.93991238994523   -0.89605894679164
