80
C80 Isomer 4022 Symmetry C1
C         5.66783946021650   -1.36977452116554   -1.11204212469509
C         5.68861091054325    0.07407971696950   -1.04482938106980
C         5.67082064276717    0.43668792602473    0.30559142382099
C         5.33682523031271   -1.86313328114384    0.20187460010143
C         5.42444105538217   -0.79349403181221    1.10083335735944
C         4.09408830915451   -2.58546545657691    0.14572385856562
C         4.59597309108364   -1.72392894848283   -1.95762823748882
C         3.71289674597055   -2.59555206097602   -1.24307236428738
C         4.63925334103092    0.58822094300588   -1.88258865301465
C         3.98705496920180   -0.54933564438145   -2.49083780692885
C         3.82345846630449    1.65574657828482   -1.46744334646379
C         4.80464216781610    1.43719017051727    0.76585115766275
C         3.96072393075997    2.16843086100827   -0.11871593628864
C         4.38502267114459   -0.52164466006249    2.00169936154961
C         4.19628250757504    0.91428670624159    1.97326375077025
C         3.07960802192019   -2.39749814180970    1.12869109269961
C         3.21949940846754   -1.35493928096619    2.10408787145182
C         1.75333597808609   -2.83611620486920    0.78925697521911
C         2.37786812562857   -2.64217158436438   -1.59974393512815
C         1.49604405780908   -3.11418160279602   -0.58163600815796
C         2.60931013422180   -0.54533423739266   -2.80865778428853
C         1.83781900067375   -1.72544830088065   -2.57085760046759
C         2.54900240567455    1.79753096240336   -2.15068664855442
C         1.91462654028646    0.69751252989687   -2.84405590033404
C         1.71651567989959    2.81931637544287   -1.69432928324515
C         2.84502279840673    2.85911814305838    0.47597838547266
C         1.82432127103652    3.32449866296370   -0.36670975960702
C         3.04127910866248    1.44422687385820    2.45138344136887
C         2.42635207094958    2.56583242585976    1.79668838528012
C         2.01403847078355   -0.79000003257845    2.65296949608799
C         2.00964975260579    0.58711642973887    2.95047171053754
C         0.61079693850045   -2.52775244863718    1.60804817467180
C         0.72396202280363   -1.41764775676316    2.48923093354675
C        -0.70885066547311   -2.98677722379741    1.22433154359588
C         0.19088774462504   -3.31509368411081   -0.99787369513587
C        -0.85977980794746   -3.49782190984220   -0.07315652135367
C         0.43735330349848   -1.69568614449497   -2.78720989286798
C        -0.32657672537209   -2.70899570962662   -2.17618112615559
C         0.50164957366608    0.70647221344217   -3.13279851607125
C        -0.25699147096727   -0.51007061312946   -3.17599017693078
C         0.35149033385414    2.90993772449248   -2.09990555143418
C        -0.22442344045068    1.92482178094729   -2.92118450156922
C         0.49088678133694    3.56772235329191    0.08532036416326
C        -0.39804816894488    3.45397789297814   -1.02671537277059
C         1.05206388634455    2.54958193856471    2.14818891961652
C         0.81415299157823    1.33282693505663    2.86334740875411
C         0.03559840522039    3.08099009560194    1.31899926456840
C        -0.48769954985918   -0.69880221568752    2.80370394989295
C        -0.43408885358758    0.72501712529301    2.84971386131476
C        -1.90149655241386   -2.51254075146791    1.87908144836273
C        -1.77637360638644   -1.31105260315991    2.65215978110084
C        -3.16319949337386   -2.78601356207274    1.26630644234541
C        -2.07025721424422   -3.31637066119110   -0.81579537391338
C        -1.74004330515891   -2.66647898668872   -2.06071341398242
C        -3.21910527482636   -3.03259615650799   -0.15488583707074
C        -1.71781415763565   -0.51121302100594   -3.14776214124219
C        -2.49483184047398   -1.59453392366979   -2.54698676185784
C        -1.61882783542733    1.93036907005325   -2.96137759094119
C        -2.36391406620293    0.72729206780149   -3.23476296439320
C        -1.76855852720006    3.20915919695519   -0.86760321602219
C        -2.38718652537921    2.69570583865366   -2.02977675962888
C        -1.32286939230403    2.61551615393267    1.45937140598883
C        -1.53740693529726    1.53182435165751    2.38966275274606
C        -2.29065844865855    2.82924293443881    0.42939229890321
C        -2.90406162879098   -0.45914343263977    2.78295193652692
C        -2.77608924891690    0.94092165558807    2.47646752363040
C        -4.29551920428231   -1.98683251605091    1.52619894175733
C        -4.17479652955888   -0.84172300694285    2.29417310715445
C        -4.18428378158570   -2.15258079781968   -0.78322457896601
C        -3.80653062367877   -1.38220507468985   -1.93602610579974
C        -4.94280103436904   -1.60436673200923    0.25522566805059
C        -3.67134365484282    0.90510558345577   -2.71544902382667
C        -3.66065158718678    2.09189048717289   -1.93294411938928
C        -4.37741279716565   -0.09243974825701   -1.99971085565395
C        -3.58580888861155    2.17563244948563    0.49946032892284
C        -3.86267668062613    1.34849275356250    1.62346708148252
C        -4.76549758494804    0.27592034446474    1.55839008289191
C        -5.22408977780192   -0.20841239067002    0.29873019409907
C        -4.28714015883246    1.83459269865435   -0.69179053595183
C        -4.94536326702076    0.55036011037243   -0.83262887908687
