80
C80 Isomer 20454 Symmetry C1
C         5.00464374537524    0.75539921980997    0.56374330400716
C         5.07749874258770   -0.53558694203840    0.07569041085829
C         4.77050467581009   -0.50377305933705   -1.34507393113571
C         4.60356002090221    1.62208492398895   -0.54401514969290
C         4.32558122456004    0.81298787934482   -1.67554298911976
C         3.66288040941871    2.53884944158254   -0.07477048987074
C         4.20158574332570    1.07704474661688    1.69251588054215
C         3.59216835521069    2.33689869913887    1.36061098888276
C         3.43612150897928    0.09393012592697    2.36516534536857
C         4.30934465859430   -1.56289577568592    0.68899116210009
C         3.55891053865493   -1.25940389444944    1.86650067348159
C         3.97518551688229   -1.63021207942216   -1.60861117394232
C         3.71274624444852   -2.33517963044078   -0.36779854416204
C         2.92242066976670   -1.48251183271259   -2.49558605185094
C         3.08743743212228    1.00545768116941   -2.35845161752917
C         2.52501662541700   -0.16723684609675   -2.90520986099646
C         2.47363793837840    2.84707469662590   -0.79688102642950
C         2.16521522874393    2.06411510800981   -1.96216015311165
C         1.40995310000966    3.48686939813025   -0.05531184080931
C         2.48281808870086    2.73295192006255    2.02890092392142
C         1.49246605308428    3.51054935237916    1.34934693843620
C         2.18422011051543    0.50057694140199    3.00334017791340
C         1.82433648220079    1.85158520639881    2.94720386571830
C         1.08631631303239   -0.41349283492546    3.24503060640894
C         2.47935321581331   -2.11701428935781    2.10251904067495
C         1.32175123644662   -1.74549431339905    2.88179012016267
C         2.50303257778307   -3.02679935314264   -0.18606771211327
C         2.04312506778746   -3.05915017649803    1.14390469437203
C         1.73735286003893   -2.28204695736362   -2.36203810392673
C         1.49523387651269   -3.07709188719969   -1.23642576233117
C         1.13845144045276   -0.23498765550074   -3.20042254397324
C         0.66376726963449   -1.54963903718485   -2.95281405755992
C         0.79835711286717    2.03385833799561   -2.41630676118194
C         0.28435459114548    0.85569552939823   -3.06288037342894
C         0.10905567905414    3.64687698712818   -0.64810422569008
C        -0.16828765108455    2.95739880224890   -1.88515803965446
C        -0.97771369565042    3.96270260348917    0.19235948761784
C         0.31933383761844    3.40096997147961    2.14886068660403
C         0.46770891970701    2.28498394434878    3.03475169807221
C        -0.89335653066353    3.70841944100280    1.59248954124518
C        -0.29974796493669    0.01461186097487    3.37523218606852
C        -0.61252860773167    1.41209291156350    3.25115645140044
C        -1.37122543239135   -0.93814891563645    3.20473797574812
C         0.26472451675133   -2.62969720101293    2.55752760922261
C         0.68543995802471   -3.38752138648517    1.42919136393519
C        -1.08332472824084   -2.29057140351351    2.77095989347867
C         0.12071794796137   -3.40789823251443   -0.94576199832302
C        -0.22290922674444   -3.72719979730092    0.41854632787509
C        -0.67636805979740   -1.82728213778707   -2.68703100761700
C        -0.93215867187832   -2.92224670742069   -1.79358588723960
C        -1.11904353393764    0.54715048679238   -3.14464508078589
C        -1.62324091612517   -0.77814264132956   -2.93168307356819
C        -1.50991914738243    2.82117216688671   -2.28476083443526
C        -1.97980184279256    1.64675626900904   -2.95751139744515
C        -2.33758316992463    3.69142979657950   -0.16520192731984
C        -2.61155094735590    3.27151855919878   -1.45446131581972
C        -2.06742452233764    3.01553395592435    2.01561549418249
C        -1.92145072223586    1.86397359197224    2.82012648205713
C        -3.01661698778806    3.08689455907950    0.94821523694429
C        -2.67267275705346   -0.46702790255307    2.93871256811490
C        -2.93661850514912    0.90361761169038    2.67644149662543
C        -3.63863310103416   -1.22794007926419    2.18363152683302
C        -2.01451754463238   -3.03332599483453    2.02833936020357
C        -1.57419963095803   -3.73087278257642    0.84265318817607
C        -3.32664552461929   -2.50932847064407    1.75516303177574
C        -2.27723883936497   -3.07319967703710   -1.37656447212540
C        -2.58241475699076   -3.62087596481187   -0.12280568922487
C        -3.70275080133533   -2.89168452202011    0.43940301504267
C        -2.97743674321597   -0.95415621519489   -2.43767603450523
C        -3.26927800216806   -2.07409283161015   -1.65965839804106
C        -4.13885471664143   -1.94976584396019   -0.49068064245995
C        -3.33939750091032    1.44128704843411   -2.63163438279559
C        -3.72292385718947    2.42140873745666   -1.65518836669346
C        -3.80072442669607    0.18488643615316   -2.22352028427711
C        -3.98243255731407    2.06246287949190    0.75228022804064
C        -3.96078720170590    1.00181682996598    1.68339532736566
C        -4.35140086782669   -0.33500505333554    1.32617767240868
C        -4.57570841335709   -0.66488877393613   -0.04109279243456
C        -4.35844138643106    1.75060206780797   -0.58766426297879
C        -4.51900004072766    0.37489237287478   -0.98346372528679
