78
C78 Isomer 11069 Symmetry C1
C        -5.07615597166140    0.95964140469042    0.23991350232324
C        -5.03822325364546   -0.37467989604171   -0.02973178732864
C        -4.65893965660558   -0.54416714634293   -1.44525467695530
C        -4.75011484656143    1.66038384701368   -1.03228765172091
C        -4.24906816191069    0.70528491338767   -1.97769133371693
C        -3.98707912842348    2.73609179582312   -0.68414793457045
C        -4.25046476578394    1.49414739967259    1.28454447948103
C        -3.75671759597755    2.72451925911139    0.77807507933011
C        -3.35505980327330    0.64670292692371    2.00645228822931
C        -4.23932879480114   -1.26882720641289    0.74114614155692
C        -3.38099983772977   -0.79007333148678    1.75793483318017
C        -3.84422989627610   -1.64682862263549   -1.52220528579990
C        -3.69813116459518   -2.20294526207801   -0.18894131567015
C        -2.70470959750956   -1.60955152723944   -2.38495635670803
C        -2.92085380005239    0.83940547972233   -2.52827128331511
C        -2.13655027479633   -0.34567924628510   -2.79074938383510
C        -2.75390817788280    2.99309954330713   -1.33575862774472
C        -2.19995901676696    2.05213114175468   -2.25305181146664
C        -2.45666084947634    3.15468483937372    0.98449140172399
C        -1.91030187553859    3.50130136208000   -0.30805541738738
C        -2.10382693529212    1.24532392648980    2.42384746585646
C        -1.59753177122790    2.48551268857803    1.89836912593574
C        -1.12270874175051    0.39192500072645    2.93772048305213
C        -2.22634138972619   -1.62409620852714    2.06028076432294
C        -1.21369782872210   -1.02707900425531    2.80938092492263
C        -2.61659802878167   -3.02528202364313    0.10049960101262
C        -1.86207702094545   -2.81158032331217    1.30268550679525
C        -1.90635213163190   -2.72485179528743   -2.25637406499280
C        -1.98965140470223   -3.54894862812506   -1.06307576362493
C        -0.55214763198491   -2.72666541740607   -2.70681675590920
C        -0.70300582503723   -0.29189703124863   -2.99125850945761
C         0.10864540680306   -1.50531759395101   -2.95608185307941
C        -0.77954518290679    2.09506059384501   -2.43355261970313
C        -0.02885276842384    0.96444543131187   -2.89054654286963
C        -0.55848966936032    3.59463340064302   -0.48896302604087
C        -0.05647197738729    3.13065908688955   -1.75224613960887
C        -0.19413099697789    2.75158512802060    1.79473659174817
C         0.27340534825762    3.52841379667812    0.68060690812216
C         0.24965036851289    0.73889470523302    3.00709539727605
C         0.77603661137730    1.89469086886022    2.42132838639820
C         0.10885650308416   -1.55819867197875    2.89277113748634
C         1.01268424108373   -0.47696605902513    3.05606338572236
C        -0.53532571212483   -3.37307059636396    1.38862761460409
C         0.46519734976815   -2.73731380249463    2.21746529775965
C        -0.77438837151071   -4.18810787720463   -0.92073751636567
C         0.09538557046993   -3.77262896602297   -2.01649951715982
C        -0.04293171141990   -4.12612516595907    0.28044299583474
C         1.38160298488456   -3.64207594885507   -1.53714884816766
C         1.34106412512066   -4.01955023330803   -0.12625685185964
C         1.52801558600951   -1.47617358242928   -2.69358273399459
C         2.16587136288230   -2.55094857637941   -1.97663955960205
C         1.42764467557053    1.01184920826646   -2.90742460660763
C         2.21471481251827   -0.20958749880348   -2.78955181468525
C         1.31013524855627    3.24311622546248   -1.93272736319455
C         2.06517271102324    2.22317980045179   -2.60699756872139
C         1.63834726241364    3.65398087750150    0.45451720577657
C         2.09911755233009    3.76180185864503   -0.87976778191251
C         2.18973331467257    1.90882648757904    2.07343273897504
C         2.62531378063012    2.90907729259659    1.19962808431692
C         2.35218378673938   -0.52997016036034    2.64661310848958
C         3.00013675546120    0.69372075916442    2.19656801481526
C         1.84457390320198   -2.84702889338905    1.93038562159591
C         2.26797892819395   -3.47165442544051    0.70519052746276
C         2.76829549200159   -1.79583275224057    2.17954005263771
C         3.34704033365962   -2.30529673817960   -1.19223265229901
C         3.38215051917764   -2.75336536508328    0.15593416470442
C         3.80526952678272   -1.85831423560237    1.17749232933907
C         3.55048825341365   -0.13685149444117   -2.36784853612832
C         4.09787747393147   -1.16477374150666   -1.50058693215040
C         3.40592397891299    2.28144433027780   -2.07072775961770
C         3.40330463763541    3.17365258704141   -0.96571852492536
C         3.76488337550624    2.72356230672005    0.33150542715262
C         4.14774888754348    1.11269858589782   -1.96278428734881
C         4.16535009899156    0.56900959236140    1.42748367146178
C         4.52235549156044   -0.72227740574517    0.86389329738861
C         4.85325107663812   -0.52702478112661   -0.49953208412184
C         4.51918072510151    1.56035947074065    0.43542448082068
C         4.86894350876026    0.88678931337544   -0.76330495724331
