80
C80 Isomer 21593 Symmetry C1
C         3.79141253808286   -2.27686165134962    1.65124556889279
C         4.54598237674664   -1.29935247800823    1.05114519877031
C         4.57082315206252   -1.55611416376463   -0.39341973427164
C         3.28729561034452   -3.15391373833954    0.59640546963217
C         3.66555169314783   -2.61391371986434   -0.67341733463593
C         1.95846654827227   -3.40683011198815    0.87811391078883
C         2.70445471394737   -1.92071340582379    2.50319993201023
C         1.61022136064351   -2.74855179419402    2.13258094177675
C         2.45269869891473   -0.57124570978294    2.83453069340629
C         4.25778986361655    0.07561280411645    1.27081959036611
C         3.26242877377033    0.45772899036264    2.20633597994350
C         4.46048428650479   -0.31392077479115   -1.02272466435982
C         4.32460196072075    0.72558913747175   -0.00508341853217
C         3.66029130025445   -0.23216901051565   -2.16103240915279
C         2.65330156917904   -2.44543868234747   -1.67071061288384
C         2.76063591458421   -1.29670652054623   -2.48028872045807
C         0.98098774699893   -3.45929845156118   -0.15241594170175
C         1.31562829773355   -2.94810736118685   -1.44223056601297
C        -0.36871918436020   -3.52461423620698    0.30425371619150
C         0.28876440979098   -2.42810743906466    2.42577673957359
C        -0.71880259341563   -3.07288457291801    1.62702047799439
C         1.10778985059930   -0.27567051199245    3.26077567638088
C         0.02212308068681   -1.21218609245256    3.13127175770476
C         0.78299640817879    1.08472397891815    3.37505904772418
C         2.73769111215899    1.78300582583405    2.04424819474149
C         1.58979869897884    2.09668036073171    2.80336586466886
C         3.64039057660473    1.91585216989140   -0.26583152064049
C         3.00030686277063    2.55952007051500    0.86139376510808
C         3.02955017348362    1.00368632140322   -2.46966084682447
C         3.12142715550926    2.11292055407771   -1.60957814646138
C         1.60389556236869   -0.68627812355479   -3.08235135847676
C         1.79073381129423    0.71537782892928   -3.12697255699750
C         0.22048928980976   -2.46446336485961   -2.25416592666653
C         0.32828004153631   -1.23969330314622   -3.00064737029059
C        -1.36494167244361   -3.49316433962880   -0.67690290930343
C        -1.06790529500928   -2.89091579803117   -1.92850261566517
C        -2.73898288359120   -3.23656817669383   -0.38030347296023
C        -2.04491944983101   -2.72906204397880    1.88352265415601
C        -3.08775526385750   -2.88503975757384    0.90961977343283
C        -1.34729886908819   -0.77700641636471    3.23300789824192
C        -2.35799528862098   -1.60523752264228    2.70937605287634
C        -0.58321449432921    1.53313252418496    3.39018868465858
C        -1.65082711549504    0.62480100977503    3.35370780541821
C         0.70462213046567    3.16970490693652    2.44810860703703
C        -0.64839911258133    2.79886258928342    2.76437699247096
C         2.14779064920050    3.65825179349067    0.57616388960191
C         0.95747625309797    3.93930406683048    1.35172923284405
C         2.13439431531576    3.10312253849366   -1.81508160006079
C         1.82362151358574    3.96910670927362   -0.75138990282441
C         0.68213321766090    1.58526889157006   -3.08095097773725
C         0.92221811613719    2.85393502584196   -2.53774608133790
C        -0.82146355651783   -0.37240915219782   -3.16497424619869
C        -0.64482530976509    1.04156353912293   -3.09926053120863
C        -2.25029129247303   -2.21533704368715   -2.38925333415372
C        -3.32182363669018   -2.53561256165166   -1.49386859646457
C        -2.13170320014705   -0.93117775518199   -2.96222167362970
C        -4.35992891673460   -1.63299608420310   -1.26873276660528
C        -4.09002164940032   -1.87692425301711    1.14908690791563
C        -3.63315706297539   -1.09365140301923    2.27337875809914
C        -4.75082624515496   -1.27903228814954    0.09054031078269
C        -2.85787534150009    1.13284260672417    2.82644359930087
C        -3.87366152094565    0.26554932110801    2.30304148668818
C        -1.72345486758164    3.12182869943085    1.90648888511382
C        -2.85843659652405    2.31180728210051    2.03833878941776
C        -0.14521408359386    4.25967771559696    0.45282636530699
C         0.41441744822525    4.30801636025410   -0.82783559108929
C        -0.14472200611367    3.57469253879753   -1.88173982814073
C        -1.43942832065466    3.73131390756177    0.62626566527013
C        -1.71689255169078    1.86938708804180   -2.57730962614657
C        -1.42774699081384    3.02907087481128   -1.75299148567266
C        -2.15263162816810    3.24456101158333   -0.53032778656652
C        -3.22830539709575   -0.05346158856486   -2.77466329339308
C        -4.35390871383181   -0.44633159569653   -2.02857152233480
C        -2.97880545355376    1.32598133097083   -2.46491558128969
C        -4.98070710734735    0.15587634483260    0.12114768521246
C        -4.50759958173002    0.91789670666873    1.19103313766353
C        -3.78748771145368    2.13326776304054    0.95485323658085
C        -3.38981745769248    2.52470722580419   -0.34156119224888
C        -4.74846652776765    0.65816740854415   -1.17698344925846
C        -3.88200313244432    1.73856717561550   -1.41416975110742
