80
C80 Isomer 19420 Symmetry C1
C         4.50160586645722   -1.69044579011772    1.72233905568862
C         4.63651811304403   -2.18076227929980    0.43815699519999
C         5.25653695642649   -1.15395145895089   -0.39663782050391
C         4.95665732788246   -0.29722893180004    1.70940891074310
C         5.44568039106233    0.01509093824924    0.39859384434587
C         3.96197188894068    0.46462429743296    2.31374765186064
C         3.24905178344877   -1.76284489102969    2.38344416587259
C         2.96864636498002   -0.44529646822005    2.86761737968198
C         2.17945268346211   -2.50128220971900    1.84331932155108
C         3.49479551111097   -2.70307902865659   -0.23175072864090
C         2.31243292730505   -2.96345482807580    0.48204053307567
C         4.52249197785908   -1.10661116936275   -1.60076243372369
C         3.42395238622409   -2.05017339177989   -1.51255457241557
C         4.27382858686152    0.13234065305152   -2.19955766703306
C         5.08013395906086    1.25435821099225   -0.14472879133845
C         4.69996992027641    1.29377589894915   -1.51180478738910
C         3.51478092712495    1.70628290458533    1.74746936483541
C         4.15456604337765    2.12147890533050    0.56973724156758
C         2.17534483911659    2.15768044859243    2.04873437660024
C         1.68057100243564   -0.03843461858936    3.13026240880664
C         1.35458298676089    1.35848476373207    2.92039005043375
C         0.87153943557304   -2.21689652897378    2.35420100882619
C         0.63506848177246   -1.03387090486762    3.09984495879323
C        -0.24133555589160   -2.91757370102265    1.76771829989255
C         1.11890847664002   -3.07710149969491   -0.28982747644208
C        -0.09721255399550   -3.38127138907265    0.41077473305732
C         2.18134981248280   -1.77467448439019   -2.08258641319452
C         1.05734763332777   -2.48931416866582   -1.57165790758354
C         2.97006262314933    0.40932259815587   -2.77704598377854
C         1.92381834399395   -0.51442387369072   -2.74526889000996
C         3.67623779227804    2.29531312876019   -1.67928141745367
C         3.34700798050279    2.80864717482645   -0.40761652289883
C         2.65611058924964    1.78473976941458   -2.50833777896212
C         1.49266722696489    3.06170002571139    1.17021470184824
C         2.03354194059997    3.20764056585255   -0.15506962840878
C         0.10922948991242    3.38188004540181    1.37621720168111
C         0.02912273865849    1.71149731620570    3.12517001818257
C        -0.58981713544282    2.78893567196334    2.44253782712924
C        -0.71417698040101   -0.62211579172919    3.35569477550311
C        -0.99379739245897    0.75213556269614    3.44809302281650
C        -1.53052147677468   -2.64643631120572    2.22425908657053
C        -1.78275146796927   -1.46650401928989    2.99728787052431
C        -2.70254413244972   -2.91075383968414    1.44595741766960
C        -1.22830569407801   -3.59520049095511   -0.36219982461245
C        -2.55822222652079   -3.46578334053601    0.17635370538983
C        -0.21758917140860   -2.25494913926897   -2.17859029221838
C        -1.25734132791469   -3.06827112337049   -1.71238832482685
C         0.55725399536252   -0.03907852113298   -2.87383937387487
C        -0.51926082566139   -0.98256474326902   -2.78046577163015
C         1.34244037863862    2.21609900614658   -2.33090896325924
C         1.11409826890774    3.14652253324349   -1.26248028221615
C         0.27164558746125    1.34861825280384   -2.74266143752766
C        -0.69932561726402    3.75945409855437    0.27673307223008
C        -0.20424618427141    3.48787025405324   -1.02319184108665
C        -2.11840292375272    3.57391065878315    0.25049130250923
C        -1.99825462224197    2.54453052907307    2.41138732457936
C        -2.24221940459025    1.28057636357783    3.04366040235797
C        -2.80853275898592    2.97455620112778    1.33892589770323
C        -3.06383209730713   -0.96996971689008    2.64396435053010
C        -3.64960943820923   -1.86116506610642    1.67287861152262
C        -3.31174542305361    0.43190878728059    2.62630097656353
C        -4.46701602572124   -1.35547904800129    0.63253980815083
C        -3.40808260399478   -2.99494275865967   -0.85074949561066
C        -2.58071240846885   -2.72658228358667   -2.00513600675941
C        -4.30061394005461   -1.92288277174976   -0.67219594481759
C        -1.88653641029182   -0.53792289324914   -2.84525288533150
C        -2.91182760945687   -1.46040464498228   -2.51997293417413
C        -4.11102591136455   -1.05317412247241   -1.82280226603957
C        -1.08051513465938    1.79235035031554   -2.55862142051355
C        -1.27191861545924    2.97289741047320   -1.82395569343314
C        -2.47048632305543    3.21261176128156   -1.09574741957023
C        -2.18615185380535    0.87271347781015   -2.70035215845161
C        -4.39110302226716    0.28402939398972   -1.71671677034024
C        -3.57494915127451    2.42207848854073   -1.35315422436812
C        -3.44656757421122    1.26358732626415   -2.21264076543596
C        -3.97882044133690    2.21012782799168    1.05350448309579
C        -4.21608899855294    0.92720164584155    1.67731615257701
C        -4.79990406387648    0.03277723057881    0.69483877343852
C        -4.42933498985153    2.09815901516996   -0.27435402403028
C        -4.93732375034736    0.76536274931473   -0.49126014350061
