76
C76 Isomer 7567 Symmetry C1
C        -4.31936251623992   -1.97372361932834    1.26482406648521
C        -4.67717307081058   -0.87969064524093    0.41345542938748
C        -4.33458141765403    0.35040883543918    1.07945321592728
C        -3.55203033083021   -1.43436137168373    2.31188066476599
C        -3.58996817725512   -0.00432512011216    2.25850458405865
C        -2.27949803094724   -2.08434520418599    2.37962038915090
C        -3.46420601959269   -2.88260929833547    0.54532804746568
C        -2.25563621228833   -3.05028662328527    1.31360330941348
C        -4.06799211178078   -1.10794652577599   -0.83624307007773
C        -3.32069498539364   -2.36727366974652   -0.75342210200041
C        -3.57734217282509   -0.04829434198032   -1.62784778605658
C        -3.96689358424878    1.45706762325477    0.30374946986650
C        -3.74393097459899    1.30089703668430   -1.12099125442060
C        -3.17535691156844    2.40918299883505    0.98921923323570
C        -2.44869560474177    0.71876173647052    2.64177257524266
C        -2.41972228394751    2.02918683760652    2.12442294139697
C        -1.11441965968915   -1.36735478675330    2.69374518984768
C        -1.18209448618399    0.05510843234528    2.94040762525492
C         0.13907651850760   -1.96243651869555    2.31737439264923
C        -1.06710842222130   -3.32801568875826    0.66312215091732
C         0.16335594787154   -2.99671176829672    1.33526600466371
C        -2.10716572309091   -2.53940165794326   -1.45059310698685
C        -1.08566234730103   -3.31123060606292   -0.78183577255054
C        -2.50691746928765   -0.35768027266524   -2.54784680222770
C        -1.72840491848519   -1.57509577698188   -2.43183270844507
C        -1.88391237757855    0.71142946456906   -3.20453640390930
C        -3.04832132840245    2.33669038151602   -1.77833094977045
C        -2.24990398975090    2.03056849797928   -2.88423394018698
C        -2.40343751619191    3.40504639676930    0.29908542177839
C        -2.35153009256960    3.40310222759068   -1.06662808971579
C        -1.21293724000504    2.78832183880317    2.15224985925882
C        -1.20818378304873    3.67624224068359    1.04726993641559
C         0.02272623651188    0.80791400136374    2.98848347836183
C        -0.03360416661166    2.23251413829169    2.69130802373975
C         1.34393625193788   -1.26218948824284    2.65152649658646
C         1.31009676593908    0.14504170425995    2.95553500519809
C         2.55843950976457   -1.86523266624279    2.23821975867898
C         1.39116345513826   -3.35948189322927    0.68372832531085
C         2.59149987936719   -2.86513809948133    1.20003368085938
C         0.12264637896776   -3.46065249775563   -1.43207401553880
C         1.35556813077233   -3.68831194569081   -0.70554365512211
C        -0.38558619155717   -1.60177313846826   -2.93973685686910
C         0.42297994278641   -2.68719711678616   -2.58143851455624
C        -0.46172250171140    0.73035690100496   -3.47228784502987
C         0.32078139369526   -0.38919851820419   -3.30132298621613
C        -1.04628414758950    2.84158124186886   -2.85351519060235
C        -1.07143747035394    3.65239461214080   -1.71714684545657
C         0.05596101539060    2.03027944442531   -3.17376532506797
C         0.00537865699629    4.02596923656205    0.42300889533237
C         0.13295860588784    3.85984096636938   -1.00719925475671
C         1.12503726166400    2.93555085215868    2.35318187483449
C         1.13230400716852    3.83356072397264    1.23672755107621
C         2.51367824537089    0.92997432360267    2.76478983113062
C         2.41346943716718    2.30531434686575    2.44467025587347
C         3.71752894545851   -1.08268374523818    2.11144976259057
C         3.68696200125918    0.30443613884259    2.25102362922372
C         3.71781482733920   -2.56577082942368    0.33012208698638
C         4.36722135376463   -1.44186572618827    0.86298670564529
C         2.41228355786954   -3.30286852772483   -1.54194366309316
C         1.84175888127158   -2.57516628166281   -2.64379741208893
C         3.53056510658664   -2.58016564953034   -1.05203804300787
C         1.72758976713542   -0.17695123034423   -2.98641406355520
C         2.48918762144852   -1.33680697385493   -2.71710729378959
C         3.60127156288017   -1.34063665275499   -1.78662364523496
C         1.28907682689753    2.20210053270043   -2.50895603321477
C         1.34469561790156    3.25478574856272   -1.52792067407631
C         2.18990903721104    1.07718456017504   -2.48026104699667
C         2.39827777971165    3.70172252459488    0.62729553727010
C         3.23319434304495    2.87604102612366    1.44876867436034
C         2.49053971059599    3.25361596887438   -0.70405707797843
C         4.35647630479670    0.82541953445918    1.06967580004732
C         4.54662773197106   -0.25479711917400    0.13238119361843
C         4.01287886440188   -0.14082469421678   -1.19032588956708
C         3.34438391594349    1.09688024250934   -1.59104917106456
C         4.00658859374759    2.05615312463401    0.59006785582595
C         3.48882824421126    2.21184984713681   -0.76447244050137
