72
C72 Isomer 2977 Symmetry C1
C        -4.34433191068541    1.65547371334572   -1.56130513202539
C        -4.61720270079809    0.29447980393254   -1.31214463156038
C        -4.57111163182109    0.04067849350928    0.09630239443053
C        -3.94653871317926    2.23141096610049   -0.31617211328300
C        -4.08222341268586    1.25395501623378    0.71777095726216
C        -2.65725579014818    2.78861229656884   -0.49105166113022
C        -3.19100353603338    1.68698846753534   -2.42304718826569
C        -2.18597063970916    2.47893777300167   -1.82487833864566
C        -3.79267270116676   -0.51443621635335   -2.18517240168183
C        -2.84350583250041    0.36572626100686   -2.84182939889906
C        -3.36862464732035   -1.73076163182449   -1.71109657289065
C        -4.16615767549435   -1.22412604917882    0.57204022506912
C        -3.66704992840981   -2.17285850306462   -0.36881609741586
C        -3.57443124573286   -1.24365952376815    1.87505290940766
C        -3.11682075074143    1.18833489759099    1.76182126595284
C        -3.00103148251467   -0.03772419953949    2.43361476314147
C        -1.71508245764427    2.79925746343757    0.55135223071654
C        -1.94434626048513    2.04012930147635    1.73685708913164
C        -0.38634187998404    3.15145158853382    0.14361612232181
C        -0.82802685734394    2.20311994730514   -2.06006764272807
C         0.10846353049473    2.80789073441809   -1.16117547896670
C        -1.48910044944197    0.01264749649996   -2.97599209954474
C        -0.46442811459159    1.01032501524136   -2.76122899979195
C        -2.05057544612385   -2.19430441738171   -2.06517061882155
C        -1.12232899042786   -1.35752352944580   -2.70365246753730
C        -2.61720251268270   -3.07263351598603   -0.00564639559672
C        -1.62882813606760   -3.09365377528679   -1.04659001418676
C        -2.74894851546492   -2.30750001501085    2.26021942903475
C        -2.17113849263499   -3.18612905140862    1.31093329355475
C        -1.79562148367139   -0.39814589525983    3.14970630520132
C        -1.67550200001256   -1.80123528904593    3.08586583409052
C        -0.78982420262234    1.69896050383955    2.53166813472161
C        -0.64279565561920    0.38911366204545    3.12943062872096
C         0.53521019940904    3.27147595869828    1.18606334252555
C         0.37202673848612    2.43594268197753    2.34207234015893
C         1.90161951201434    3.34839040755924    0.89863180029675
C         1.49958252635165    2.58826087507339   -1.37827192409826
C         2.40926365621597    2.99831395404491   -0.35687032784767
C         0.91127376471010    0.64157466656943   -2.80928645489419
C         1.90596912570453    1.54501974117408   -2.28421172880698
C         0.25158241450226   -1.72248281872587   -2.62978943438357
C         1.24647941784446   -0.74982502603025   -3.00250445147723
C        -0.27057007619221   -3.29345472846715   -0.79193143495423
C         0.63571861741999   -2.80275832852833   -1.77753955861003
C        -0.75967035973199   -3.27827100333523    1.58567971222439
C        -0.47221868168467   -2.38629028211254    2.69749324913148
C         0.18636863529461   -3.39294763859716    0.57520629955630
C         0.65678749077740   -0.25773578297283    3.11922402586154
C         0.72511432515594   -1.64272058561816    2.76700886558876
C         1.68028089286624    1.92769113375894    2.69849847207137
C         2.62635275215750    2.60347853343376    1.91268782543307
C         1.84153586235182    0.53764281421963    2.94409093105532
C         3.65080404021338    2.28738280766235   -0.11836137700544
C         3.71993622261398    1.95925905225095    1.29828832325744
C         3.25401136221548    1.09070224793451   -2.20353456486283
C         4.08892769712460    1.38799484836922   -1.04453485854959
C         2.59569056346758   -1.14474723130227   -2.95060144505326
C         3.59559848120260   -0.18957679402951   -2.63829226640194
C         2.00545168689296   -3.00742114266292   -1.50794334667856
C         2.96078603233719   -2.34734339445206   -2.26591249180856
C         1.55590819478756   -3.04105855797413    0.89816501583627
C         1.83463926975804   -2.16265237359812    2.01199036363896
C         2.48253065243507   -3.11495415079854   -0.13720095001740
C         3.02875363821905   -0.06611291397241    2.46695729346293
C         3.98778882159016    0.64325886538079    1.66393155472553
C         3.02061010861520   -1.42108305541614    1.99313746808390
C         4.73866845594085    0.15792631789108   -0.62165260716447
C         4.52672288548233   -0.77849794507272   -1.67084135010446
C         4.10954506109607   -2.07146447547074   -1.41193225759458
C         3.76358825758371   -2.46392812056441   -0.08005265915526
C         4.56195748027981   -0.26519607623611    0.69962476894101
C         4.00993479775597   -1.57159426912880    0.96229950783287
