78
C78 Isomer 22679 Symmetry C2
C        -2.91741815326575   -3.29904031430893   -1.25178303208664
C        -3.30933626707292   -2.05857010921687   -1.79379451446974
C        -2.27155625611017   -1.64580185665125   -2.70433524810386
C        -1.66085167396751   -3.68135155027403   -1.84106456604473
C        -1.22477401946995   -2.63907906230405   -2.68094803584148
C        -0.80017199680374   -4.17085178724061   -0.84534527743908
C        -2.77923954392360   -3.46491586096379    0.14598095583258
C        -1.46903367532570   -4.00190779602549    0.42392997775306
C        -3.28045696715407   -2.47954271176562    0.98296709188474
C        -3.95820309442344   -1.10847208451538   -0.95847938643717
C        -3.98773804341318   -1.36299952149044    0.43815220101118
C        -3.84383662769917    0.24136853313797   -1.35537219757449
C        -1.96896029089843   -0.28937091959596   -2.88365845300263
C        -2.89081699237743    0.62879645274579   -2.33691560637663
C        -0.60997122308411    0.12884440362420   -3.12198911874708
C         0.12988167790107   -2.27163205711547   -2.73553352302426
C         0.40957548109254   -0.90345270471860   -3.11652415907772
C         0.58329537649794   -3.97418389431224   -0.98817257937044
C         1.08974905045714   -3.05421301495643   -1.97486053225015
C         1.29084499895370   -4.13345836601344    0.23157191464101
C        -0.72906335961475   -3.55738497358314    1.53937362063294
C         0.64445118208278   -3.81245061330292    1.47853778520512
C        -2.49752081893899   -2.00175511249963    2.09615376708972
C        -1.20008381771378   -2.43655522923441    2.35049169509683
C        -3.84411934545083   -0.27258656331287    1.35945908983352
C        -2.88965406558785   -0.65226589211640    2.34262192004320
C        -3.99792032095438    1.33059139534790   -0.43432711680255
C        -3.96873988368662    1.07628104297748    0.96234675164007
C        -2.51008478787239    1.98142840180521   -2.08977279373870
C        -3.29876015426659    2.45284410323580   -0.97790281903903
C        -0.25146497967245    1.50292396674683   -2.92646574269397
C        -1.21578265660335    2.42678002278191   -2.34188294210989
C         1.13866027717064    1.88301741742257   -2.92193645499700
C         1.73865304238139   -0.49782492586476   -3.03916362876446
C         2.11908130892358    0.87190772717985   -2.99701903605613
C         2.40764502673651   -2.51751827446759   -1.77228594049752
C         2.72043390894563   -1.27710594022592   -2.34940129643736
C         2.61307423409627   -3.70357065158537    0.33838062640783
C         3.18016583987557   -2.84836087769432   -0.62200883014584
C         1.57054403887698   -3.07649619622791    2.29480852177565
C         2.82550282176244   -3.13920588581247    1.65973204444981
C        -0.24433684770609   -1.50488979486747    2.93674235087834
C         1.14880946417147   -1.87362815562449    2.93457665257688
C        -1.97623881051404    0.27335084189738    2.89100224005021
C        -0.61430235548604   -0.13377365941127    3.13169918960308
C        -3.32907141244891    2.03158608339448    1.79880715036644
C        -2.28955665398914    1.62727245973414    2.71115984439316
C        -2.80697483475194    3.44221024073494   -0.14003336040741
C        -2.94622664795209    3.27517037215106    1.25747191151363
C        -0.75525202881733    3.55138420714592   -1.52994687177060
C        -1.50069823477970    3.98981336582957   -0.41573517798610
C         1.54953940390149    3.08932120338554   -2.28154696263712
C         0.61603714112159    3.81772131079735   -1.46687992566593
C         2.80280016078661    3.16210042272789   -1.64403554537434
C         3.35095000631521    0.93011589721399   -2.26292349449610
C         3.65264995101286   -0.37215338810069   -1.76880356572165
C         3.63682153935316    2.04526791965184   -1.48895721127584
C         3.93527985218451   -1.83888835878363    0.08854635762922
C         3.65071259020685   -2.01566706989229    1.50610009327817
C         4.12748828002726   -0.56201794683705   -0.43953387048535
C         2.12093550265135   -0.85470295707876    3.01154282792560
C         3.35453649727788   -0.90296743231455    2.27962385402761
C         0.39686788348373    0.90674024348696    3.12807918703912
C         1.72932524778370    0.51194700683440    3.05315630663588
C        -1.25083741915251    2.62902666597933    2.68962588205839
C        -1.69385464683951    3.66767596234749    1.84896731024042
C        -0.83543769809133    4.16412030710897    0.85471143242363
C         0.10669252795176    2.27258952239923    2.74658120699264
C         1.25756084791599    4.14359352895937   -0.21866287575158
C         2.58340278590214    3.72439593705698   -0.32313720344333
C         0.54934933321378    3.97866777508154    0.99992437262341
C         1.06149748366145    3.06290917777161    1.98760720093173
C         3.92020230034187    1.87065219594161   -0.07091664692482
C         4.12194938991901    0.59541699920655    0.45760679213433
C         3.64650201217083    0.40176644787771    1.78607125168918
C         2.70600217602997    1.29918083096110    2.36517471464689
C         3.15580238585673    2.87391558612109    0.63840502531464
C         2.38407357688439    2.53691753150295    1.78736442479887
