74
C74 Isomer 10859 Symmetry C1
C         4.43831197215813   -1.16110108744457    1.12538495929644
C         4.85122021603617   -0.19523172007031    0.21151513908450
C         4.60269502825530    1.09692673882722    0.81654077686288
C         3.78122011865135   -0.46987111630968    2.24443216063830
C         3.79810829882782    0.91086165509858    1.99686607935796
C         2.58037184337398   -1.13670538387789    2.52295038127347
C         3.60978092762575   -2.20168881645736    0.71833513407425
C         2.55686144252252   -2.32490999270827    1.72078530862485
C         3.22621736455305   -2.29892363130013   -0.65496029194487
C         4.32724306062688   -0.17048557439630   -1.12253628549264
C         3.44847251940200   -1.18808553631266   -1.56099317329758
C         4.19820454722038    1.98139571651436   -0.19292076616632
C         4.05504180330978    1.21594936354979   -1.42206198869664
C         3.23760869870507    2.92825819936910    0.13713099430637
C         2.59596263852918    1.65893401172230    2.19066139921446
C         2.48365355869283    2.79677262820002    1.35933869102431
C         1.37134142639670   -0.43747735657244    2.75742385594425
C         1.37480884423133    0.99420768867212    2.63996088309247
C         0.14939723945508   -1.19096952770242    2.63213178887571
C         1.37865213426906   -2.98838067500935    1.45939072883223
C         0.14948388688209   -2.50377379077126    2.04790623791238
C         2.13818558192740   -3.13002391727712   -0.88375744670162
C         1.35578678514374   -3.67193863085971    0.20307025894371
C         1.23970926361086   -2.94380192881467   -1.99968049855230
C         2.34887248497036   -0.84012699520781   -2.45675912429989
C         1.18142044995434   -1.67862365408414   -2.62304168852985
C         3.02355788014703    1.53363645806665   -2.27682779036970
C         2.18995809941112    0.50237014918569   -2.81368651870827
C         2.32290745700042    3.39264429298405   -0.86472351343353
C         2.19419690575465    2.69296929950018   -2.05378223909711
C         1.21490119918970    3.38385520459022    1.14189176244068
C         1.12066989265426    3.80503138221809   -0.21617291485240
C         0.10618392033806    1.67090768695919    2.52872214935303
C         0.07313580832150    2.94072677910626    1.84856395501453
C        -1.08584391451106   -0.47560681162569    2.80946406589336
C        -1.13210288065892    0.96380170884808    2.72004483102618
C        -2.27490763231183   -1.21037623839354    2.62061822519240
C        -1.08369313234324   -3.05728989971950    1.54110989870014
C        -2.27383088390680   -2.42089411845905    1.86327704391875
C         0.13666818821750   -4.08318854148041   -0.32176571275107
C         0.06937711446288   -3.66439046323729   -1.71120025489543
C        -1.08653983082259   -3.78089056266740    0.30333509969692
C        -1.19961795245149   -3.12906910317412   -1.92194794618490
C        -1.99153066213709   -3.37614897713198   -0.72823763482281
C        -0.12904832098017   -1.13347872081224   -2.92219900729023
C        -1.31549743518935   -1.88712380780968   -2.59156122513396
C         0.89037248779214    1.06277628583933   -3.04021073831173
C         0.88642268395852    2.41297922623809   -2.57930933777336
C        -0.27823012553035    0.29029928367973   -3.06110225630928
C        -0.11874688095889    3.79910319411385   -0.87352039693302
C        -0.28157519339308    3.00340976448733   -2.07033975341049
C        -1.13040676077522    3.44897596822986    1.35064152026560
C        -1.21178060302058    3.92590669069188   -0.00018370136479
C        -2.39387273357040    1.60730657966747    2.37240317376194
C        -2.37972236346130    2.84360275292577    1.69149213165795
C        -3.49644499370955   -0.55382281820587    2.34309441141097
C        -3.55780613961316    0.81741431684123    2.11474231815660
C        -3.39511306743640   -2.36173265923521    0.93144504100233
C        -3.13577736420453   -2.62148007133923   -0.44722925469926
C        -4.17550137870169   -1.26125149769301    1.28078489729365
C        -2.53612641360370   -1.21164241449698   -2.38135897224108
C        -3.51071993762890   -1.63450476212805   -1.39512293353694
C        -1.52535476459493    0.98104310501318   -2.81609109092302
C        -1.53511368281688    2.33845028492305   -2.32716075754376
C        -2.66183655217153    0.18403062092863   -2.57486163606760
C        -2.49587842159529    3.61411636250059   -0.46984593969758
C        -3.27947739948924    3.09276879758399    0.62096554174678
C        -2.67279965098829    2.77988980284628   -1.59470635063996
C        -4.39032527522935    1.00551704082433    0.92838387337375
C        -4.61395521449344   -0.29385990756779    0.33541194240500
C        -4.26612777607714   -0.49127326280522   -1.00749531227354
C        -3.77700962450707    0.63079216213840   -1.78557435260606
C        -4.14038274918481    2.09741459084662    0.11873896614455
C        -3.78228606051067    1.90409817942686   -1.28102682026104
