76
C76 Isomer 8257 Symmetry D2
C         5.58514135550681    0.69044737667431    0.28032198537759
C         5.07189912676734    0.59682173339855    1.56113521397703
C         4.71625484908355   -0.79235443193115    1.84032205154204
C         5.58548861683967   -0.65863038634802   -0.29523254182203
C         4.99339381670799   -1.56104288014109    0.66492161951203
C         5.06743641102959   -0.56611410450050   -1.57419247855028
C         4.98761940803784    1.59158038338403   -0.67763123549278
C         4.70779051588647    0.82234117649943   -1.85199238364739
C         3.99827729786825    2.46132435045428   -0.23811760640171
C         3.99747343261535    1.42974799893923    2.00860880647577
C         3.54899274751890    2.43677825477458    1.14769754249432
C         3.45287271979257   -0.78913580169740    2.44056470942166
C         3.01722876239213    0.58456131295338    2.62665459780634
C         2.47397705016773   -1.76180888309296    2.09583923253069
C         4.00428965612216   -2.43279305431102    0.22898966956688
C         2.82567328494899   -2.63211394136274    1.03713321465632
C         3.99309421102875   -1.40124273081828   -2.01767887430989
C         3.54989498227690   -2.40926741235008   -1.15512997501568
C         3.44219694511165    0.81644644712758   -2.44756200208953
C         3.00879319774221   -0.55819019469895   -2.63203936029969
C         2.81635692134969    2.65811413314517   -1.04188610842454
C         2.46253569135562    1.78705923475008   -2.09927918895291
C         2.17451231516819    2.77842559183059    1.17960677993279
C         1.77115341572032    3.06690763955425   -0.17227122305987
C         1.65336243158686    0.89864232376868    2.63446294485948
C         1.23861502835924    2.11543664285467    2.00033925697366
C         1.08637442602821   -1.48203845712003    2.35431945877277
C         0.66580482053490   -0.15227628749684    2.72220705405437
C         0.09568150211136   -2.30759917161335    1.75775365386697
C         1.77822570663566   -3.04304721951739    0.17132861085152
C         2.17606718775691   -2.75380498311784   -1.18202286434554
C         0.45640279556594   -2.97895671484954    0.54734917738095
C         1.64556548401260   -0.87515637181616   -2.63494165462272
C         1.23570939112499   -2.09290323065124   -1.99939365955722
C         1.07455208575778    1.50433926601955   -2.35270637030987
C         0.65554380845701    0.17365692115867   -2.71908566858092
C         0.44816354464472    3.00001212547661   -0.54352697668022
C         0.08434839397236    2.32782799574455   -1.75261097003228
C        -0.14344384151083    2.33981963130297    1.74169712448444
C        -0.50868246642631    3.00265298034583    0.52795751965336
C        -0.70989017527241    0.19144845880862    2.72355409314558
C        -1.13201206210188    1.51859616475158    2.34779338377903
C        -1.28538711569679   -2.08142957972028    2.01987400082338
C        -1.69780074302101   -0.86007374247332    2.64681167677006
C        -2.22439279420513   -2.74998916391804    1.20718560401009
C        -0.50427415489038   -2.98385049904706   -0.52061036565417
C        -0.14486895337553   -2.32018524623616   -1.73572329051143
C        -1.82588958758841   -3.04818312358376   -0.14406176727762
C        -0.71943176723726   -0.17295384722803   -2.71538938257170
C        -1.13724955273126   -1.50088639882991   -2.33805077663152
C        -1.29720693330837    2.09877823470585   -2.00964858748929
C        -1.70919701707462    0.87656417139700   -2.63518530271954
C        -1.83186994665108    3.06431705841204    0.15628239092294
C        -2.23475577978150    2.76555178602598   -1.19382728267149
C        -2.52055907825165    1.79655482124589    2.09227645595285
C        -2.87618993610238    2.65926223303993    1.02860426651909
C        -3.06175123809449   -0.54601302748326    2.64159018150373
C        -3.49811241368074    0.82637251762584    2.44739102932114
C        -3.59896276720721   -2.40852239047806    1.17791659579945
C        -4.04441917812822   -1.39534971434649    2.03332707728794
C        -2.87433936836300   -2.64537176261142   -1.01267981458184
C        -2.52428783282086   -1.78183800277006   -2.07754487597755
C        -4.05327827692597   -2.44277636233725   -0.20607413757430
C        -3.07240662750806    0.55952788894740   -2.62490472330890
C        -3.50520301285777   -0.81377726310934   -2.42907738117700
C        -3.60832336109867    2.42102687970115   -1.15942766810973
C        -4.05769100441006    2.45432159420779    0.22632327848370
C        -4.05463494239907    1.40680077674837   -2.01315690158069
C        -4.76370670067441    0.82545664880910    1.85185505729385
C        -5.12057161859277   -0.56569068911989    1.58394522778447
C        -5.04514365375595    1.58560206304124    0.67196555428044
C        -5.04432830528482   -1.57631461308736   -0.64821363330784
C        -4.76866785688419   -0.81546701348101   -1.82906995229099
C        -5.12754048138497    0.57496419438582   -1.55988330284671
C        -5.63841637044307   -0.66847993389499    0.30558801832674
C        -5.64087642184614    0.67653961917969   -0.27966382771808
