76
C76 Isomer 13716 Symmetry C1
C         4.05489531464729   -2.40716323657442   -0.29197383822240
C         4.29111933698372   -1.37292013026016   -1.17183378972118
C         4.70392582780443   -0.21113548720242   -0.39573647330154
C         4.11740287327938   -1.84114326044793    1.06820164620447
C         4.39733562756048   -0.45743612793458    0.97475798150718
C         3.00820311588917   -2.28928416561225    1.76944694870577
C         2.87989461099088   -3.17069000556057   -0.40854757958494
C         2.42694992755298   -3.33356387083144    0.94565367142154
C         1.89731370847685   -2.88307852265374   -1.39924834169935
C         3.27775228746653   -0.96183777646454   -2.09179078559195
C         2.06286576399909   -1.69320350060742   -2.20213438655900
C         4.18584884940371    0.91194025771482   -1.04373126083595
C         3.27749176431469    0.47596667709088   -2.08847995380388
C         3.79653898017310    1.96684836614032   -0.24623980294071
C         3.57355024760070    0.45650396153110    1.70621923072416
C         3.52987011231753    1.74852150519386    1.14508973450933
C         2.12077636537965   -1.40409944330430    2.47491022529903
C         2.40017967755237   -0.00094103954522    2.44368005041040
C         0.78655381957090   -1.87687530290040    2.74648025655424
C         1.15777101265057   -3.72701508383710    1.17242042178138
C         0.39530055584864   -3.14483748203489    2.24278168226432
C         0.57032936996846   -3.38759129247172   -1.16618712415593
C         0.29188210070696   -4.01203305182540    0.07079657929193
C        -0.54356221662280   -2.85830008440600   -1.90977533258934
C         0.89855117080240   -0.97428394829341   -2.66073473293364
C        -0.39842529541851   -1.61507442054404   -2.61217619149008
C         2.13036541887469    1.21234098985546   -2.37651190256680
C         0.98620640299061    0.45427667624081   -2.81670263096860
C         2.82354512318028    2.88879603667986   -0.73524086986400
C         1.96457159310022    2.54116634536580   -1.78757604485517
C         2.55098635620668    2.69602201950005    1.54052242753750
C         2.29519271698152    3.55587295663016    0.41635126088538
C         1.32748915320790    0.93479323067584    2.75173300826346
C         1.50478753724142    2.32902504474121    2.41283717908275
C        -0.26688557121065   -0.94507933183225    3.05857070295382
C        -0.00144396185064    0.46972103562515    3.04059095351327
C        -1.60582315884017   -1.39729654173780    2.95931131745780
C        -0.94896797036398   -3.49065265084796    1.97153471895902
C        -1.01823024888581   -4.05106727505173    0.63045615720217
C        -1.96243962375346   -2.65971395709881    2.39996031720468
C        -1.84951808840617   -3.27347651295539   -1.49801998312033
C        -2.10027522100505   -3.80261329150386   -0.16632166283580
C        -2.97825595689395   -2.52369480041912   -1.83540441058538
C        -1.58774239555644   -0.82060660564610   -2.86353281203645
C        -2.86568153893912   -1.26031601294464   -2.42793815332154
C        -0.19977600685641    1.19686260222781   -2.95959614546301
C        -1.46518958474926    0.56709616195888   -2.98660234274064
C         0.67456090823629    3.20737482386023   -1.82387158516331
C        -0.36831526411072    2.52383671630727   -2.47983050104861
C         1.12458438144292    4.26990747305254    0.33117637753289
C         0.29608938244003    4.14022978622271   -0.83759001494816
C         0.39294920807956    3.21336441835566    2.41632636876557
C         0.29907218261746    4.27108407424600    1.47781610970998
C        -1.14290419491579    1.37311368034411    2.94716205354111
C        -0.92714690568380    2.72634159793272    2.67919005870857
C        -2.68093676325573   -0.51051901537276    2.64345507421675
C        -2.46591957077699    0.86842590424938    2.62414769210742
C        -3.17449713938566   -2.51968491597554    1.63093636125486
C        -3.26732262948209   -3.13967893195694    0.38318421583400
C        -3.85919873588858   -2.41821391180543   -0.68321985923980
C        -3.62430313575862   -1.17042491002738    1.78915231465944
C        -3.75421243637930   -0.37580663710927   -1.72134000639743
C        -4.26518125370804   -1.08659543608947   -0.56517412755383
C        -4.21249021881738   -0.45057049905556    0.71307364863562
C        -2.43163191955704    1.48909030469379   -2.45746667915186
C        -1.75158830408435    2.68838125249117   -2.12278563833910
C        -3.50990786570047    1.00600628340746   -1.68096772588967
C        -1.08178124728639    4.21684996135653   -0.38154244627281
C        -1.05489129034927    4.34464412436263    1.02217081518794
C        -1.83972163745706    3.48400693046890    1.84563427634555
C        -2.11860433598629    3.45586011066815   -0.99368678997741
C        -3.32471415014621    1.59436976985880    1.76297448686664
C        -4.03959792787774    0.94317989779664    0.72832065731927
C        -3.80671193145181    1.70917523305093   -0.48002882428398
C        -2.92590888917759    2.87888671890657    1.27079118527446
C        -3.13799819895071    2.91563554193778   -0.15327741764011
