64
C64 Isomer 1852 Symmetry C1
C         2.83298462824578   -3.33011668900004   -0.02027132373432
C         3.60048460847272   -2.28326248809697    0.52678156401784
C         2.91864695671979   -1.79191872081131    1.69140109411631
C         1.68353535966050   -3.55455122886820    0.79771866505733
C         1.71327124194631   -2.58225636072661    1.83723845454972
C         0.54625410358625   -3.52690000581316   -0.05856213040234
C         2.36622524086263   -2.88839628681859   -1.31249409044095
C         0.95869706701179   -3.05081519250944   -1.35948130702208
C         3.87620183316668   -1.35344318675271   -0.54045263772615
C         2.97948810521849   -1.64953408299895   -1.65129971902821
C         4.06280515040027   -0.06010906604033   -0.18248262582219
C         2.90388862814400   -0.42258617772751    1.99587408285599
C         3.78007675050220    0.37917257485112    1.18055303930624
C         1.71344556780663    0.19641771429568    2.55801616795466
C         0.52368201525123   -1.98256719344712    2.28373277318455
C         0.52800294907174   -0.61124734575066    2.73078230048120
C        -0.68175764293659   -3.14212405728267    0.45474141484085
C        -0.70076723380119   -2.55456840570970    1.77073192512109
C        -1.68516223058582   -2.76201053441304   -0.51295148455579
C         0.15792103564701   -2.11077819327279   -2.03118175293530
C        -1.25549865264371   -2.11996593754928   -1.71858313324728
C         2.20644409283682   -0.61845819516512   -2.22579152076252
C         0.81868782306369   -0.93189700324296   -2.54519737711525
C         3.65708149858331    1.00489346671085   -1.07924104922921
C         2.61055498199342    0.76815710790365   -2.00680233339650
C         3.63196060992088    1.75312300275423    1.11660257912507
C         3.67852039798549    2.17688029597678   -0.29293071065488
C         1.57445636787506    1.63849426339831    2.46808362128980
C         2.55322526049649    2.42019783724472    1.75438542093301
C         0.28038661369100    2.19953685037635    2.48872126588176
C        -0.76660144082724    0.02328999957360    2.91281316330105
C        -0.87565179726378    1.41368630254412    2.75202929214221
C        -1.91894945380451   -2.00764895005248    2.17677199380361
C        -1.97289174657498   -0.69374425296298    2.73174041816843
C        -2.97692004708515   -2.50489481781574    0.01522067981994
C        -3.08692007895471   -2.22763280435724    1.41778137530507
C        -3.89721826068478   -1.68796099770888   -0.66837852088695
C        -2.10955509665670   -1.09208041247480   -2.27131008382979
C        -3.43863869469481   -0.89861055026259   -1.75377434154897
C        -0.02349385092281    0.13905925545907   -2.85216764933917
C        -1.45761156932862    0.04598693755887   -2.77239447682598
C         1.64799955666223    1.83800124732502   -2.18088319512090
C         0.36347344134696    1.48978283807043   -2.63121494441499
C         2.73822526192460    3.17674750686590   -0.45008043229891
C         2.13441882834604    3.43585727258678    0.85565335023853
C         1.69387279149725    3.02820013420061   -1.39293266346304
C        -0.13094323920479    3.22093728123829    1.56774166014860
C         0.77479978919031    3.70425608266825    0.63199933054199
C         0.48056614720100    3.52301678017947   -0.77090282968983
C        -2.00483753896151    1.98187977063246    2.06467408706159
C        -1.48479562188623    2.97924127253757    1.19292887511162
C        -3.20629650256401   -0.07998007013790    2.27647741293421
C        -3.93922663330653   -1.07786503310993    1.57510137339047
C        -4.51654649757904   -0.79838916387356    0.31913270480091
C        -3.16602283160297    1.24749192102229    1.76346070857607
C        -3.93104747596247    0.42208720043002   -1.54733117990001
C        -4.46926348112875    0.49767883108525   -0.19178496355087
C        -3.77767127825807    1.53288888797187    0.49212554405989
C        -1.94123839798861    1.37049227897893   -2.48938061404290
C        -0.81990195601433    2.21104790974698   -2.26499844165740
C        -0.79445235858956    3.10717511574554   -1.16615945378138
C        -1.86802629188553    2.99568122279749   -0.17600878692768
C        -3.10398786071095    1.53524599851259   -1.73950460564526
C        -3.02938894191981    2.27870824351020   -0.49308595912258
