54
C54 Isomer 562 Symmetry C2
C         3.74170223595335   -0.86833753131638    0.13583590203146
C         3.64161149392540   -0.14291150685042   -1.03711821324920
C         2.84905646888143   -0.90549322550241   -1.99641144687950
C         3.02131198258185   -2.11860359175877   -0.04527387679306
C         2.46776655373052   -2.12751039524840   -1.37421726851729
C         2.17814328537485   -2.28540294431544    1.05192325849479
C         3.33155631375001   -0.27943700908414    1.37536389166181
C         2.37477051823599   -1.15511353372493    1.96892211433244
C         3.11333260438432    1.11647964021763    1.40297803106551
C         3.19179496543481    1.21798176612999   -1.05157611785859
C         3.02503475076848    1.88086857733172    0.15499097967215
C         1.89908341345783   -0.04701227850388   -2.56585758681528
C         2.16354623609619    1.29578051289576   -2.07416168175642
C         0.55496482047174   -0.48828621194899   -2.79336645398375
C         1.15803906175787   -2.55282457794249   -1.54436239352001
C         0.25002914603346   -1.80350223346955   -2.36734157710194
C         0.89047706007168   -2.88206291888406    0.88832040334541
C         0.41341380247477   -3.10086380307546   -0.43087000262613
C        -0.08081983095821   -2.56813785161792    1.88105621571293
C         1.27425227915996   -0.65446373799668    2.72312170762920
C         0.08014201359646   -1.39775665559039    2.73091738167308
C         2.11412822193659    1.60153890552031    2.25991375762538
C         1.15234914832730    0.76694526785780    2.86848661602628
C         1.92133059524934    2.81630741166999    0.29149733972677
C         1.41195641006850    2.69404709386176    1.60809691431387
C         1.11026645906468    2.16730782689164   -1.92381111967186
C         0.99100728323541    2.97841839262362   -0.73399322946360
C        -0.50994763496325    0.49620332369739   -2.80260255260503
C        -0.21194222784841    1.81191441027477   -2.37295539596907
C        -1.85761317821546    0.05526775573795   -2.59700535628394
C        -1.07942723649509   -2.15860839892971   -1.93994590284030
C        -0.98000732759215   -2.96856846590759   -0.74750848870433
C        -2.13014561895047   -1.28717319324506   -2.10844264350942
C        -1.43978994824204   -2.68229580800459    1.58699595492582
C        -1.92745340688229   -2.80563094221571    0.26209262812246
C        -1.20124534351033   -0.75440232360862    2.84986277205689
C        -2.15300419230121   -1.58938735617299    2.22603620123718
C        -0.12701181595735    1.41023262031115    2.72767673991622
C         0.04836754850497    2.57982123636442    1.87963415660033
C        -1.32075270120452    0.66686139051511    2.70088926051977
C        -0.40748931774918    3.11086459004992   -0.44056116344189
C        -1.13355658956407    2.56181837855814   -1.56564220873609
C        -0.90637016130001    2.89295978417203    0.87080476162940
C        -2.81695043705868    0.91424947327642   -2.04435883144950
C        -2.44594283804753    2.13672732465656   -1.41700466838174
C        -3.17529241296718   -1.20850481484755   -1.10347262379086
C        -3.02854948184611   -1.87028888960674    0.10637760154208
C        -3.13791313308678   -1.10495635601042    1.35207209236916
C        -3.62542586959294    0.15256288379801   -1.09762219991443
C        -2.40870247334306    1.16695214890307    1.92813121856786
C        -2.19652089692396    2.29636241219816    1.01336404883211
C        -3.02161837655736    2.12914038947791   -0.09726571566262
C        -3.35565306209180    0.29095688821942    1.31957285191758
C        -3.74528915927830    0.87896615016867    0.07281391797789
