80
C80 Isomer 19254 Symmetry C1
C         5.35779711946370    0.44314660112867   -0.42246813224324
C         5.42199163308132   -0.62787784924988    0.46598178871127
C         4.79172763781833   -1.78942319449864   -0.17343693080362
C         4.75609058073809   -0.05416662085771   -1.67045322384316
C         4.30898007102964   -1.37559967833295   -1.45318792591270
C         3.88136727741806    0.90516625048129   -2.17840899382427
C         4.69726853972121    1.64622934864461   -0.08033554341001
C         3.99877294800489    2.03697687307112   -1.28119549645523
C         4.00242465195778    1.78866919583221    1.16473334320886
C         4.85849586181823   -0.47145010730645    1.74111221320281
C         4.11181221602847    0.69171055948114    2.06553375127362
C         3.90716565117805   -2.36807510051497    0.76865611165742
C         4.00243587781076   -1.62403222784382    1.97758777485336
C         2.64620380869894   -2.84126137821968    0.35131706849825
C         3.00858158401969   -1.73592363154219   -1.88207289937943
C         2.34244059884660   -2.70391584960263   -1.04921411020945
C         2.61005765352909    0.55235140682651   -2.71884919588439
C         2.18429825624875   -0.81182234680708   -2.62518909682208
C         1.60425796219870    1.57713690729252   -2.80605968911361
C         2.95624924048492    2.89898930406427   -1.20803974569041
C         1.87891028582335    2.79437330407219   -2.14773236002224
C         2.77950475079082    2.57534939594047    1.20922621198954
C         2.41555474748285    3.31026158799689    0.06245582866474
C         1.68073556258835    2.25232408747665    2.08172609560393
C         2.90994049542110    0.24089705411448    2.71549553207299
C         2.82193681453172   -1.19553613494102    2.59783832039466
C         1.73817324026645    0.97904773648100    2.74794598908168
C         1.53560953639784   -2.78598507093077    1.26655421577263
C         1.59185177638267   -1.83850972745219    2.33656635275915
C         0.24738760238405   -3.22078121535577    0.84330818675580
C         1.07330757300370   -3.06568648780315   -1.43432200625916
C         0.12716494873634   -3.58423025861076   -0.50917753350642
C         0.78441846513145   -1.11702203018634   -2.86102029116372
C         0.34355986851408   -2.37634089392890   -2.45256729030483
C         0.21550726140847    1.24567532445954   -3.06141234178069
C        -0.23559643221117   -0.11505076489985   -3.08976752593367
C        -0.75475826933731    2.23079925545863   -2.82437502809072
C         0.83213524073851    3.56859218185795   -1.58248510069084
C         1.09363473261105    3.77086700924719   -0.18472701597130
C        -0.45002346313323    3.37113884861155   -2.00281337355370
C         0.39026195127857    2.86759654001947    1.91135996017586
C         0.05090745826370    3.64023635081610    0.74292285870859
C        -0.69364675817966    2.31673425537979    2.61192971525302
C         0.53517742140110    0.23873126424576    3.03188700753112
C         0.39517615588101   -1.15925586397033    2.73984455084335
C        -0.62114773381236    0.98904049369621    3.13332190376843
C        -0.95511621214781   -2.83381326437545    1.55542823035210
C        -0.89480635724765   -1.70735385197923    2.46034297629611
C        -2.19242574063088   -3.17166368450643    0.99119719485357
C        -1.13140614171403   -3.57114194221031   -1.16361336583260
C        -1.03248933011895   -2.70585079426311   -2.30863899792596
C        -2.27057059813998   -3.58090564488861   -0.39396391201006
C        -1.64250824767104   -0.42547996569338   -2.92889596800208
C        -2.04376273836004   -1.77135088552981   -2.59419283085939
C        -2.12214566513724    1.92725070030638   -2.61822359670754
C        -2.61093555560106    0.62017269117071   -2.66693872130981
C        -1.53040608246994    3.62453428059492   -1.12119964457799
C        -1.31981566127951    3.70488677253507    0.27417411462294
C        -2.63656464735817    2.89540475978058   -1.66862765839623
C        -2.06268050820774    2.57602808372991    2.29670556419621
C        -2.40889775722979    3.26451198912464    1.11226415001336
C        -1.91040771528465    0.40294180444111    3.10190944601157
C        -2.08898603031151   -0.93458533415688    2.71301932921866
C        -2.82809109738579    1.44612939177887    2.74697123839340
C        -3.39753520714740   -2.42288811404647    1.27038050094723
C        -3.36670565412687   -1.27572578316316    2.11105902609143
C        -3.41588518847116   -2.99046985851345   -0.96395847812647
C        -3.30506975196587   -2.01725755179612   -1.97279418716539
C        -4.19712786754996   -2.42712147125998    0.11041175428984
C        -3.88158209445443    0.37353147151175   -1.97911804739780
C        -4.21419056929619   -0.94019179475780   -1.63753756533789
C        -4.81042232941176   -1.24960968655733   -0.35823544686102
C        -3.72406729583337    2.62135402555442   -0.90401392861568
C        -3.65653198544545    2.90463765066024    0.51955759195422
C        -4.44341745595647    1.39554743280852   -1.14007040313058
C        -4.03824221669156    1.11908918880927    2.16557856363350
C        -4.31888060244326   -0.26431065007846    1.84397137182286
C        -5.03126757381446   -0.24687497177590    0.58270177759164
C        -4.49560810883004    1.95381354750703    1.11649120307975
C        -5.03455241472462    1.07366675539735    0.09386478897592
