78
C78 Isomer 13 Symmetry C2
C         6.75422765735835    0.70185580359484   -0.75153010524767
C         6.96557728271037    1.60885612709688    0.31067194152740
C         6.41300570248864    2.85986104071933   -0.03789401103535
C         5.90636950132886    1.35808101220080   -1.75825269817170
C         5.70605084263104    2.69045106286409   -1.32516645950395
C         4.76800153482731    0.52780208473687   -1.95626666626836
C         6.01488817015723   -0.40990813678680   -0.23852049878414
C         4.86630363756912   -0.60671408694490   -1.04027632788449
C         6.28098239063291    1.09022695086841    1.51429554446381
C         5.81388961417338   -0.22306853550542    1.19482376671123
C         5.40747772859059    3.13736890885068    0.93127864744853
C         5.32172481595558    2.05466828722306    1.91346493971460
C         4.37153580712753    3.13554811936642   -1.14901014497783
C         4.20469705577059    3.45729070508615    0.26432719992771
C         3.48091203848335    1.08315009201210   -2.12756235291805
C         3.28881384257999    2.44880206000287   -1.74322343966778
C         2.33177383734608    0.22234819513030   -1.97478966633098
C         3.68262960582582   -1.17466085854053   -0.49197878807936
C         2.42592089804546   -0.92812823494040   -1.15272949870647
C         4.60038728465281   -0.62887195804526    1.71665237785034
C         3.64587476121255   -1.35503698234037    0.90545685969840
C         4.03819425374430    1.66466191993435    2.39795154524658
C         3.80071388008301    0.27482812573086    2.51076504532361
C         2.95752168145688    3.25854097450929    0.88674183936675
C         2.85509184103509    2.44602905937882    2.05686537136284
C         1.97972364885464    2.82641637433063   -1.29745174566863
C         1.82240295028883    3.31539472565899    0.02015723517097
C         1.04226052646984    0.79670067447590   -2.18325216542495
C         0.85450647212398    2.16800754595846   -1.86573516014744
C        -0.12107929491413   -0.01569548871061   -2.07158827448770
C         1.20705931509435   -1.36981855138264   -0.54147861030745
C        -0.03429739813600   -1.10396896892463   -1.17564955967980
C         2.37829055961641   -1.26878529903105    1.55241173070480
C         2.46356036749592   -0.22675522014692    2.51882442122300
C         1.17394560713157   -1.48222149255279    0.87391539228212
C         1.54648955909186    1.97491865936271    2.38740201624101
C         1.34173101672331    0.59756479025744    2.68214619066263
C         0.53303238217306    3.26239090257690    0.59831609528827
C         0.39231282346442    2.63897800287301    1.85499492279754
C        -0.45549074387170    2.62189560720884   -1.51940035566327
C        -0.59566936538249    3.25840142748002   -0.26924237938029
C        -1.40666161212562    0.57287256030636   -2.32544955240389
C        -1.61025808644314    1.95337078967470   -2.04488800622254
C        -2.52922693563135   -0.24878716640569   -2.15360869579577
C        -1.24061695248124   -1.48832552552228   -0.49585453159909
C        -2.44478731722209   -1.28085507442067   -1.17651503008194
C        -0.03204473287315   -1.08989448497507    1.54972285368972
C         0.05564789910882    0.00748996127257    2.43436401549234
C        -1.27362353586392   -1.36126362714665    0.91832787964470
C        -0.91805836639344    2.18979374807250    2.20600831497151
C        -1.10695496482111    0.82197963202105    2.53762749221983
C        -1.88497981534597    3.31853420532891    0.30835178629052
C        -2.04269349619075    2.84326740839557    1.63093989110997
C        -2.91843350336864    2.42903307537043   -1.71922826428078
C        -3.02015333204641    3.25373599106367   -0.55757223642300
C        -3.86600494708233    0.25403088971102   -2.15067951709959
C        -4.10217364936550    1.64514540660405   -2.05217012212167
C        -3.71252530354100   -1.35927850844837   -0.52865346906665
C        -4.66647134478635   -0.64083236482930   -1.34732750876682
C        -2.49210953634476   -0.91224574693741    1.52497869676084
C        -2.39693944963068    0.24659161249649    2.33511189431176
C        -3.74905597660829   -1.16450640719119    0.86683899716296
C        -3.35206523760214    2.47139473068802    2.08063090987392
C        -3.54528368408148    1.10988729373402    2.47899636223791
C        -4.26708627999962    3.45998207476994    0.06283508900999
C        -4.43424844110100    3.15291760232540    1.47940145831668
C        -5.38533279939811    2.04122027445143   -1.57159013311766
C        -5.47023394147890    3.13421473256817   -0.60073162489817
C        -5.87962343080825   -0.22867580868583   -0.82956776491977
C        -6.34538976495010    1.08181263921051   -1.16251274731115
C        -4.93229288097023   -0.58992254205887    1.40926006241140
C        -4.83290416915224    0.55397914203687    2.31352416461547
C        -6.08065691302839   -0.40048151006369    0.60561587283401
C        -5.76913302596578    2.71089505797502    1.66015838655757
C        -6.47599343410473    2.86764098942184    0.37132993794444
C        -7.02948365616563    1.61343126409327    0.03573189321940
C        -5.97052054019373    1.38313493083978    2.10698044595369
C        -6.81897093395341    0.71730732861674    1.10714862480340
