78
C78 Isomer 21235 Symmetry C1
C        -4.95264363369821   -0.22245843759962   -0.47069158189046
C        -4.73627831682746   -0.03062494321843    0.92262166089543
C        -4.17169610091985    1.26931336472854    1.09889011170808
C        -4.58868014400204    1.00223524990570   -1.14933553592997
C        -4.14291347382893    1.93070248555907   -0.20761969055251
C        -3.75854513675977    0.66063759966953   -2.25819575246192
C        -4.35370297221934   -1.29612418376305   -1.15764440174246
C        -3.51260878725696   -0.76250596053394   -2.21840530996312
C        -3.91206722759339   -2.38894665965930   -0.40602580749932
C        -4.22731905313508   -1.09869789126096    1.67243255164848
C        -4.03420221148432   -2.32925637258586    1.00333393180074
C        -3.10435279161680   -0.90381865277795    2.56496183520206
C        -3.10987167450467    1.46455124127539    1.99930876461550
C        -2.49484324022614    0.34648383300789    2.70685962437469
C        -2.29611489760703    2.59348298413232    1.76804680171862
C        -3.10586047776031    2.84149830157151   -0.55092980374582
C        -2.29946043952981    3.29697000357580    0.50515081973888
C        -2.73567907540795    1.51985177351246   -2.59230684168708
C        -2.46645218389492    2.69674936338882   -1.81110643398464
C        -1.48480573969645    0.98511317099936   -3.02839861110372
C        -2.22607581873610   -1.27395230369789   -2.44675378560123
C        -1.18640563463773   -0.37970895494952   -2.93161265167996
C        -2.64593432166749   -2.99388280935771   -0.72816507854538
C        -1.80571037820592   -2.45439575796552   -1.71096489733984
C        -2.86196358720399   -2.96058463611142    1.56393756885842
C        -2.28716308138974   -2.10320452561535    2.51837936392706
C        -2.05831004246481   -3.43174130198362    0.52027132385429
C        -0.89892416788272   -2.06520421725868    2.67021311373004
C        -1.09414867274297    0.39723801640779    3.09996319874889
C        -0.33476728679996   -0.82723295010896    3.16066119131855
C        -1.01718402989400    2.70645298588319    2.34551064880644
C        -0.36769544436808    1.62857861715157    2.99730191316715
C        -0.99242406109020    3.79676575993172    0.28563464096505
C        -0.26264051302241    3.59195769795156    1.50175726431277
C        -1.08398593843189    2.99793481377640   -1.96363303176232
C        -0.48432639991887    1.96211274517431   -2.75816653121220
C        -0.32285855921467    3.61209000982954   -0.94998572201236
C         0.86023103206663    1.63429434152921   -2.68768352081649
C         0.20086100880947   -0.74166844444251   -2.90523704831864
C         1.22743589339981    0.26282146639972   -2.92634478156158
C        -0.41159692932817   -2.80303694619282   -1.66700528320394
C         0.53819679119842   -2.07420837139687   -2.47383616866631
C        -0.67877650698072   -3.48403231104953    0.69102389713107
C        -0.08803414086681   -2.94583629458180    1.87509391297967
C         0.08651681742482   -3.50367889463922   -0.52402700293532
C         1.34702682458914   -2.83259196726222    1.92470462141393
C         1.05632587942514   -0.77006183052319    3.23817275703329
C         1.91108488856297   -1.78680677757420    2.69099898182749
C         1.08316683256780    1.66484421499752    3.03931157013784
C         1.77546233378273    0.45372666343254    3.21987542316727
C         1.09812181001533    3.55281726287395    1.47428274140046
C         1.81289798323435    2.66165560982105    2.34885042299551
C         1.10781107507769    3.44050670487651   -0.97479610710848
C         1.71606416278419    2.54341895418311   -1.94499019721425
C         1.80669381621075    3.63999172705976    0.22967555657247
C         3.04426492877217    2.17815138008854   -1.78259760770656
C         2.61070160251584   -0.09789084886251   -2.73273552947555
C         3.52122887647541    0.89132812110794   -2.24073755443239
C         1.89735141693586   -2.41268108190285   -2.37392172063595
C         2.95118053063243   -1.43778562319396   -2.51124350643428
C         1.46133755522120   -3.68005135993683   -0.35924026101160
C         2.12393531167588   -3.35550631025176    0.88788012478082
C         2.32059485540232   -3.34348583753217   -1.40003642530456
C         4.01795997428757   -1.79665762130144   -1.58738158974893
C         3.42149475592950   -2.81336802574320    0.56874446788889
C         3.57191755197954   -2.89455322411000   -0.83543608654835
C         3.15296139583434   -1.20013651827493    2.35773863566082
C         3.07071136651847    0.20177081223388    2.68456687572654
C         3.93434571233210   -1.67034233851529    1.26393669559885
C         3.08336091536566    2.41148584210913    1.76014127849652
C         3.08931602250583    3.07231052420381    0.47011167819785
C         3.77826784490009    2.50796304787758   -0.58230547998389
C         3.75729717879990    1.17056250143140    1.92688871312767
C         4.59770943221343    0.51408412303041   -1.42183368090228
C         4.71937214647045   -0.79767373911046   -0.91199160461220
C         4.66902469511703   -0.71505999239595    0.52546691185178
C         4.66998346987210    1.43938726378585   -0.31665337806240
C         4.60080840391031    0.70061433876710    0.87227440801842
