76
C76 Isomer 14101 Symmetry C1
C         4.46923224060174   -1.26303812676898    1.50195635712795
C         4.95095297054219   -0.11331497573231    0.91044653999727
C         5.01095039508292   -0.32895605414550   -0.53713079904175
C         4.20880678302928   -2.22502261044353    0.44060440487371
C         4.39391751936299   -1.57719846184857   -0.82088924409172
C         3.01864892269052   -2.86568819558892    0.73847040078569
C         3.32357218683114   -1.20975062504297    2.34077988235669
C         2.49753694671531   -2.32579602268747    1.98121066614209
C         2.70817814032848    0.01794914104892    2.65414145888942
C         4.34830299609086    1.14090708371585    1.17204139818695
C         3.25706363674198    1.23673236177624    2.07279554738824
C         4.59437861483080    0.85710851433028   -1.15044819579095
C         4.29933693292546    1.83058491130749   -0.10360825045107
C         3.71537248754213    0.76642360910933   -2.23901817167690
C         3.33186465108847   -1.64615109482545   -1.77585634367179
C         3.07969119445424   -0.47836427220551   -2.53519977923656
C         2.09121596873638   -3.18850546329887   -0.28349352018162
C         2.21268590407692   -2.52863042350849   -1.53977652507929
C         0.84568153209045   -3.71188949055693    0.18497129519050
C         1.13912703517095   -2.38294492274802    2.25210602713502
C         0.37956378468386   -3.36011901391124    1.50534848627766
C         1.30827287525134   -0.05902736145488    3.01663276415086
C         0.51848450401830   -1.24716500521448    2.87082790070965
C         0.59850712135902    1.14868092208603    3.10961258095155
C         2.37394985912772    2.36382797860545    1.89118533222512
C         1.12016493960263    2.34614539991454    2.52504942744971
C         3.34970666118448    2.79394858578867   -0.32294046995699
C         2.44345925578831    3.15933930374000    0.72441194987390
C         2.75440017577832    1.80991089729938   -2.46510960742262
C         2.61638003499997    2.85202567336599   -1.56613482222202
C         1.75727754094249   -0.17925008838202   -3.03154202269232
C         1.56421679739311    1.22940906257179   -3.00156301274014
C         0.98344909248252   -2.33323410326513   -2.27761562180729
C         0.69123632941106   -1.07212499812037   -2.91761371635974
C        -0.10784121462834   -3.98966228801999   -0.81012824277184
C        -0.09176100331516   -3.15304766305533   -1.97930984589236
C        -1.45961993685474   -4.20985866816360   -0.46921185983452
C        -0.99129815568155   -3.41639229923621    1.77621556474885
C        -1.89216808189211   -3.96283963424237    0.82372766776294
C        -0.92368842060781   -1.16945547045293    2.84305989613986
C        -1.63829961437418   -2.26933393792067    2.36592489997364
C        -0.82260503214332    1.21922654290048    3.10402612358369
C        -1.62572255779961    0.09472881290356    2.88375870209263
C         0.02031872183128    3.12361811282831    2.06685168069696
C        -1.16941557071344    2.50301376988380    2.56368564305022
C         1.25260109369510    3.65845033546405    0.11241204521793
C         1.32051729689688    3.37720009411391   -1.28907672930967
C         0.01433310273668    3.69052657513520    0.77528268722047
C         0.29258973309926    1.77781225736694   -2.79800933327085
C         0.16241645088260    2.93922542731320   -1.95813043809666
C        -0.65001417273465   -0.55117647846470   -2.97135149018747
C        -0.82117429223730    0.88077356124553   -2.95931726891823
C        -1.45296590587167   -2.73302714259961   -2.23483158548044
C        -2.30523511003910   -3.43718463962886   -1.37742084882907
C        -1.74758045325079   -1.39291333380214   -2.59343118628754
C        -3.06230260439185   -3.09755112082814    0.74969998134442
C        -2.90217744343661   -2.08153855704845    1.69491504666346
C        -3.28171047283355   -2.74923669458474   -0.61239189827083
C        -2.90384199597451    0.27836721054575    2.22782752056636
C        -3.44763033661467   -0.79585639553340    1.45373497976362
C        -2.36000158004163    2.70119240008897    1.93239862733593
C        -3.29919656231742    1.59709289963554    1.86345116960919
C        -1.20190989738385    3.70081777482586   -0.00627691484273
C        -1.11511265312987    3.28832917971734   -1.39083894834235
C        -2.40873802677238    3.44578861937281    0.69336088123989
C        -2.07583040124739    1.40933413268921   -2.66976659549977
C        -2.23233342401626    2.67477002484883   -1.99628698387845
C        -2.96823965603836   -0.83149232718492   -2.08018089654363
C        -3.62655023881019   -1.42391867595578   -0.94079148464389
C        -4.02589832779219   -0.55702835674216    0.15199143605617
C        -3.16315019246166    0.55154532148218   -2.28175546532787
C        -4.10672044810503    1.81459966880489    0.74691149372127
C        -3.54888607979830    2.96481343763608    0.01524246750336
C        -3.47969304487299    2.61765625382143   -1.32139134232296
C        -4.35975580106045    0.77272113786923   -0.17741045014879
C        -4.03529372085520    1.27708799806055   -1.46782102288015
