80
C80 Isomer 18470 Symmetry C1
C         5.18130272627725    0.05895745359650    0.14776794486430
C         4.95055081544620   -0.51559641250422   -1.10147476839196
C         4.34537467629225   -1.81060124088409   -0.89640008026649
C         4.61960419506502   -0.83544780294051    1.16291572570454
C         4.08991876878578   -1.96838140936622    0.51106069087597
C         3.81429042699129   -0.08089879114985    2.02792069064408
C         4.76556207496912    1.38222615900626    0.43794311247483
C         4.03826723622871    1.31211056234785    1.69509845310346
C         4.22185274741380    2.15297612514170   -0.59645298901638
C         4.17118164978358    0.18476893987458   -2.08035608297952
C         3.85741975630419    1.51673801746084   -1.84709461012552
C         3.26994584121525   -1.92646493840062   -1.79831502511692
C         3.12069271563256   -0.69523064246173   -2.52448899590752
C         2.15423513372854   -2.69192842442889   -1.45512209032756
C         2.85782283446787   -2.47935416884185    0.92605049028127
C         2.09789542125234   -3.16233249668486   -0.09498916356600
C         2.52394062781794   -0.54480389463544    2.42606432487366
C         2.11084940097818   -1.83299846740146    1.97630020124041
C         1.48908555490272    0.40586811211656    2.76223401471622
C         3.03508260187804    2.19921077186930    1.96218397386808
C         1.81423762947118    1.76722638581517    2.59479636315034
C         3.19013907222450    3.10176362193712   -0.29359507207811
C         2.69061234300210    3.21586772222730    1.00019833614803
C         2.56688911642638    2.00508123617339   -2.23752144319290
C         2.23356146722327    3.09159504508862   -1.36071442639281
C         1.82266622455827   -0.24969359737989   -2.82477920406359
C         1.54694244728265    1.16293717782873   -2.73806658207023
C         0.92036799353161   -2.46096470685978   -2.13740823990881
C         0.72934498434119   -1.18048578211099   -2.75507610997373
C        -0.19825867138402   -3.28492026121097   -1.77415918062141
C         0.95275015892605   -3.77900878027568    0.32593726927468
C        -0.11134200323760   -4.08102944023809   -0.59536157709722
C         0.76109530434725   -2.24803413100665    2.23089446765294
C         0.37979369111939   -3.45951168802389    1.60668412999827
C         0.08922492473659    0.04564738871673    2.80242955918706
C        -0.27260120602016   -1.33863036353336    2.64763412495746
C        -0.92590200898134    1.05959490860065    2.69938201857707
C         0.80686475572316    2.69264688508529    2.23788866119457
C         1.32454180501001    3.54101138762041    1.19916501254099
C        -0.54951248804596    2.39317868652707    2.33056574548011
C         0.91461877659185    3.47212853997085   -1.17955293839883
C         0.46964215096107    3.84424266707249    0.13564132847880
C         0.19202239020432    1.63120124683365   -2.69971347492440
C        -0.06081731267626    2.89210250818632   -2.06682279907481
C        -0.60766336759269   -0.68434617830880   -2.93138892557845
C        -0.90408077301672    0.72679099410594   -2.90309469842840
C        -1.48377049113711   -2.88198405352306   -2.17260772426789
C        -1.67456964021627   -1.57567410448132   -2.73726708972626
C        -2.65948564812477   -3.21320787971988   -1.42511911020879
C        -1.25369789614294   -4.31394127088059    0.18322033026610
C        -0.95823785008617   -3.83880791941920    1.53673246958742
C        -2.52228007734247   -3.84170455440549   -0.17976299780013
C        -1.66493180496791   -1.70402735297788    2.48605390385591
C        -1.98456605211330   -2.98686958238980    1.95367381733104
C        -3.05620105810201   -3.15894008736483    0.98939073024207
C        -2.31323650245686    0.70231139569554    2.54367146559200
C        -2.67728324921249   -0.68782658569149    2.38678468899575
C        -3.22318066809138    1.70154630882520    2.15069990096431
C        -1.43367597039134    3.28382130973145    1.61947476544677
C        -0.92019848468395    3.91922252517486    0.43315738482498
C        -2.80255102339549    3.00483563808094    1.70000311663474
C        -1.36523610823111    3.31322603723228   -1.88560998371286
C        -1.76659781387196    4.03082395425174   -0.69217522360645
C        -2.26086007470754    1.16312595945233   -2.68303826686736
C        -2.47287469073459    2.51813597521208   -2.32064147086410
C        -2.98843202640625   -1.12748938886950   -2.41716406235059
C        -3.58446179328109   -2.12624376342344   -1.57392194349267
C        -3.30797239664489    0.23429684518318   -2.32570973900202
C        -3.94641363841813   -2.14532260916765    0.82673312104845
C        -3.86371077821527   -0.98548322362656    1.66965066692924
C        -4.33346123143521   -1.69376743131664   -0.49274563560571
C        -4.38194708717528    1.35699345153909    1.35748311027302
C        -4.35795459484005    0.61573847618995   -1.39078243204044
C        -4.57835596740513    0.03678203012526    0.99525080637446
C        -4.70960454961790   -0.32725348204047   -0.39672798790313
C        -3.67958033359919    3.42743671980746    0.66130095891415
C        -3.14760067234796    3.85390894129048   -0.55381804241802
C        -3.60952296924445    2.92578724914045   -1.59344728390756
C        -4.59353812496132    2.33835419663031    0.37725581061730
C        -4.47202134255491    1.97998735117969   -1.00580621590931
