68
C68 Isomer 4986 Symmetry C1
C         3.95512340670787   -0.98861128556298    1.79390735495113
C         3.90765023616510    0.37276471647660    2.00497537190107
C         4.39042124979113    1.04744115916056    0.79097129931193
C         4.38568881946731   -1.20809451413973    0.39566241174060
C         4.62060088014247    0.05429159242531   -0.20933800855179
C         3.51314027112068   -2.13657110412666   -0.16379195945717
C         2.83549374749289   -1.79806903873540    2.07734978631090
C         2.72243445944128   -2.66836727323123    0.93260121945015
C         1.65082184159037   -1.25844840906464    2.64643276444526
C         2.69349991140411    0.96877815941355    2.42782428476820
C         1.58091972334615    0.17315175308310    2.80352799901935
C         3.53713257256478    2.13253391085180    0.55809679394901
C         2.50976896137935    2.12747072302408    1.58026101261563
C         3.15177232758870    2.43278198465268   -0.76599778423119
C         4.07749236295804    0.26006470213076   -1.49884831336980
C         3.53629846661741    1.52992278631184   -1.78557501473128
C         2.85035338128000   -1.90607010528880   -1.42590905837752
C         3.19053370396324   -0.72516697970313   -2.09416567027814
C         1.53960083756340   -2.48992837490523   -1.66363989768111
C         1.53892126950299   -3.26570083423206    0.66925677220764
C         1.02197554995030   -3.35082477905778   -0.67661773064795
C         0.41781446871507   -1.99547226314926    2.45584685471430
C         0.43524865238102   -3.09683414939127    1.57562849102148
C        -0.85691420632721   -1.37937729484852    2.72765773026685
C         0.29304069772121    0.81795301494546    2.80880021660417
C        -0.90439066351448    0.04043746381110    3.00247093577593
C         1.23221819177247    2.58523788062671    1.32011596928286
C         0.18567307967452    2.09782731502254    2.17996319832535
C         1.80862230299829    2.86152154070939   -1.03190169753584
C         0.87462512431502    3.02249959282030   -0.01602438125406
C         2.39766181641047    1.35901490383300   -2.66460457844863
C         2.15456966359710   -0.01511337720533   -2.83093070555397
C         1.36216887250020    2.20574924646657   -2.25998082944202
C         0.56413636284227   -1.82326962846258   -2.50688570034075
C         0.83164962563611   -0.47060495040880   -2.94176997985068
C        -0.77926495402544   -2.21771447077253   -2.45206604001581
C        -0.36438927578655   -3.61869392430594   -0.53871863136151
C        -0.72206423030960   -3.50127531970808    0.85748471568172
C        -1.25741067502209   -3.15951430111053   -1.48898928612424
C        -2.02986072436511   -1.98718313726007    2.22200798032432
C        -1.95661419741269   -3.00435030201639    1.21458348219671
C        -3.23561295111748   -1.24991446029094    1.96480459663527
C        -2.15211875394521    0.69624360437878    2.90311450088747
C        -3.33130592224296    0.06435226972389    2.34937780369519
C        -1.07985029393051    2.65138633119433    1.94435567306044
C        -2.20595333610779    2.04370819992002    2.48518167208263
C        -0.51990661543419    3.08460027032287   -0.39606773693976
C        -1.44866290171031    3.17951868886644    0.63300074444395
C         0.03526371513888    1.81855750048067   -2.45434539360181
C        -0.23704962150587    0.49960000285692   -2.94567429297818
C        -0.94945187953457    2.53252778134257   -1.66863949363228
C        -1.86575871346116   -1.31396611924263   -2.73443431670811
C        -1.60296684928477    0.05726355610707   -2.92262417359878
C        -2.60230776355031   -2.81024697812558   -1.12604873705038
C        -2.96476785923841   -2.75998415872325    0.21702361436679
C        -3.80721739914945   -1.70015964131764    0.70567399710254
C        -3.01886863623178   -1.74878648916409   -1.99941615198309
C        -4.37994515435838   -0.79380283122035   -0.16599382108819
C        -3.96721771068616   -0.82530347869994   -1.56223459032797
C        -4.03300228263846    1.01322378801354    1.49695728948309
C        -3.32886838626960    2.22640056441445    1.57776515355024
C        -2.84318907623028    2.90116246950720    0.42941047904373
C        -4.51339527015040    0.59707737465063    0.23550310194228
C        -2.28222067048971    2.21014784399097   -1.85297323767836
C        -2.62153209495032    0.97461547480822   -2.54124804612455
C        -3.82034631957537    0.51188153463469   -1.98306928531204
C        -3.27035577748946    2.45064761435108   -0.82898853566961
C        -4.20455538769413    1.39406265814169   -0.88608219121160
