80
C80 Isomer 13298 Symmetry C1
C         5.57717689419065   -0.09087548842547    0.77899445635832
C         5.50837746393596    0.92085325250981   -0.15831233443123
C         4.94515073830235    0.36600661441483   -1.41506546541115
C         5.25812396511321   -1.33815806729751    0.05741002687436
C         4.65015673499562   -0.99672853572438   -1.21217530737814
C         4.60490267820036   -2.15713127522403    0.93068599408628
C         4.77425056028536   -0.04782425930970    1.96969518321952
C         4.33064658330705   -1.38855287626881    2.15799985826079
C         3.82117716700662    1.00827021066798    2.17403246392169
C         4.80540865173551    2.08459757981067    0.15628648178633
C         3.93940756660064    2.12531817082275    1.29464459345094
C         3.95910939865556    1.25588512857224   -1.86975041617033
C         4.00223075012996    2.40397948918669   -1.00854652557798
C         2.69672096632355    0.75702667961989   -2.30972960879762
C         3.36530700641057   -1.51895218357750   -1.56240234234127
C         2.41813407196055   -0.65054033087091   -2.23593216848122
C         3.41185212419964   -2.81610794799745    0.53982813604767
C         2.81018052059894   -2.56042554091928   -0.72107821745086
C         3.04238771420126   -1.69209799120828    2.54579600547783
C         2.55155079503511   -2.74478293974997    1.66757997284462
C         2.48015503175287    0.68661424119568    2.66345027168004
C         2.11059746669847   -0.67387471358118    2.90770563143970
C         1.37211647949820    1.58504728528370    2.45589775360773
C         2.74786751937296    2.80503758224278    0.87349602674038
C         2.80738857624322    2.94307363862812   -0.56507998492887
C         1.51102841094357    2.63132530795973    1.48777093001559
C         1.58004136521487    1.64990133029681   -2.23592471571021
C         1.63839123207369    2.72686578045848   -1.30218201550868
C         0.29073660940015    1.19910176519672   -2.64453913070107
C         1.06499505650668   -1.09784683722682   -2.45136721189214
C         0.01459427817330   -0.18721309095339   -2.81810867138198
C         1.44098216184180   -2.92522114303339   -0.84260266838437
C         0.67666178521699   -2.37402362795855   -1.92523707671593
C         1.21376170212494   -3.01304874641679    1.56274776000736
C         0.70142782346657   -3.39990654889914    0.28474095039171
C         0.74716750139184   -1.07665319325940    3.01566962530241
C         0.34436579265759   -2.37564585008033    2.50980894594548
C         0.04033007183294    1.24392195980296    2.83454530909268
C        -0.26921328411028   -0.10788519440320    3.20000156513310
C        -1.04873363814975    2.13240645727780    2.49438782447515
C         0.35400243855350    3.10860841490095    0.77638755774842
C         0.45611948280656    3.16597488404831   -0.64928960047967
C        -0.92489069831922    3.02258905407741    1.36798421952102
C        -0.78703343745561    2.06738591805777   -2.42421746862304
C        -0.70130954870869    3.05185088755338   -1.40036337024387
C        -2.15274270191430    1.66695433221917   -2.48540900684389
C        -1.37486890283111   -0.59770312744922   -2.87874253994761
C        -2.48323632158291    0.32145139270193   -2.65979140795206
C        -0.64155182910083   -2.79353782861389   -2.07381040639090
C        -1.63320340122879   -1.95866257340430   -2.66221190428421
C        -0.68747109066000   -3.70300536296648    0.19516727291108
C        -1.29844839759530   -3.61373085793659   -1.07765063781314
C        -0.98695489941577   -2.71649129320655    2.41582016899714
C        -1.50787339443220   -3.48993876240034    1.32461941934358
C        -1.64471582635990   -0.53822828286371    3.27796341059402
C        -2.00693882423674   -1.84211700550343    2.88984026720102
C        -2.35551560613558    1.78005816800611    2.90335139355141
C        -2.67225477548866    0.40277249750939    3.22242101035167
C        -3.49806519945165    2.35641522461649    2.33568418818851
C        -2.10340183576298    3.35072379036087    0.57809897007469
C        -1.98056924202043    3.27035480335045   -0.82676846575798
C        -2.91589123692845    2.54583333358251   -1.63338578110473
C        -3.39707413675881    3.06433821405939    1.08941569548965
C        -4.10264478280823    2.12399197951790   -1.06673279815796
C        -4.40382759629988    2.55032194353534    0.24621542054169
C        -3.72508989524739   -0.12254475324273   -2.02515532903448
C        -4.47654852442833    0.73957520416393   -1.21484422083485
C        -2.89946521724390   -2.39299898673167   -2.16433905616895
C        -2.68382567678792   -3.41391891620472   -1.17851903769023
C        -3.86311207479701   -1.49526552659259   -1.69786100345067
C        -2.89320584017617   -3.13698272068662    1.20090762423855
C        -3.20018964829400   -2.11092292689105    2.16558302375460
C        -3.48839381010341   -3.09030688798942   -0.05321352082743
C        -4.29163778034304   -1.93283044098564   -0.38814793268094
C        -3.95406578686337    0.09222754127719    2.67609283550981
C        -4.49875898488320    1.32717541397411    2.21059591671639
C        -5.02661649750806    1.41213952842757    0.92410777932996
C        -5.01161894999860    0.29800036713102    0.05802725263042
C        -4.15331262468800   -1.09747247346390    1.92585379463921
C        -4.69571121784065   -0.99682025750055    0.57517436205714
