74
C74 Isomer 3854 Symmetry C1
C         5.00790747970002    1.13334660130130    0.40140081127598
C         4.48202578950908    1.59303365446411   -0.84099382810971
C         4.11297571202995    0.47980535774817   -1.65809524803348
C         4.90009841836535   -0.28311571701030    0.42067058662599
C         4.45906244576795   -0.69799882788322   -0.88522637837089
C         4.11565097357388   -0.66794367548821    1.54598352311485
C         4.15002175352514    1.64900712009871    1.42980956707485
C         3.62203989643352    0.55123453665163    2.15975551584349
C         3.51714665144081    2.61017830723644   -0.55332784137130
C         3.24561402515071    2.59675369705571    0.87473906282990
C         2.45205691569654    2.72130375004301   -1.41135710306900
C         2.90055742810811    0.50241062271852   -2.40316008761226
C         2.18784754579465    1.72313302929280   -2.40667282185449
C         2.09451298638488   -0.69925508971100   -2.56078388719140
C         3.64290715241310   -1.79966918462137   -0.95999333068148
C         2.54212333518199   -1.85758532746990   -1.89916479137640
C         3.28583360092189   -1.80910984879020    1.47971815027918
C         3.22359166391012   -2.48059704711364    0.23172551971256
C         2.13645008277160   -1.86206538736106    2.35341666495751
C         2.31860391083402    0.61548868727390    2.67788545824067
C         1.68596813983667   -0.64466039107046    2.98547793270425
C         1.92482632781971    2.68109259728309    1.35628201476770
C         1.50773694117881    1.77670087682166    2.39844168241036
C         1.19263999916148    3.18940568561192   -0.91043799678753
C         0.89941863077728    3.17685905558168    0.46525371551633
C         0.78758166447906    1.75249789577999   -2.65097371435686
C         0.19766234896563    2.76058393531795   -1.82098930505314
C         0.68772560255378   -0.64951917027166   -2.89473607277775
C         0.02685844083096    0.62842442396231   -2.98654802195124
C        -0.14179596459955   -1.79844913694902   -2.67772136019121
C         1.63305641470651   -2.84813482826729   -1.43778476936402
C         2.05682027940101   -3.22305832778289   -0.11866705821157
C         0.28541408917485   -2.86095886549942   -1.80679078901278
C         1.16858324722734   -2.85686499532304    2.10716218330228
C         1.11103594124980   -3.51205647229981    0.83866570749309
C        -0.19168298607867   -2.74011862914154    2.53177364655585
C         0.36484361182709   -0.57495492893797    3.43998679170404
C        -0.58613711019538   -1.63935562131723    3.24663394765955
C         0.12868999272973    1.77953655713020    2.76410354362916
C        -0.36305756995007    0.64090664870765    3.43280138734121
C        -0.48388914648101    3.18690186598013    0.83487535078352
C        -0.83464654900774    2.63465277010947    2.10756613622569
C        -1.15688209191271    2.80965666923606   -1.51208557832229
C        -1.49174041902419    3.29531987218570   -0.19576160473383
C        -1.41103917898053    0.78649888727495   -2.91190782207853
C        -2.01404325821613    1.93345405595815   -2.25423582994391
C        -1.53718764449888   -1.65393560673447   -2.87319706289681
C        -2.17709313297738   -0.37322752465853   -3.04028170820557
C        -2.44308086985593   -2.49103948161951   -2.19656785926614
C        -0.65791219966156   -3.46414658187861   -0.88404493821393
C        -0.26240815540761   -3.67456417655868    0.45213667389370
C        -1.08838760560088   -3.24181934800850    1.52588386369463
C        -2.02840387312314   -3.20572517950473   -1.05024408809162
C        -2.37345561320956   -2.66830548742993    1.32223821995118
C        -2.88458944276454   -2.80467902416212    0.02459286403875
C        -1.90567895746658   -1.09744585684884    3.10246303252198
C        -1.76185912366224    0.29383570900665    3.39258909713526
C        -2.82075700410466   -1.54444277206160    2.13103879155160
C        -2.21451848714983    2.43501881086280    2.38471741031665
C        -2.68547591885618    1.17909307618713    2.93754204359061
C        -2.85128911973117    3.22412152976363    0.16485451001472
C        -3.19534706783390    2.84852168258895    1.48869662618204
C        -3.35888710674523    1.85497408312156   -1.82226311819934
C        -3.77582211154353    2.57645513025968   -0.69646768081750
C        -3.50755447537852   -0.46956529543522   -2.47642273713006
C        -3.62902863361477   -1.74584679432372   -1.87214078846371
C        -3.86429219567612   -1.86538658357128   -0.49219233441654
C        -4.06492258370153    0.59181761690942   -1.81288786340422
C        -3.81493285955038   -0.60551464663795    1.62590925756346
C        -3.81913137808488    0.70221836270008    2.18369560397805
C        -4.24688715188923    1.82306644249682    1.42627366136416
C        -4.61731096130581    1.68227500225903    0.10653276154421
C        -4.32128569037468   -0.75668128871769    0.26956233352808
C        -4.65147580121833    0.40521251347964   -0.49973023135660
