74
C74 Isomer 3156 Symmetry C1
C         5.04763752916519    1.33114201615177   -1.00090895712789
C         5.03658044507968   -0.09348737531468   -1.13391344368796
C         4.84241207342516   -0.67338791203064    0.15672177423305
C         4.78193412166120    1.64896400517900    0.34209431845049
C         4.65914009456024    0.42799888336750    1.09015562925669
C         3.70405393110159    2.60775875603536    0.37028601525675
C         3.95572756350797    1.85798708676232   -1.78583914662594
C         3.15074781036506    2.70134496613472   -0.97391591179036
C         4.10152578373229   -0.40554425602357   -2.15991110690499
C         3.35520470861023    0.80399435344280   -2.51196611179924
C         3.40328848887703   -1.58689148566794   -2.06962517373754
C         4.07433745011093   -1.86004764869111    0.28443594138901
C         3.48821238370229   -2.40737753607819   -0.90110524834562
C         3.31143501427505   -2.02913736511671    1.46967708642101
C         3.68764281212556    0.33395218115448    2.11460814689569
C         3.08964381053895   -0.93037097830705    2.35899071408378
C         2.83319619981966    2.55818182761656    1.43269976894592
C         2.84455607504937    1.45511977616787    2.36850916928204
C         1.47541889615656    2.95244511729703    1.23340442918102
C         1.76349798770535    2.72540146025543   -1.18082285650387
C         0.93766272349961    3.09271601594743   -0.05765200197113
C         1.95304649084015    0.76071560979704   -2.67668661276581
C         1.16169123052605    1.82889469529034   -2.13926788496665
C         2.06145158238503   -1.67041836982041   -2.57865681711862
C         1.30151263126814   -0.52061334537600   -2.84881883572045
C         2.28943502099008   -3.18323542311285   -0.85964223509088
C         1.45319812838949   -2.78828475273008   -1.94793011191290
C         2.15746946076660   -2.87850751387668    1.52091225430620
C         1.66725350731085   -3.52600955696374    0.36004091563569
C         1.77120226453276   -1.06480435449189    2.88568087950646
C         1.22887712985422   -2.31658004989845    2.43013893785783
C         1.50948070545285    1.28732140513844    2.81706833575609
C         0.68789580722884    2.29156373895176    2.21903080203945
C         0.90889354866712    0.02713286179749    3.06372244603353
C        -0.68219597659274    2.15934382296166    2.09096134243159
C        -0.46141022454297    3.06990275616912   -0.17716796401829
C        -1.26608693541090    2.87890441379458    0.99510502502328
C        -0.25795535308395    1.73844479116189   -2.21188287723637
C        -1.03980796379939    2.66075375182539   -1.43051102172747
C        -0.13298379837028   -0.63083437702695   -2.82936770164933
C        -0.91825233724141    0.56003150459926   -2.70840980922220
C         0.05827533159531   -2.94416939756227   -1.94627195637502
C        -0.73760770926157   -1.90567742719272   -2.55069880963794
C         0.29383488284261   -3.82377020451143    0.32465530380475
C        -0.47670489196253   -3.70413627847011   -0.88649854614494
C        -0.15697403698058   -2.52703282607444    2.35863299685412
C        -0.58068095826787   -3.47544724402430    1.39476877123866
C        -0.53263956837347   -0.13220165765800    2.94971211305223
C        -1.35227042066795    0.98995231806125    2.61490678695037
C        -1.06148610226869   -1.45733363625239    2.73775819109081
C        -2.75151014697916    0.84697301356776    2.30940110232149
C        -2.64930347852441    2.84891637246158    0.85796314594320
C        -3.43343265043768    1.86809821918192    1.58930376617214
C        -2.42761612815150    2.66283790044876   -1.53686191700299
C        -3.23208424366338    3.07028035318697   -0.41547909554319
C        -2.36047003658278    0.47070947236527   -2.63324596609646
C        -3.11268399686877    1.58308093732527   -2.19644403384814
C        -2.12652579433024   -1.95371831462697   -2.32122079735344
C        -2.94949393717555   -0.80765077777001   -2.43905107831939
C        -1.85079865315344   -3.58723994039914   -0.53752100279037
C        -1.92189377514587   -3.45425508368033    0.88947637171051
C        -2.69662371553168   -2.82872453244020   -1.33042872060763
C        -2.41177434047910   -1.58185149679535    2.36537766793739
C        -3.27809970475847   -0.46280134075313    2.20885845780981
C        -2.84854546180717   -2.59857544139156    1.44172011953351
C        -4.08544880152410   -0.98352083246718   -1.56004308946113
C        -3.81779079608792   -2.15243855100224   -0.75044245984939
C        -4.28077400794718   -0.78382611401027    1.22054964033605
C        -3.90290012816297   -2.04290669711323    0.63338262972305
C        -4.54929939365716    1.56902970490742    0.77105800260683
C        -4.44484346681017    2.33779118312843   -0.44927505113766
C        -4.35830748411897    1.40279061805021   -1.50970137516371
C        -4.84303208812344    0.21058812343833    0.43524522569263
C        -4.73006511887369    0.10474608159979   -1.01582849550818
