78
C78 Isomer 12381 Symmetry C1
C         5.31599343922086   -1.63792577787460    0.68514007880369
C         4.80735271724191   -1.17569760883527    1.90076166746036
C         4.91459881154176    0.27982275039417    1.92147034100741
C         5.59728408586560   -0.46847049135990   -0.16141658763319
C         5.39960067016541    0.69406477486209    0.64096920100210
C         4.85413717665372   -0.63414208144122   -1.35534237303975
C         4.55806253824901   -2.55721014980560   -0.04888778693600
C         4.33407175662485   -1.96271438912911   -1.35613080815498
C         3.31179679312786   -3.02912122500679    0.43557534339129
C         3.50171555277584   -1.54304042972639    2.34224327149178
C         2.73596357122020   -2.51814312599187    1.64188148831353
C         3.71016064723963    0.79266660723804    2.41131247493610
C         2.84788822113514   -0.33350068116433    2.72744789965772
C         3.13320043879154    1.98247965428600    1.89133501271439
C         4.80828136527394    1.79484850773170    0.05045172584430
C         3.84128246573878    2.57162371369141    0.79142827832431
C         4.04020159623706    0.42100194887637   -1.89858899668889
C         4.29725586875945    1.68652755255784   -1.30842394205070
C         2.70525872998827    0.14168647338786   -2.41926779175522
C         3.01813554141594   -2.20213373340434   -1.74291356593355
C         2.44830728956791   -3.03789348253895   -0.70285589667710
C         2.19644456519369   -1.19625281617632   -2.32639622979467
C         1.09260521250643   -3.11842552170577   -0.56870733206249
C         1.30937722771420   -2.43244391063055    1.74030950368387
C         0.50836370741032   -3.04762173910021    0.73178160986050
C         1.46104760105537   -0.19569124857977    2.72466369776696
C         0.65836559434398   -1.35161587180508    2.43028381426534
C         1.71448082206112    2.16082021461273    2.01159397831437
C         0.88208328019954    1.10442107447724    2.54602580316592
C         1.04947127734431    3.07386673407373    1.12950656366682
C         3.09777742212827    3.29744123931344   -0.16118450870789
C         3.32771251511581    2.68612238955476   -1.45254741662076
C         1.73582882482128    3.53145365564790   -0.02147318670030
C         1.69680212152720    1.17813474323405   -2.51742193293427
C         2.07878635150580    2.46063089563233   -2.05881168261230
C         1.12704341805805    3.20072908474713   -1.29291592389620
C         0.27346879660740    0.90291629246094   -2.59474228251165
C         0.78611485853308   -1.45889182051506   -2.37192929716133
C         0.31246612441496   -2.60970740924450   -1.66049759519736
C        -0.18786079900960   -0.45292582785256   -2.65457188393392
C        -1.03078625328451   -2.85801439659813   -1.56811411782209
C        -0.89867113849807   -3.05865766085249    0.83432307533526
C        -1.62557140445440   -3.32368227160984   -0.34413185393253
C        -0.75749203373355   -1.23173585385208    2.44626001541850
C        -1.54620914103719   -2.29187834427670    1.85980449322349
C        -0.53509278450113    1.20544623925589    2.54950353168228
C        -1.37125884483999    0.04009141607617    2.67855145792006
C        -0.36146569824290    3.10836475172713    1.05258969085301
C        -1.14211232194998    2.39149900083762    2.01187501065371
C        -0.21623863582437    2.94950193864419   -1.37563074942303
C        -0.70152181841564    1.87897072662002   -2.19038620221876
C        -0.96878937970801    3.34443312338781   -0.21966835203344
C        -2.12009952594079    1.60917311631071   -2.14223347289607
C        -1.60653938321585   -0.75260961841690   -2.59921516644694
C        -1.99628420854638   -2.05037180008555   -2.22467080336631
C        -2.61025803918296    0.28283723347490   -2.45072782618939
C        -3.02109571395955   -3.09966146694029   -0.42709138052049
C        -3.27183968256148   -2.35736068754365   -1.64473898092843
C        -2.93321410518370   -2.20340727998688    1.82688122649206
C        -3.70387778697064   -2.74889075338155    0.74004688637214
C        -2.81828452626762    0.15826558498489    2.59212349294380
C        -3.60425500240893   -1.00596371128925    2.28841755082256
C        -2.53463221765906    2.48414666808799    1.92136722167025
C        -3.40817769032064    1.39550558835221    2.28747825222754
C        -2.33898447832633    3.26981829759446   -0.34752812565748
C        -2.94285067168361    2.47565529169482   -1.39674691096521
C        -3.11774392296367    3.12680468557899    0.80875177757847
C        -4.60471828701915    1.47721410760379    1.45963278066962
C        -4.23287884041146    2.06416060491016   -0.90483887898053
C        -4.33809816831617    2.44066072182573    0.46137730265460
C        -3.92906635861713   -0.06611848804038   -2.09215930371404
C        -4.27576860553174   -1.40974171820593   -1.69082668884296
C        -4.75113918517623    0.82305456190112   -1.28672760708667
C        -4.87499165535688   -1.95049626479522    0.61595526382557
C        -4.84722979574904   -0.91399336954412    1.64886887739690
C        -5.27879261474547    0.31436554359494    1.06956211690865
C        -5.18649953645504   -1.33481563592969   -0.58731241836481
C        -5.46439874130663    0.07174115399363   -0.32777591792751
