76
C76 Isomer 8534 Symmetry D2
C         5.67706606076992    0.12918655130028    0.69422780868091
C         5.33368281033581    1.45686791553180    0.75729273476859
C         4.84417295983984    1.85516369369712   -0.58657157824829
C         5.67300970148818   -0.25050769589243   -0.74238421443594
C         4.91543236727893    0.74568891007691   -1.45806287332259
C         5.31582121156347   -1.57460440810450   -0.80445331890978
C         4.91139952702783   -0.85896905223560    1.41206761996507
C         4.82615654535382   -1.96786335675700    0.54076837752893
C         3.75375922260114   -0.46722128817956    2.18232407916827
C         4.38895197868766    1.87932093109707    1.70464636097525
C         3.58813144302927    0.92895665566702    2.41366491338669
C         3.65459680066357    2.57526186058930   -0.40363154842519
C         3.47723973640421    2.75488118107584    1.01024669047865
C         2.50935480030877    2.27850298996697   -1.19986440382764
C         3.75155830453544    0.36596247698729   -2.22498905237844
C         2.54517018441503    1.17489980382426   -2.12473632037951
C         4.36379436260733   -1.98702850306319   -1.74909795820556
C         3.57072670539845   -1.02836794951979   -2.45591330334163
C         3.62862521682447   -2.67542217671272    0.36160685595052
C         3.44506162172710   -2.85301212985702   -1.05189948635990
C         2.53868266494344   -1.26350404252295    2.08577237905150
C         2.48865657294681   -2.36656957520708    1.16102862793457
C         1.26912805878566   -0.70888155193545    2.49340796501795
C         2.25806525778450    1.48376323557277    2.48463354179126
C         2.21052749975670    2.60489356136780    1.57598126022589
C         1.11835163177104    0.71057649023802    2.63337384894781
C         1.24892716949700    2.65256802658784   -0.64559913397576
C         1.08366689526151    2.76383484665843    0.77094714805988
C         0.06532352886826    2.37839299183509   -1.35982899614619
C         1.26870981895823    0.63346997296649   -2.52843483831597
C         0.06050181833425    1.34868836585158   -2.32619058174140
C         2.23482028994200   -1.56939073146498   -2.52264689119829
C         2.17824580907947   -2.69009452460967   -1.61387590680308
C         1.10281893075238   -0.78431316467443   -2.66792094123592
C         1.22276456165135   -2.72759805966995    0.61067619639172
C         1.05220569585974   -2.83732518888552   -0.80549598488134
C         0.05303829973080   -1.41145447901998    2.29487609544815
C         0.04418878556244   -2.44119201179038    1.32845624611674
C        -1.22502852649277   -0.80254273926505    2.62816570315587
C        -0.16065053798460    1.32327999566110    2.31091757780677
C        -0.15454451102009    2.36400260649163    1.35632196621904
C        -1.37624272642512    0.61843051066133    2.50501644237478
C        -1.16866543679671    2.78456918402618   -0.76989522683411
C        -1.33523958115538    2.65863158606467    0.64533968236392
C        -2.29717316500434    2.64639176891041   -1.57644387544877
C        -1.22476785835380    0.75308705702378   -2.65558400125743
C        -2.35632919408241    1.53639197777011   -2.49799887628846
C        -0.18151358726782   -1.38370103892754   -2.34150967843775
C        -0.18352066343132   -2.42441898436408   -1.38702995414141
C        -1.39029609352948   -0.66626271883708   -2.53193952215638
C        -1.19572484602958   -2.83440136214222    0.74218938073502
C        -1.36504506949107   -2.70682018763840   -0.67251197200155
C        -2.36511816980746   -1.57410831984525    2.47379732153268
C        -2.32031634076510   -2.68494022118502    1.55229529216824
C        -3.69547013959315   -1.01863403928631    2.41325392171493
C        -2.64719900345078    1.17755721103729    2.10754591365354
C        -2.59963601919130    2.29130922115873    1.19543165699426
C        -3.86197852201289    0.38017445194528    2.19856132818762
C        -3.56233465922819    2.80296100210271   -1.00889313363717
C        -3.74184070445788    2.60883007236244    0.40292839911138
C        -3.69215568895043    0.99463575949064   -2.43369005509917
C        -4.48300070480067    1.94489465644393   -1.71327246884389
C        -2.66553187252606   -1.21231921943350   -2.13074516033073
C        -2.62717824548698   -2.32649720615011   -1.21874488464083
C        -3.87232488863530   -0.40233427366375   -2.21823623997008
C        -3.58872336526440   -2.82840629040160    0.98857930956095
C        -4.49849365183371   -1.96086318434393    1.69575496068889
C        -3.77010306284030   -2.63265822398472   -0.42270879519490
C        -5.03373251671925   -0.79098372827068   -1.45227991132973
C        -5.44594740161623   -1.52769482572188    0.75584058115535
C        -4.96024087214147   -1.91058896904045   -0.59401438839667
C        -5.02200460274843    0.78071223345488    1.43632739324644
C        -4.93900207631235    1.89953429535637    0.57757782229612
C        -5.43238570927403    1.52168338945915   -0.77080062461334
C        -5.78962028168462   -0.19937316266043    0.70909081545341
C        -5.78925455394034    0.19691114495171   -0.72303811755281
