78
C78 Isomer 8385 Symmetry C1
C        -4.63368799164483    1.72090379386292    0.76837517242397
C        -4.66242229762197    0.33730808602891    1.04095320172837
C        -4.57017956584793   -0.34142216495601   -0.22642453181114
C        -4.24263635090219    1.89037614932898   -0.60741761629041
C        -4.15770879419588    0.61527735688714   -1.24096477791529
C        -3.15153905634512    2.79321445426666   -0.65619061301546
C        -3.61844536333905    2.32060594784534    1.57763483995437
C        -2.79830832343770    3.08986739690397    0.72444363766365
C        -3.67746332810811    0.05234155360226    2.03991583483681
C        -2.98843879702571    1.29386522945325    2.34270735336758
C        -2.95420710753946   -1.14870531860301    2.00298483163435
C        -3.97342241625776   -1.56193945892889   -0.21025521879720
C        -3.35433285363595   -2.06232684247811    0.98876213784403
C        -3.15388765595281   -1.99459230868864   -1.31680792876757
C        -3.07077248159084    0.31980400435831   -2.09676599473396
C        -2.59654540025174   -1.05402337989636   -2.19965351886998
C        -2.13119193902241    2.61234767027633   -1.60021042924109
C        -2.14645240343397    1.39901828655662   -2.38829408199548
C        -0.89590723845458    3.31382592481773   -1.35205167054122
C        -1.46291526145119    3.24938249461347    1.05120402747812
C        -0.63430321873687    3.73791279750511   -0.01375368150057
C        -1.59843990776690    1.29903101808926    2.54561414396308
C        -0.87174204088066    2.45107999284052    2.08222547786155
C        -1.56985332931018   -1.19003610026894    2.45139503808168
C        -0.88393690260578    0.04430929261474    2.72011621015040
C        -0.82092777546452   -2.39180662705292    2.24542514200749
C        -2.47014179950355   -3.06613658706904    0.58054944049255
C        -2.38607964901944   -3.08227036377707   -0.85825906163057
C        -1.35439504091634   -3.40459308139375    1.36331531326220
C        -1.19493169355640   -3.49604322824276   -1.47089762775780
C        -1.27424982290936   -1.37696198951569   -2.69749791678013
C        -0.55736830360689   -2.57488309755392   -2.37386138141454
C        -0.94249839812341    1.05264492251832   -3.00379705484546
C        -0.51103877162723   -0.29381138421408   -3.16063124590763
C         0.24864472978292    3.06719491487943   -2.17826607971953
C         0.22242929496145    1.88700750271109   -2.94602172634977
C         1.53463385474720    3.51148218640944   -1.79333804814378
C         0.65161551177994    4.09999566051784    0.37808328777532
C         1.67566544826606    4.22195510001319   -0.56908639586048
C         0.53614009534949    2.52313964795662    2.26202455907078
C         1.22750463236349    3.55263431263848    1.59527948578242
C         0.54675393323046    0.07090374631374    2.80258974934873
C         1.24485166547566    1.35036529366477    2.73007537262812
C         0.59815239986721   -2.39745131898606    2.44780493880642
C         1.28291747300838   -1.15195036954750    2.66383727356898
C         1.35421383111494   -3.51668923037011    1.99726882541581
C        -0.53374585841643   -4.36303681201889    0.75034741583398
C        -0.45497337442929   -4.41443927635082   -0.70319551392891
C         0.76535083341317   -4.58866595344900    1.25752627689696
C         0.89312916489844   -4.65827131469260   -1.02652777146252
C         1.62314013823872   -4.95981916788575    0.16679775619217
C         0.89310944436207   -2.59489227446228   -2.41641730087488
C         1.58351878555154   -3.63466120196364   -1.77034675274626
C         0.90866977349711   -0.29483876544125   -3.13886825167536
C         1.36655444599240    1.06302749519813   -3.04458503042981
C         1.63891149027433   -1.37106147029741   -2.63811620851812
C         2.70876123568699    2.70067532727883   -1.94362759658051
C         2.59775424742995    1.38710077137003   -2.44796546489209
C         2.92228945463816    3.88285758067291    0.04604118143609
C         2.64219645600794    3.50132226216316    1.39450237082635
C         3.58939774415360    2.98655177510060   -0.82639003528861
C         2.63751660695415    1.37730881007803    2.63603738615765
C         3.35034875512407    2.43558843639405    1.94228951590914
C         2.68223349059440   -1.07852227959214    2.33391070319860
C         3.33635037697104    0.14996461035495    2.38216911708065
C         2.64384711937354   -3.29586211432923    1.39543248421433
C         2.72100887025189   -4.07261881690573    0.19512613289999
C         2.77297047941342   -3.32474957072764   -1.03254067700129
C         3.24473017349579   -2.05464198827019    1.43480249357086
C         2.88446897052405   -1.07008017147089   -1.96854872986425
C         3.36458038602525    0.29353903973832   -1.87267451890852
C         3.34133419819154   -2.04405937526245   -1.02483593597435
C         3.87884429749307   -1.58515659416174    0.22778653912713
C         4.33506180074367    1.95254839643784   -0.27099652252097
C         4.35422045574019    1.82740568356070    1.14683665325651
C         4.37251777126062    0.42763218168561    1.45980951219869
C         4.25686040349488    0.61515959520576   -0.83419769685322
C         4.41089027318928   -0.30745670388886    0.25527977546289
