74
C74 Isomer 528 Symmetry C1
C         5.71456146887758    0.49321421293135    0.97825554934476
C         5.47518545832915   -0.81455264375686    1.32803560011161
C         5.07869659399278   -1.56515265061992    0.14086583189732
C         5.46865710371228    0.63682444436332   -0.46328469599599
C         5.10882954904143   -0.66594722498260   -0.98966885886045
C         4.55621239670302    1.67703923199964   -0.60434136030782
C         4.77343142929051    1.32841960417061    1.70886732739086
C         4.12779351353840    2.10364315833009    0.75427929323148
C         4.38857991997539   -0.86173028626237    2.30452730500359
C         3.92982455793928    0.47247326337106    2.53534650955978
C         3.88319821241508   -2.21582199617957    0.46353013970890
C         3.46145192188296   -1.78847745836419    1.80925314121177
C         2.86363996784229   -2.38713128653223   -0.50758489609103
C         4.04836965841388   -0.74167397178529   -1.89241272772543
C         3.02308730702737   -1.73131135063886   -1.74313826506542
C         3.57264744398362    1.65665699322491   -1.64416061577797
C         3.37272757087269    0.45551246610553   -2.35839266732347
C         2.43542099565209    2.47204193068125   -1.47288740446587
C         2.79487334020330    2.52744419186053    0.97326015456450
C         2.09991188316027    2.99290254691801   -0.15407574686544
C         2.54538100028892    0.72217512420581    2.62730615986508
C         2.01227317931775    1.92570573768624    2.02608953746659
C         2.09719803687783   -1.62306088145049    2.08552606571111
C         1.63712479091821   -0.40195597996167    2.65900072266659
C         1.53012821999345   -2.64420450759159   -0.05655696875332
C         1.15425584120072   -2.33838668149914    1.27689262525887
C         0.47480914688062   -2.62466165340665   -1.02646530796853
C         1.84100291519362   -1.25654331370254   -2.42672761669321
C         2.04941162723252    0.10097196383793   -2.78882948009808
C         0.56874289497896   -1.73988497370877   -2.15404399404200
C         1.21264775164038    2.22573818477875   -2.13120317751946
C         0.94123014230266    0.97381327958773   -2.73648701092122
C         0.71796834051567    3.20996723645342   -0.10315038859784
C         0.16101574837762    2.83087693635894   -1.37267332184058
C         0.61470027733168    2.13779173417897    2.05609802087281
C        -0.02936211230078    2.92999134069456    1.05384578240149
C         0.23128187560504   -0.17730439676676    2.76117972027742
C        -0.22975478070442    1.16496706801399    2.70195339295636
C        -0.22028542123898   -2.27796581113347    1.66009849681143
C        -0.71335163651438   -1.22536967711333    2.49565290916155
C        -0.79005542051869   -2.92946274757442   -0.57935238517622
C        -1.13636792820654   -2.88829157462828    0.79605218633250
C        -1.96409264084622   -2.55726389492338   -1.31895034231230
C        -0.59471797813281   -0.94785986985630   -2.49728910615541
C        -0.39896421162453    0.44760706564949   -2.67830961654933
C        -1.90416279703322   -1.44550486561316   -2.17552799072695
C        -1.15857255294388    2.46289817618937   -1.50052658674609
C        -1.50209630120768    1.30212177075295   -2.29006405334797
C        -1.44831135021395    2.94196319911525    0.90046125298294
C        -2.02506570340349    2.86155195156257   -0.41837914244507
C        -1.60581195374025    1.38439722195737    2.72403423041417
C        -2.22441510724436    2.41550728514072    1.94214544893382
C        -2.13526140855028   -0.98648131190935    2.56303112103199
C        -2.55332836445544    0.32959173918427    2.83150195374479
C        -2.54678161312263   -2.70936291492845    0.89979713332008
C        -3.07061326907087   -2.72537527319502   -0.44515853613490
C        -3.08946646795734   -1.82539519021769    1.84745784187089
C        -4.27016756887407   -2.12684192126948   -0.74603346670579
C        -3.08173033335159   -0.60413023179643   -2.26719147838913
C        -2.82964141619840    0.82245549886032   -2.23858011775766
C        -4.30819290101420   -1.09346450251096   -1.75941007996300
C        -3.36640391434996    2.57220148081663   -0.55983553713647
C        -3.81145502181215    1.66471366376143   -1.60420633635893
C        -3.60994794833373    2.12253933457205    1.79782663188982
C        -3.84510873795526    0.84012576158220    2.41432165545021
C        -4.23961686684931    2.40308841780515    0.57288956194380
C        -4.41876559968207   -1.36342377801740    1.58532903444700
C        -5.07085476849245   -1.69991096862380    0.36067619993018
C        -4.82005574971373   -0.00877312298853    1.91601238016850
C        -5.35618405437989   -0.19336766383851   -1.34303744857447
C        -5.07009430875909    1.18593552498513   -1.24287457404169
C        -5.33464632593275    1.61364484065931    0.15025212439315
C        -5.87345504231399   -0.61245996443521   -0.07970297261197
C        -5.69311250446565    0.46999295943582    0.86586123371879
