80
C80 Isomer 17695 Symmetry C1
C         5.58708973724727   -0.05492787041836   -0.37377326300954
C         5.18750360594672   -0.51763979948308   -1.62528264617149
C         4.63389048181507   -1.84812485668643   -1.47060028598769
C         5.24325985886153   -1.06091729493391    0.62198969600197
C         4.68217248265333   -2.17223585607355   -0.06980826253739
C         4.55122337134951   -0.43029256627727    1.67392445424158
C         5.17706507247899    1.22162434976733    0.10666579378534
C         4.62864916322739    0.99829436114738    1.43490508295273
C         4.50004523896524    2.07357970809589   -0.76257717702116
C         4.28082663130493    0.25432427108089   -2.41800446708947
C         4.01220363709253    1.56441066408447   -2.03174615609941
C         3.41044996781343   -1.88320319900983   -2.15777764196881
C         3.18004645308235   -0.59798417515689   -2.78148069074623
C         2.29900652815568   -2.60132353376654   -1.64217772993979
C         3.56497847176810   -2.75983889477675    0.48956005127291
C         2.47552988305177   -3.16506261407895   -0.35712855332340
C         3.36049090617086   -1.00037775833364    2.23541499686692
C         2.98080650778030   -2.25328099866719    1.70840442675409
C         2.29294144214834   -0.15273061755380    2.73370758751985
C         3.61638694682255    1.79316221766151    1.90249100333612
C         2.50014756599538    1.23935125872713    2.63154228864553
C         3.47933233013497    2.94384644878139   -0.24469470911568
C         3.10794614739659    2.87420269798646    1.09317199959199
C         2.70300552770451    2.08809659449089   -2.24750919977845
C         2.42835769079710    3.04530980684536   -1.20980593411819
C         1.87521068677870   -0.10983664106437   -2.93545946887417
C         1.65010239141567    1.29928647935269   -2.75345572477260
C         0.97562732992768   -2.24726338104252   -2.06893037417869
C         0.75221580526340   -0.99873654678195   -2.76676976484778
C        -0.13133848637508   -2.81922636758311   -1.39119659486045
C         1.34349388293250   -3.28536958956287    0.47371166075137
C         1.61785927561226   -2.65077651456235    1.73549125144040
C         0.07131608474244   -3.27028767431524   -0.05107239753859
C         0.92213095365178   -0.60359726153821    2.82947308065662
C         0.59967357167474   -1.91776353676472    2.35527357107141
C        -0.17493681531186    0.32005198899129    2.91610449392556
C         1.40081501138066    2.10794248601068    2.45420717399481
C         1.75127093118947    3.08913938902973    1.45980888924712
C         0.07681419656369    1.69803368515030    2.63760167718484
C         1.11975571489974    3.34649026055196   -0.85850172360916
C         0.77908733095755    3.46755371722868    0.53189760195446
C         0.31499137144394    1.78441096243188   -2.60765293369145
C         0.08886759967600    2.92237653459102   -1.76566607420610
C        -0.56356161326913   -0.49025723049629   -2.90451769734047
C        -0.78679821878265    0.93670738002552   -2.91885739632734
C        -1.46635906845412   -2.51636049233331   -1.80583414591223
C        -1.68833800677275   -1.36609394397260   -2.64809521528786
C        -2.51466433875500   -3.01912577942851   -1.02306306130919
C        -0.97833360156111   -3.12126832202191    0.90782184587648
C        -0.75401023102714   -2.30386344393819    2.05510524777173
C        -2.25773650397710   -3.28133009882622    0.38656349517438
C        -1.54210022812633   -0.14286128625729    2.86715270673244
C        -1.84336663661474   -1.51319079098592    2.53359946187916
C        -2.56535970646872    0.80395868862605    2.66816732964091
C        -0.93772940986868    2.53727398640187    2.06402847824749
C        -0.58812073004105    3.36133531032806    0.94219760463400
C        -2.26328083884135    2.12064670831101    2.19621918825315
C        -1.21264285321048    3.25115042531176   -1.41196049862608
C        -1.55705963448681    3.56225303340619   -0.04626994718143
C        -2.12158339183702    1.44703255761176   -2.77267689251319
C        -2.32985118729306    2.63256979978560   -2.02583509709242
C        -2.99146138338951   -0.87627975730340   -2.75533540557951
C        -3.21713662716251    0.55216335051662   -2.83334516976516
C        -3.84303768110410   -2.49505182332341   -1.11788559400003
C        -4.09085376914832   -1.45665596157435   -2.02357279524740
C        -3.35054225591671   -2.82989912726968    1.12188146160528
C        -3.15630999434204   -1.85129946810215    2.11916325350669
C        -4.38092567039772   -2.38944625976575    0.19663308489291
C        -3.86203569785091    0.45710876494005    2.14494103674771
C        -4.18025858519089   -0.85390798487010    1.89231586948029
C        -4.92448722753612   -1.19071420022510    0.68417524099752
C        -3.29505633515201    2.53579055104303    1.29576562243830
C        -2.91904286997979    3.20734854089546    0.13504858963654
C        -3.44823764175868    2.76156669008296   -1.12868372418964
C        -4.30153169269709    1.51258403161854    1.24883497884408
C        -4.41726398334916    0.83470071745497   -2.16176532988267
C        -4.93591200457510   -0.39920462436350   -1.60606536581939
C        -5.25003916702912   -0.17976854397442   -0.24525081442009
C        -4.47812969575756    1.83849888374364   -1.16164649091459
C        -4.94815400446310    1.20619938535362    0.06177113733971
