74
C74 Isomer 2981 Symmetry C1
C         4.89582392874174    1.80451800826838    0.48165793035404
C         5.26062245064627    0.44683298959732    0.72006245655561
C         5.19642354751557   -0.26274088505724   -0.52583781648866
C         4.43033457267189    1.93586365532941   -0.84820271758978
C         4.63891247728407    0.66857564753496   -1.50620897448214
C         3.13280816873633    2.52965148736071   -0.80923970725712
C         3.82113116200303    2.16148442426997    1.37554668398778
C         2.77512792829714    2.70083582243540    0.59210058026059
C         4.51354864251448    0.00381752464575    1.85899877327026
C         3.55039574167664    1.05287763043897    2.21153214448135
C         4.07894148080163   -1.31079421336103    1.88345963908060
C         4.73069209462443   -1.58093145718503   -0.49367387995321
C         4.36147654826864   -2.13843866369520    0.75806917365614
C         3.74062940481274   -2.04977522424701   -1.45806440575746
C         3.63489162423300    0.23408258621652   -2.35148422973367
C         3.22452865637176   -1.15879323006646   -2.37231063124627
C         2.12514503569855    2.11038040044865   -1.70317394895792
C         2.43779461752142    1.01465272667095   -2.54649432998621
C         0.74635161157965    2.32032697513129   -1.34658254312524
C         1.45707596787722    2.50593178910159    0.99580623703363
C         0.43505921129662    2.64114725409415   -0.00155009011957
C         2.20992455236546    0.73918711055586    2.53656450159950
C         1.17594563052574    1.62024446772227    2.08894903342798
C         2.74458322970720   -1.63420696485470    2.36168506085674
C         1.81763792422580   -0.64071909230806    2.71388486736313
C         3.21479657706051   -2.98023341728164    0.55903078531419
C         2.80046909241270   -2.93317132314187   -0.79180995689280
C         2.27536804855441   -2.74126037831448    1.57888740740071
C         1.42330385808076   -2.96491437733250   -1.08433963443195
C         1.83191492932680   -1.21540474950178   -2.71262920839982
C         1.38174866652071    0.12813496995027   -2.88212530989309
C         0.93399493774673   -2.13870109921718   -2.16002126975763
C        -0.30798083182182    1.67549562977539   -2.07255112285620
C         0.03074973138499    0.46756659217069   -2.74062229960719
C        -1.67134810122570    1.92684689570367   -1.74287932766273
C        -0.90168461247377    2.64276963618014    0.44029284139346
C        -1.94494062764105    2.64801922313645   -0.53756936070878
C        -0.18862277935964    1.31500642524370    2.35972622449744
C        -1.17902532571623    2.13902330158407    1.75279924690730
C         0.41992109148018   -0.99116394406143    2.73642613957207
C        -0.58272992255971    0.02136878983746    2.81950356721004
C         0.91748217585262   -2.93440242169915    1.31962723002095
C         0.49250916894635   -3.21710327135739   -0.01321112726669
C         0.00900857082723   -2.24503762160387    2.18659938880489
C        -0.90227102102119   -3.21190676222377   -0.29191327927342
C        -0.46494023512788   -1.87021293224883   -2.29092415265395
C        -0.92580967322468   -0.59336238853380   -2.72005271717187
C        -1.38211391769707   -2.68160208354079   -1.54718037672280
C        -2.70196481520165    1.09682152377768   -2.31797578275646
C        -2.31032718774826   -0.24506474395900   -2.67964672838252
C        -4.05795339970512    1.33676488373314   -1.92114903316243
C        -3.27908127408658    2.73666303066208   -0.07262398404941
C        -4.32960453247189    2.19378915251369   -0.83896009809973
C        -2.52863909734275    1.92608816614003    2.09294904018914
C        -3.54428910694956    2.44729289994197    1.29616774427242
C        -1.99033406992664   -0.33622206972279    2.80036333914564
C        -2.96730333266490    0.64456355619035    2.58477650852049
C        -1.34091603996488   -2.50939575236566    1.98154069302999
C        -1.79399681545873   -3.15548904767933    0.79222963418126
C        -2.37304266477173   -1.64392909303674    2.42409738861173
C        -3.17723413459077   -2.83068344274789    0.64374196573524
C        -3.56592328643987   -1.90429968090157    1.66674321668469
C        -2.74324172266237   -2.44627522245754   -1.71095108546154
C        -3.21338706502152   -1.31229806544057   -2.44770560179278
C        -3.70395926310630   -2.68248874586081   -0.63832722462314
C        -4.98479680293062    0.23633678099512   -1.80669769746931
C        -4.54066931089449   -1.04664003765802   -2.01539741254686
C        -4.80396224961856   -1.83650259274165   -0.81236197453892
C        -5.25553691676419    1.48836859428986    0.08353074539924
C        -4.69085991286495    1.54421491372517    1.36249536709650
C        -4.27926839710051    0.36220466623423    2.03358806535790
C        -4.57369013430910   -0.91895905295343    1.45956513102162
C        -5.60153192559236    0.26872433793512   -0.47535486178781
C        -5.28409255213399   -0.96035042118422    0.20580515037279
