76
C76 Isomer 9886 Symmetry C1
C         5.00559287587075    0.65712770691663   -1.14595918722505
C         5.09886734198486   -0.14965359618085   -0.05065836821062
C         4.75442805012498    0.63906973449366    1.15426466227145
C         4.71171530752511    2.01692479561883   -0.64604787426207
C         4.34055112156886    1.92812415151542    0.74464062129920
C         3.84194254320121    2.57362593771156   -1.54376832559328
C         4.05082920000398    0.32246119207766   -2.17757165732318
C         3.48583124722629    1.55950424802532   -2.55003406982623
C         3.19586560915030   -0.82031541422512   -2.05504859265290
C         4.41604265982361   -1.38729412434729    0.00889569906309
C         3.46451802276351   -1.75994779305355   -0.98604321109485
C         3.99142427529675   -0.16699211012017    1.98080715045743
C         4.02787698273731   -1.49650279819132    1.38669703733586
C         2.76532634253563    0.29774265101009    2.54535754033565
C         3.07464670643817    2.39574019515905    1.19402185782650
C         2.33317946268558    1.61255461065140    2.17171279852675
C         2.64801818348244    3.19348036399594   -1.10168371923849
C         2.28266316748638    3.17400369962247    0.26601426220297
C         2.12540417865119    1.68859465907590   -2.79593437240120
C         1.63951880045536    2.82124019546887   -2.05039272073237
C         1.83291959921115   -0.72462702738365   -2.54091642556733
C         1.29358061150057    0.55356190285600   -2.90596606364227
C         0.88039035776126   -1.77638143163964   -2.27702706673017
C         2.45249695037337   -2.71306655146823   -0.60296278070192
C         1.19877470007564   -2.78759698609899   -1.31769944258754
C         3.10807136416284   -2.41215230346574    1.74410059262246
C         2.48122072943256   -3.21095482251380    0.72526139135899
C         1.81718947536347   -0.70180731856125    2.98589703747500
C         2.12179443657866   -2.07056061625631    2.75247519928073
C         0.44099399881880   -0.35770243189217    3.16295625588206
C         0.98904097379223    1.98832035657070    2.50101341933764
C         0.10638485183209    1.02440991294985    3.10136712104046
C         0.91666906574889    3.46198390435775    0.55527085560746
C         0.39542297986790    3.13271362602530    1.85601186578728
C         0.30599019521169    2.95934277803650   -1.76189400723593
C        -0.01669073568044    3.60094889202073   -0.52113816356029
C        -0.11657422930714    0.82322015087743   -2.89645682822659
C        -0.61631269639858    2.06327230607427   -2.40457447693436
C        -0.47954915639014   -1.61171923278771   -2.76027737706939
C        -0.99377581099194   -0.29637117115098   -3.07588842138191
C        -1.43638420105432   -2.58573547626383   -2.37968854324394
C         0.09575251326203   -3.50171658542057   -0.70585495754519
C        -1.18122138646133   -3.35612312275604   -1.21494151883485
C         1.31866790157808   -3.71636560644919    1.35102602861231
C         1.10002181954089   -3.00154079546535    2.60089590628955
C         0.11781697088629   -3.82765877282981    0.68287285180760
C        -0.61882033049450   -1.33916636244135    2.96744190399575
C        -0.25633535611285   -2.64707640465484    2.65179988325357
C        -0.92530305969256   -3.30408356720577    1.55129790990874
C        -1.94868348769664   -0.94140755869971    2.55209501621515
C        -1.27433363568877    1.33156213914522    3.22039785798384
C        -2.30109243606638    0.36244856272718    2.84897534127074
C        -0.94922955280354    3.46517076082713    2.12575370943035
C        -1.75222710009836    2.59315411994209    2.91992582400390
C        -1.38110114401435    3.77017764547134   -0.23668564553824
C        -1.80074795942484    3.91957152203324    1.08209164521024
C        -1.99416253349025    2.19753561051425   -2.04164315058779
C        -2.38687815169259    3.05182882480999   -0.99082628855858
C        -2.38111643664378   -0.03059062045084   -3.00987945057819
C        -2.86220181149261    1.14701338982085   -2.35204730515623
C        -2.83603877242903   -2.30597359654920   -2.36051836084138
C        -3.30107235275591   -1.06139161879878   -2.68107432976606
C        -2.34024291898852   -3.21600346649305   -0.33056827691023
C        -2.12131952959224   -2.84818061056631    1.03535594602093
C        -2.73167976572968   -1.65221850645412    1.56859934723269
C        -3.36557400674265   -2.62510514778227   -1.02683654946747
C        -3.91522958761563    0.78086675246754   -1.43417954894657
C        -4.16530998957801   -0.58143818277105   -1.59086095205749
C        -3.70571180662870   -0.94219353692045    0.78723860194558
C        -4.04394836879580   -1.47441006450627   -0.50332238889192
C        -3.35643626467130    1.03523278600563    2.17614520077407
C        -3.06605460593963    2.42813119275456    2.28911324477558
C        -3.09357686179861    3.23848479214842    1.17947637480689
C        -3.42719407938853    2.67214804919674   -0.08387075487718
C        -3.90320325437469    0.48151914955876    0.99301077778182
C        -3.99410819728585    1.37321206428130   -0.14953756503104
