66
C66 Isomer 926 Symmetry C1
C        -4.87829966508220   -0.42851477119973   -0.94606043167332
C        -4.28496419751054   -1.74460858773123   -0.94373836256223
C        -3.99395958721070   -2.07907340983788    0.38728534359364
C        -4.71979367521365    0.12737177011861    0.38375185800138
C        -4.20827739847863   -0.87073764054003    1.21124069964155
C        -3.96185489131559    1.34517937537860    0.31156653872611
C        -4.06765046667339    0.36280421861647   -1.77597361363255
C        -3.63440373417089    1.53337853834485   -1.07340280521928
C        -3.18126424278275   -1.75489893858899   -1.86293421046101
C        -3.03115642699356   -0.41719956636460   -2.39880845060572
C        -2.01237812071578   -2.46433947684410   -1.56237647866984
C        -2.75454497624697   -2.62620865565443    0.74261232979900
C        -1.81415806913584   -3.00458864539324   -0.24257458477270
C        -3.04882445318542   -0.68267104224292    2.01199158591846
C        -2.23893622696226   -1.84743576048195    1.84878937631280
C        -2.95842321511392    1.63086606432712    1.28509962120289
C        -2.40883633152919    0.58660048983135    2.12565982320909
C        -2.08751896255599    2.65938325193208    0.92261772801305
C        -2.45246182969624    2.16778625840083   -1.46987828667920
C        -1.95785535053129    3.04101353635700   -0.46485542111390
C        -1.77299507758111    0.14229773177128   -2.68137666840517
C        -1.50574412663505    1.53139255863882   -2.35604316857619
C        -0.84068721155179   -2.09052957673565   -2.30800917397816
C        -0.66580552114709   -0.77042803090046   -2.82978754027172
C         0.29421665650600   -2.88139036027074   -2.04008061926742
C        -0.48764008269570   -3.28572057180718    0.22581058022373
C         0.49308350100497   -3.49406403585913   -0.74997455809354
C        -0.89120671493877   -1.85444466228741    2.18674790434504
C        -0.06012728494582   -2.83168284983534    1.52554022174024
C        -1.01920998082112    0.61893416585143    2.49441959195950
C        -0.34054195538175   -0.62788170822947    2.70925095868126
C        -0.80733508285414    2.83845857958600    1.53491202758401
C        -0.19685654022126    1.79237772251544    2.24367285961260
C        -0.71742826271457    3.62463299971589   -0.64437818978819
C        -0.01701382850873    3.60900060525540    0.62451040161373
C        -0.15697222079232    2.02409402691807   -2.41692452041648
C         0.17310390944079    3.16858265894243   -1.63746805663997
C         0.66350245044503   -0.25664257382506   -3.05167574820150
C         0.93533029327614    1.14934827617339   -2.82382509055455
C         1.53516952521404   -2.48730962139204   -2.54420247178806
C         1.74560439683320   -1.16608062430343   -2.99104139460248
C         1.90550662991768   -3.41506070070961   -0.46270557002298
C         2.56039115668831   -2.82852684123099   -1.59390937066067
C         1.31793672533561   -2.78876459719169    1.79601232901418
C         2.32912966212307   -3.04509367399608    0.79449252842897
C         1.04844936220195   -0.61025879372698    2.92027287649166
C         1.80702627387257   -1.74737617270516    2.60417572479124
C         1.26912273525850    1.72534668399486    2.20194954874641
C         1.86532420118314    0.55274235138454    2.66064430822853
C         1.33102316233643    3.39685237418413    0.39547870334484
C         1.48422931391685    3.30006177492222   -1.05274759632417
C         2.05525106005263    2.53194211932841    1.26679656150940
C         2.26382855878475    1.52473649714520   -2.52660135052230
C         2.52040524340303    2.57735650636307   -1.56476119007639
C         3.04221642282400   -0.78852172591153   -2.47987617155955
C         3.47020811752077   -1.76871488279679   -1.49155447414733
C         3.29607171585112    0.54465805558404   -2.28756576645315
C         3.39433372055463   -2.05358186940646    0.93582970675602
C         3.10008632420722   -1.32733490364209    2.09925947496199
C         3.14852554225093    0.08503335251280    2.16867838239370
C         3.93721475160171   -1.35903303165722   -0.19820086982443
C         3.26607180872017    2.03288240797638    0.74249772582948
C         3.53418646819473    2.15144771940712   -0.65700151693079
C         4.04290260305161    0.91844733705347   -1.12269309806840
C         3.78984280172646    0.75429716553474    1.14217130569416
C         4.22183061759602    0.02041112923361   -0.02673180580530
