80
C80 Isomer 910 Symmetry C1
C         6.22424937355077   -0.18671382196715   -0.34039384785953
C         5.92806003854251    1.06449756051189   -0.87469009317346
C         5.34696508775774    1.88657214543343    0.16200226835822
C         5.83234371186923   -0.19325273472193    1.07145033563224
C         5.36792879269582    1.12607570473995    1.39538838794991
C         4.95479637685753   -1.27733023901320    1.25635246664197
C         5.44056667500369   -1.17160276031806   -1.03548429648884
C         4.72652578469317   -1.89618426515904   -0.05246464244552
C         4.93435781530718    0.89403118332242   -1.92972077354486
C         4.66085366436485   -0.49964486090311   -2.06502628240367
C         4.10574281287783    2.35420561638890   -0.31718698451058
C         3.84880206906259    1.74142667708633   -1.62412840116236
C         3.00114352760800    2.53393774492893    0.55386088890720
C         4.25732340913451    1.22608044457209    2.22010914309301
C         3.17353172354948    2.11843684570859    1.88649077605337
C         3.84429649110751   -1.19761753669298    2.14140383452502
C         3.62497012488701    0.05009180761312    2.75261776534927
C         2.70133224680532   -2.07062885637336    1.95358505663438
C         3.47939622365427   -2.45020747305827   -0.34832899696407
C         2.56244466580135   -2.78140005958177    0.72125340026111
C         3.35173185465404   -0.91861002522588   -2.29770185679560
C         2.91412678404972   -2.13211406193729   -1.63539645631586
C         2.54127994308972    1.36986865301860   -1.97004581266734
C         2.31526722541397    0.06738572124714   -2.50330601892916
C         1.66058057498218    2.53237606225037    0.00924395877436
C         1.43098044431737    2.00074511645200   -1.28660691144813
C         0.54074295395626    2.54950483752341    0.90146364979533
C         2.01751497669700    1.69016459662397    2.60664713312232
C         2.28560336663159    0.40595275103913    3.13759621766022
C         0.72248496494029    2.02439926640825    2.21728381146370
C         1.51295053004834   -1.84025736484606    2.73367785507431
C         1.25862284089774   -0.52142196950933    3.26017573283036
C         0.38183575562131   -2.62425798571860    2.48923466929764
C         1.29934537820543   -3.36538789629864    0.37163119864542
C         0.26272906462730   -3.40742206337353    1.32092024142074
C         1.62343654830470   -2.54696946647231   -1.88729931079702
C         0.86403770350699   -3.32712054918352   -0.97294992317429
C         0.96505568723376   -0.35834875364049   -2.69207977625015
C         0.70125637739472   -1.72812784175792   -2.62331519867259
C         0.10576087134124    1.69296889228225   -1.69500037753308
C        -0.14424198413262    0.53355325941170   -2.48895033341034
C        -0.76985048857042    2.58725694663796    0.38357813022228
C        -0.99307850007346    2.25594961524986   -0.97670131587747
C        -1.87725239502494    2.48468401222452    1.30288587518224
C        -0.34687779311833    1.29648280992053    2.82500022544937
C        -0.08234482206354   -0.00229829426858    3.33012194857046
C        -1.67716986394815    1.71003948922844    2.49505360248605
C        -0.94124326648613   -2.22490404437541    2.89046943220294
C        -1.18005604788908   -0.92300822188300    3.34939863608137
C        -1.13389095740327   -3.45102288285948    0.97241906999648
C        -1.88149690762367   -2.82294543508098    2.01067011736230
C        -0.51889486635230   -3.18272306602743   -1.30572104614212
C        -0.60022585417788   -2.19458827893396   -2.33478861656406
C        -1.56210255268708   -3.27218687054436   -0.35529154253541
C        -1.47873296623856    0.04458175890305   -2.56991406289081
C        -1.70649545748726   -1.35885755712596   -2.42404531258776
C        -2.32173594010672    2.06200352363778   -1.45440180935997
C        -2.57637987598611    0.93602948299174   -2.30412559783653
C        -3.16200119077178    2.61425587655067    0.78243175695177
C        -3.38420311979790    2.55010794276716   -0.64354395757518
C        -4.31910220403301    2.03382991873732    1.42906464803887
C        -2.75861612595025    0.93698917891632    2.94684474840949
C        -2.49606880224690   -0.44383042675793    3.21938373222021
C        -4.07125591887116    1.05982749868363    2.40505292029217
C        -3.16880794285979   -2.28798672742440    1.78349649739784
C        -3.53419223447101   -1.19137898509588    2.59457826169904
C        -4.57732941954448   -0.27721958281934    2.20353197238223
C        -2.82912881061314   -2.64896282658493   -0.62813907004020
C        -2.91757724605576   -1.81506328882136   -1.79354673358887
C        -3.74068282221357   -2.36594385026198    0.45732455743305
C        -3.87783126775345    0.39174996048481   -2.34816172003299
C        -4.03223237968876   -1.00606593305486   -1.99699709288993
C        -4.70989470892107    2.13479714406898   -0.86356037043251
C        -5.30233219415203    1.78647503833243    0.44302351447721
C        -4.98113184973607    1.08628627872344   -1.75848393377543
C        -5.38065039102280   -0.57427999363658    1.11417155722632
C        -4.90320198095433   -1.60973877135443    0.19825286681814
C        -5.14595708867358   -1.11538988742328   -1.11608211097067
C        -5.89276150431492    0.51709163716196    0.32125706698108
C        -5.81694471902875    0.13430251030350   -1.06481934172467
