78
C78 Isomer 17112 Symmetry C1
C         3.78460439366413   -2.48591885994471    1.64681501751001
C         4.16126587205665   -2.62254216707029    0.31225254189850
C         4.80478114578868   -1.38278179085136   -0.09484365293361
C         4.11026886862400   -1.13867874802238    2.07526788892602
C         4.69328835611000   -0.45070879926114    0.97335867117046
C         2.96245748900348   -0.61852567833223    2.70549620041542
C         2.45747663695600   -2.78898102945917    2.03639442735891
C         1.98517304030469   -1.67072277388467    2.79495577752103
C         1.57085774757012   -3.42026294402825    1.13703302219325
C         3.18959326901278   -2.97962302444422   -0.65656032509062
C         1.92922351527514   -3.47819967333663   -0.25515580293700
C         4.28605801412377   -1.05223018563798   -1.36216539297500
C         3.27204820176281   -2.01112613502072   -1.72539441852344
C         4.07835297297117    0.28604772365877   -1.65744833844960
C         4.30383638130884    0.89188110678401    0.72676661404326
C         4.24218013753651    1.27685163652811   -0.63070847053775
C         2.53581787179296    0.71259199249023    2.52452931760077
C         3.35358327305975    1.52495298237563    1.64510783702434
C         1.14673345994034    1.03197332519453    2.77753519316774
C         0.62901353840321   -1.38900787729286    2.92369258214639
C         0.20017541805594   -0.02424090038769    3.04133002292551
C         0.19144396171207   -3.37939104002141    1.51046956749799
C        -0.26002720882031   -2.43061889673559    2.49160107110968
C        -0.74179215034257   -3.84416125767437    0.57032939614110
C         0.87966765941210   -3.41172698079949   -1.22957347396882
C        -0.40039390436000   -3.82022343627070   -0.82073868916612
C         2.12841009648472   -1.61258748897371   -2.42963133152835
C         0.97959489859403   -2.47215566656257   -2.31679292978826
C         2.95853509486231    0.68477050045352   -2.44706515913432
C         1.95702366417685   -0.22502959850558   -2.80847191077423
C         3.47094660715528    2.40881789481298   -1.03428174945189
C         2.62639897883942    2.04322803405034   -2.13159392364030
C         2.83468959714272    2.76052599164326    1.28573063904367
C         3.00106138292225    3.27054430025388   -0.05868140364476
C         0.64030904928364    2.32246746834903    2.41400981648363
C         1.54172911962049    3.20069832436587    1.75532053371060
C        -0.78630659407844    2.56129405793178    2.28394056436669
C        -1.20746213675961    0.24280482190994    3.03525868485469
C        -1.71146158422457    1.54929086395983    2.69848538186794
C        -1.62537007708966   -2.16331383905362    2.59331426811112
C        -2.08801427984447   -0.86590445873825    2.93478143213515
C        -2.14233121155651   -3.58415889427085    0.69414049377349
C        -2.59541703096753   -2.80344732920090    1.74586405944228
C        -1.58560712894849   -3.47869335768209   -1.54300262345722
C        -2.68846707883063   -3.38348795007087   -0.62146234728614
C        -0.20360482997113   -2.01702317758926   -2.90137043537718
C        -1.48163954255305   -2.55873779819199   -2.57617817149444
C         0.63449822490577    0.31099110733636   -3.03596661234069
C        -0.38541654835985   -0.62382115288982   -3.20663601658399
C         1.31282887408406    2.55307415283874   -2.26268006243535
C         0.25562070528627    1.66162036490876   -2.70103262112319
C         1.86400506145705    4.03076896877918   -0.38017727395256
C         1.05307842407751    4.12094986179026    0.80204896192852
C         1.00302555247529    3.66382769744692   -1.44107477197932
C        -1.22966843236750    3.51192317791585    1.29478862542472
C        -0.29442731606184    4.09310533654662    0.42490152857400
C        -0.34897733625473    3.82823014491966   -0.98154208978537
C        -2.47857305664902    3.34605962437636    0.66915208419696
C        -3.08062858146668    1.65234679308825    2.29213413680008
C        -3.45155064146885    2.57905011407949    1.31197240648651
C        -3.42097352686844   -0.74903256519614    2.39620639542735
C        -3.69436325520272   -1.90584817755324    1.57179960467879
C        -3.91038118090263    0.48189050735155    2.06067823253789
C        -3.68376126931839   -2.43793135007100   -0.81299494754931
C        -4.25140011102524   -1.73542047757398    0.30717837775564
C        -2.45677286897929   -1.51390129322371   -2.70913799325676
C        -1.75622742961335   -0.29862064879388   -3.03509061924543
C        -3.55717168369722   -1.47614532540861   -1.88204893302400
C        -1.11926666616333    1.95535605446842   -2.40415406393611
C        -1.39888186508297    3.07024930067008   -1.52020272743126
C        -2.56649582031206    3.06615612761901   -0.73670369755926
C        -2.15162907990396    0.95462662557919   -2.54857565262032
C        -4.26205749635649    1.91121040513561    0.30662520050995
C        -4.59821965151205    0.63760738024575    0.78916293603512
C        -4.60538767009252   -0.40986087069707   -0.12841676225957
C        -4.06193603855377   -0.20479719290433   -1.44437178870459
C        -3.61399738328028    2.09660598604019   -0.92819016906823
C        -3.40659688797272    1.00320005572937   -1.80431215978082
