80
C80 Isomer 19593 Symmetry C1
C         4.22612246135515    2.29829957145712   -1.65390926850307
C         4.39606292455772    2.64315359424161   -0.32392724696733
C         5.15643237595785    1.58999856727378    0.34587366318366
C         4.85307306453666    1.00125537411137   -1.83859457489444
C         5.35339271639405    0.53091433234173   -0.57662788237277
C         3.95540042438553    0.22900325893897   -2.58417579263044
C         2.92427790035655    2.28419636607046   -2.23952798682038
C         2.77375326019369    1.02153383534451   -2.89825218408389
C         1.82230071370051    2.81736113999593   -1.54330499872232
C         3.26087808150432    2.96052331229300    0.46125888826487
C         2.01405872997457    3.15844994095059   -0.15857280424282
C         4.52088695478917    1.35741536638187    1.58500690337285
C         3.33798848355041    2.19435880897748    1.67377111756975
C         4.45186354568274    0.06941148579777    2.08188006173249
C         5.11535393570911   -0.82068998777288   -0.15991993249198
C         4.86011263655740   -1.03366204629426    1.23173107495496
C         3.79084153423236   -1.11531182898637   -2.24025253969147
C         4.40553852332629   -1.66575397589269   -1.06716662724340
C         2.51301944967338   -1.71734089249816   -2.43860208077527
C         1.51347305802004    0.44030121329775   -3.03611162066800
C         1.40141901559095   -0.98468832351667   -2.87867234112036
C         0.50872917576837    2.41105205041058   -1.96994818443932
C         0.35266179166754    1.25044674873570   -2.76509521195949
C        -0.62830803617914    2.91453609679704   -1.26167796595393
C         0.88035477491152    3.06859266895557    0.69035045879683
C        -0.39116062471021    3.31406242121566    0.08974336955576
C         2.17017423156398    1.75094644501775    2.30900486362210
C         0.94591489478451    2.36864874634362    1.91764556220599
C         3.29398898823107   -0.33514872474539    2.84321458544206
C         2.11988724032810    0.44324326934281    2.91765202075079
C         4.09533141669094   -2.14807451944017    1.64734417942976
C         3.18076547212116   -1.73516594242837    2.66511774866422
C         3.51865709253832   -2.70453930677940   -0.61086402297988
C         2.34741204737812   -2.73297658555360   -1.45052861181041
C         3.36438167510744   -2.96332073380887    0.74069999557290
C         1.07655503378963   -3.05539782944346   -0.97478032083207
C         0.11495050331023   -1.53952928754674   -2.64500274101536
C        -0.05553740901255   -2.60267308158286   -1.72913498735058
C        -0.94744827407270    0.67732054300316   -2.92716272500427
C        -1.02811295401329   -0.74805252378830   -3.00428571668845
C        -1.95011843861471    2.55417240391745   -1.67707135507075
C        -2.11311701384462    1.43493820366302   -2.56467987665181
C        -3.04194290922449    2.88872599502391   -0.82355160175437
C        -1.46413676860115    3.38017132835669    0.97758378024288
C        -2.77048349274681    3.33472788906731    0.47827710573317
C        -0.27754872543984    1.89921516911703    2.50912720009059
C        -1.43434944222969    2.58817015558668    2.17817975130517
C         0.83240229415555   -0.21884598903411    3.01941047614939
C        -0.37464622955714    0.53500947012434    2.94788518170546
C         1.92874282469565   -2.33853636220285    2.45002387153578
C         2.02808741842284   -3.14773222294786    1.26611273047154
C         0.91018311984343   -3.25555041749378    0.44284731782274
C         0.76092873255209   -1.61969915703516    2.72559744277122
C        -0.36845419367986   -2.96224101131721    1.01939794235742
C        -0.44288425729939   -2.13914641681654    2.16766774373730
C        -1.36721526519617   -2.91569987059409   -1.23476552563413
C        -1.52806313526590   -3.10977070282219    0.18737167697921
C        -2.27135099990885   -1.37375536298495   -2.88088126591984
C        -2.46288959678389   -2.47731309458280   -1.97418230793642
C        -3.37619921956555    0.78416782196653   -2.59847451404823
C        -3.43763854917338   -0.58956322325681   -2.84897525573150
C        -4.24465044214301    2.07718085135853   -0.73888243568676
C        -4.43157388013794    1.06122035825586   -1.63090237047200
C        -3.59891878340373    2.60469579127104    1.41146913654865
C        -2.74149256594529    2.02584826484204    2.37150179625917
C        -4.54949625497597    1.86399258429274    0.67728064097432
C        -1.66483999320286   -0.11609980680107    2.89425153198688
C        -1.66826344842926   -1.49346065845448    2.50575393999426
C        -2.87504821893004    0.65270545909742    2.69745344636105
C        -2.76705299126313   -2.87149593150257    0.76925083776646
C        -2.83011053172696   -2.08099638927056    1.97535238279332
C        -3.78368269154200   -2.35146116155781   -1.39701130249758
C        -4.40610910131119   -1.21236739657272   -1.96434839068834
C        -5.01978592707103   -0.20262924521656   -1.19473100335428
C        -3.94352891414835   -2.56722758772094   -0.02250194586830
C        -4.87346427279185    0.60178353591344    1.13905295552431
C        -4.05537960246645    0.02182946244321    2.19567402424715
C        -4.02984955802215   -1.35759243028256    1.94085884139378
C        -5.20862627638935   -0.43992240742726    0.18031976783853
C        -4.74087952888906   -1.66214746562003    0.71206150486726
