72
C72 Isomer 2925 Symmetry C1
C         4.99006731904981    0.77752900288808    1.43032865511997
C         4.92178850275762    1.26769564267324    0.11910942656239
C         3.93994056618894    2.31568474736766    0.05538572473372
C         3.90542239488421    1.36801769446643    2.16587369305309
C         3.31687716521654    2.39249615491932    1.35463075743645
C         3.06021646701036    0.33239972797204    2.58835331056575
C         4.79222810736920   -0.64960635142683    1.37667917694643
C         3.64564675733240   -0.93807884810929    2.14696420959898
C         4.86554268419723    0.15332523926588   -0.80395698146061
C         4.83721916064137   -1.06250444710126    0.00673937972651
C         4.01536678505344    0.25028992373272   -1.89013274885256
C         3.14629999658834    2.44106381209957   -1.10885830336934
C         3.18039963677280    1.41393916835456   -2.09538813859260
C         1.90642439415731    3.08058302995090   -0.94025958651256
C         1.94661084053332    2.65522073752033    1.48879548762666
C         1.36769627870122    3.28000567107211    0.36598387059382
C         1.64557406021137    0.50537242612310    2.64969408457561
C         1.08510640965920    1.76328460586397    2.26132975958523
C         0.80820226323151   -0.65532106796587    2.64643120445381
C         2.78646756099275   -1.98521144219162    1.78271972800231
C         1.40314716095094   -1.91209411966610    2.22026571199480
C         4.00790005341916   -2.10762890614908   -0.36393931393080
C         3.11314774164364   -2.68915294322133    0.59223277827369
C         3.25221698136645   -0.89570494687098   -2.33959200662352
C         3.28594751697279   -2.07614646301358   -1.62285904171212
C         1.97625243408569    0.99008852523937   -2.71995339327632
C         2.00336086905782   -0.43929445496941   -2.86065129430010
C         0.78859490614376    2.82422899590187   -1.78996193565738
C         0.73561366642435    1.67390142951405   -2.59048719810143
C        -0.03542911743380    3.38791232293887    0.26722356514657
C        -0.39689968024296    3.20023749216704   -1.09527337580571
C        -0.33187849742710    1.89286250244449    2.17899705823908
C        -0.87050384211976    2.89364660542016    1.28987103560389
C        -0.61568125898424   -0.48862175009434    2.66671446817724
C        -1.20931363458374    0.81480899259502    2.54298126714704
C        -1.45442493733909   -1.63068170137474    2.37769586078505
C         0.55129424745910   -2.88795083157751    1.70863959576292
C        -0.86139345356914   -2.75714989066544    1.76788891978287
C         2.05637861997987   -3.30666841369223   -0.14874407697524
C         2.08082585552925   -2.83242603083589   -1.50250785686942
C         0.85877688686379   -3.54722161237759    0.46982574891863
C         0.81662461630012   -1.17885544366480   -2.78591908956198
C         0.86789682337524   -2.45993526881643   -2.12313658599118
C        -0.51664684948747    0.96445220999068   -2.74777957952070
C        -0.44403099519200   -0.45896203948367   -2.88835833511539
C        -1.65037866457088    2.71313438120547   -1.44650644685458
C        -1.75824776420718    1.56759750646222   -2.30847710034467
C        -2.21580956428196    2.88421938371132    0.95606226250565
C        -2.62437190001507    2.93976412376598   -0.43068371989019
C        -2.65977471867705    0.96015250110929    2.37606605832752
C        -3.16728908049646    2.09172354042138    1.67238840950139
C        -2.82124158673920   -1.47466174847564    2.13941909771819
C        -3.47285221580612   -0.21167385618615    2.30447427894489
C        -3.47942305781071   -2.21974344108625    1.08212144097998
C        -1.42678205343424   -3.33430497091203    0.59263736702349
C        -0.33931384917357   -3.59860723311168   -0.29742901497819
C        -0.35132388518834   -3.01135832356456   -1.58269830632699
C        -2.68904446916901   -2.93451771829442    0.13600611657972
C        -1.61571071732774   -1.19481305504669   -2.65903088258196
C        -1.57610940913210   -2.44997839836511   -1.98960344988172
C        -2.79097832550087   -2.56969974071916   -1.23015587668512
C        -2.98290519094551    0.80542875242973   -2.22769936175971
C        -2.88725946350645   -0.58669593286499   -2.40048480214511
C        -3.66804881620165   -1.51464405897145   -1.62210760932250
C        -3.88073799596243    2.36779916088877   -0.51752034408585
C        -4.30837612810215    1.99567763435493    0.81913879637794
C        -4.09254047969111    1.26416521471393   -1.41234152482666
C        -4.65107842000489   -0.26333087461504    1.49851330086061
C        -4.54868914230328   -1.44370525066976    0.64172347286041
C        -4.63714956822344   -1.03395121053900   -0.72825426974683
C        -5.00914034722383    0.80266638920118    0.68733410144921
C        -4.92329665004633    0.35452753794421   -0.73148762988245
