76
C76 Isomer 12104 Symmetry C1
C         5.05622374842281   -0.39712603947966    0.13399426174009
C         4.65778763466348   -1.38030743435757    1.02344888180548
C         3.95343528132640   -2.40453070442290    0.26548953858234
C         4.53175052268657   -0.75573187166983   -1.19238626741424
C         3.80480941619167   -1.97227327106523   -1.08331117474537
C         3.94897920521506    0.38293502855982   -1.75331083817846
C         4.77104332594860    0.97180562205563    0.37943897383430
C         4.22074497615820    1.49295361237996   -0.85562458589684
C         4.14212169695679    1.31844918539342    1.58610146871398
C         3.84948642549688   -1.05438320667532    2.15881649930076
C         3.63064317183996    0.28494540285249    2.45376905109876
C         2.81672081041919   -2.76640626180773    0.98136312250505
C         2.71725002174444   -1.94695230258152    2.17203610410350
C         1.65773022837116   -3.15764578615797    0.29462322979813
C         2.56174525925292   -2.10669004155967   -1.73654269494184
C         1.55373568763027   -2.92652655399628   -1.11059118621336
C         2.72036770778344    0.29302893687022   -2.47037009439926
C         2.12352390506689   -1.01113109671462   -2.57291627772570
C         1.87346246773279    1.46603035403887   -2.54570473186262
C         3.32702139951836    2.52953907822962   -0.82969352250198
C         2.21856039428544    2.56959670165520   -1.74300576914828
C         3.17666397865659    2.38174680463392    1.59674723988819
C         2.87017893679053    3.05901890916141    0.42998948068742
C         2.32643115185095    0.69039150628003    2.91579166685784
C         2.08750996368911    2.02130772651652    2.47482488835796
C         1.45400890887034   -1.56593343102282    2.63187801517041
C         1.24539658192094   -0.19862662734211    3.04804917087145
C         0.47926879243557   -3.24202650261170    1.10391776203995
C         0.32683050365626   -2.37125902400294    2.23323813885693
C        -0.66456086629974   -3.72247906459099    0.45078087135953
C         0.24294407756987   -3.00496271565335   -1.69941734932082
C        -0.82391786836005   -3.52846290871784   -0.96904676590257
C         0.80936795415334   -1.06616335554179   -3.06377475763171
C        -0.09586740917307   -2.10216333123702   -2.72975244138860
C         0.49346174605489    1.37202818833933   -2.97078594620204
C         0.05092723473459    0.10819098513565   -3.36809354628715
C        -0.51489923909848    2.32956609416187   -2.55120350560262
C         1.19274659212249    3.35397427327727   -1.13445345627601
C         1.55132649104795    3.55851729030731    0.23199471334905
C        -0.14918918462110    3.29217456446698   -1.54372470827585
C         0.79117499158651    2.51096655409056    2.31523361580390
C         0.56253590449640    3.43681555123130    1.23147818505201
C        -0.08440706610940    0.34005389193077    3.10008183184279
C        -0.30822462045863    1.71844765712629    2.80158921865923
C        -0.98023586962946   -1.96570486135041    2.65474690155424
C        -1.19087713622117   -0.59514618905213    3.09872699119000
C        -1.90662089700714   -3.56282213735693    1.05419665667917
C        -2.08667792837864   -2.67463462588864    2.12622125908107
C        -2.19232221714860   -3.11556359033345   -1.19388712358703
C        -2.87819968851945   -3.23688596493595    0.02455166885139
C        -1.43969761013065   -1.61558581933767   -2.87797476658781
C        -1.32657066680689   -0.26783534568986   -3.32272692261479
C        -2.50282240420478   -2.02187517371731   -2.04692790758857
C        -1.87676146612719    1.97584964178053   -2.61972380734154
C        -2.28705720355273    0.64558963558204   -2.95809241101760
C        -2.85833226498831    2.47560734716555   -1.69718812177877
C        -1.09628163957338    3.69293132538418   -0.58191434319427
C        -0.74845545558453    3.66035319125990    0.80486222932441
C        -2.46985065308341    3.32092488683113   -0.67717723261217
C        -1.64875458690898    2.19066974694506    2.54708001631173
C        -1.86088504011295    3.18145646766588    1.55324656946195
C        -2.97937954056093    3.11569017387655    0.65778058456367
C        -2.48724836240738   -0.07510309650383    3.07423405621953
C        -2.72429648223534    1.31846045784370    2.80659367975084
C        -3.35636064996491   -2.02676739447143    1.88712621761187
C        -3.75706462794226   -2.25911921544475    0.51366442325124
C        -3.58259291339617   -0.80624866676032    2.46448240998431
C        -3.51263723489467   -1.05335545142344   -1.62517935668608
C        -3.40927162782812    0.24756569456266   -2.16055256405938
C        -3.81995008416981    1.42134945428158   -1.43529189144171
C        -4.16306121316351   -1.18186861022125   -0.32720471907171
C        -3.99214372202704    2.19834252583650    0.87271769980786
C        -3.92244226433221    1.42254552018636    2.05032885712350
C        -4.39755660051396    0.10625565438153    1.75376086862967
C        -4.41133737321796    1.30612354819467   -0.19880917185908
C        -4.60210541759462   -0.01590151677603    0.35436293968035
