74
C74 Isomer 12231 Symmetry C1
C         3.62440900645818   -1.87785356979971   -1.91837500241291
C         3.87164306969323   -0.55785538593830   -2.22983151862599
C         4.32956543175484    0.13676197899470   -1.03099554222018
C         3.89334462283956   -2.02549815893429   -0.48780721786774
C         4.17253210274260   -0.73260346860191    0.06770105696545
C         2.88782381101266   -2.80511580461179    0.04187692450276
C         2.35823809758023   -2.44853391393171   -2.19971982405355
C         1.98511210256529   -3.18901408060128   -1.03620713701627
C         1.34890359241563   -1.72115240634751   -2.87653012947753
C         2.86853669054540    0.22724715630903   -2.85649424371697
C         1.63022188480708   -0.34198902959639   -3.23268561932183
C         3.72347289847365    1.40507984312434   -1.03917707988543
C         2.90583777529400    1.51389017867158   -2.21610651431584
C         3.32576626852050    1.99237850841044    0.18217361651547
C         3.49348190676988   -0.28563670491547    1.25210761520467
C         3.26810418961003    1.14600108222017    1.36384569144701
C         2.36418507926027   -2.49479750464630    1.33354311712873
C         2.63360194527638   -1.20470852985732    1.94073631239651
C         1.20380806036853   -3.17937869486326    1.64381641864098
C         0.67110701577621   -3.55585151230668   -0.76486160913485
C         0.43026040653735   -3.84598853361063    0.60570607310892
C        -0.01759639968286   -2.14507731700786   -2.64712976564881
C        -0.39483675416447   -3.08744627258580   -1.61852999410787
C        -1.01993099105161   -1.31177683243866   -3.16213053598078
C         0.54242616841007    0.58793252620367   -3.42077824455033
C        -0.73129109664660    0.03155814322623   -3.58415223358078
C         1.80639224737610    2.38119338915190   -2.25028144299967
C         0.63693493426302    1.96459514882283   -2.98430691596102
C         2.41912487799602    3.06189387954601    0.04752852438802
C         1.69748674095175    3.27377318716258   -1.16425738166243
C         1.58136754909397    3.47980466879430    1.13296991598389
C         2.47146154596070    1.59040932097749    2.42200580584155
C         1.68954684417808    2.81120583005817    2.34055592223254
C         1.65702527324304   -0.71041223722965    2.88547192115667
C         1.71363201506007    0.65964903027261    3.20018403068935
C         0.27648070101314   -2.69258620389070    2.62638624983549
C         0.40307907684443   -1.38740914094863    3.13672098163323
C        -0.88299845704542   -3.90593925678166    1.04039622467926
C        -0.98596747305540   -3.21505153212569    2.32447224062066
C        -1.74926282748843   -3.10123879119324   -1.12137933602434
C        -1.95837011044382   -3.52944510875928    0.22093532480606
C        -2.38461735569333   -1.38464243727021   -2.74945138860570
C        -2.76046862183294   -2.23200818348308   -1.68308226486707
C        -1.92739977266015    0.78907086969554   -3.41682004495595
C        -2.96771456292102   -0.08721899475648   -2.94690004779337
C        -0.55752029167178    2.66260093545117   -2.72059069899443
C        -1.84102907199589    2.08574210709158   -2.94393191210332
C         0.41684517676773    3.80303438515721   -0.79495418637306
C         0.29687393268334    3.86448246367745    0.62787159849021
C        -0.67701287616334    3.51483048018665   -1.56821549117484
C        -0.90988959662597    3.45761495945117    1.25492792643829
C         0.50268182752861    2.63830327061789    3.08239974069489
C         0.54100253708927    1.31730155920431    3.65104176049266
C        -0.77565532643173    2.84542739607347    2.52340068344467
C        -0.83493969080479   -0.64927760315296    3.31158042705594
C        -0.72358143401409    0.73677305628526    3.52314138693461
C        -1.57520090641063    1.68892370216952    2.85553173570167
C        -2.14119427830012   -2.43277690671234    2.30350242154507
C        -2.85194509715609   -2.79076895124197    1.09197142560750
C        -2.08443375658885   -1.08935232355699    2.75426189727348
C        -3.82923568464987   -1.76120224872476   -0.86072204683953
C        -3.74292440868545   -1.91398522981337    0.57364579287606
C        -3.92268318897161    0.40130883318347   -2.06207115968952
C        -4.37458727230210   -0.48291422904350   -1.05867991548499
C        -2.72015236726399    2.51634541351824   -1.87999151779277
C        -1.95737915393783    3.28322532650998   -0.94735426597793
C        -2.05155588628883    3.08899124070754    0.44433087846759
C        -3.72621023187029    1.69363768358956   -1.43366364864842
C        -2.64802605512665    1.27160548524862    2.07260094076757
C        -2.99870314648355   -0.13627381170062    2.16056246871944
C        -3.92304395578623   -0.61831921871660    1.20783009080648
C        -4.39834227450496    0.22940092260266    0.20191742955679
C        -2.99418265709201    2.08816695179971    0.91983220216596
C        -3.89643437494815    1.53793921552953   -0.00831889695005
