76
C76 Isomer 17191 Symmetry C1
C         4.79407548943113   -0.25957628456328    0.46691974571050
C         4.60230027813829    0.35599432442025   -0.79858979230605
C         4.00481282306024    1.64644875682559   -0.57829353720516
C         4.29155498083592    0.66159811966761    1.46575818863919
C         3.85136909121844    1.83661270265129    0.84374598886279
C         3.41646261405692   -0.01647081264137    2.33375102318543
C         4.26345140938804   -1.53100990890568    0.76130565550846
C         3.40354483437885   -1.40228730414290    1.92240775685618
C         3.84613892159015   -2.34175267486123   -0.30061264114630
C         4.12723749306891   -0.42525854728288   -1.85309565773861
C         3.94108095530027   -1.80701441386459   -1.60930731656205
C         3.00188340044868    0.03633727913561   -2.66197719286765
C         3.00976114819396    2.14127486874862   -1.45701232556682
C         2.40398916963976    1.27682257650001   -2.45806620254766
C         2.25361733836320    3.19947662824178   -0.96100384954463
C         2.75978256836774    2.56880270062564    1.37717558218550
C         2.22284501692912    3.48167308078985    0.45290139585274
C         2.24789806376955    0.64805363286541    2.80244411542951
C         1.89623069688974    1.97910763823794    2.37213331106739
C         1.21447198287846   -0.20820574218847    3.19031841825713
C         2.22597015033054   -2.15329849100105    2.02260297387416
C         1.22439971952373   -1.58573202281676    2.84107411535381
C         2.59944164168834   -3.07545179527396   -0.20501565678244
C         1.78605447808501   -3.01734404560283    0.93107402135411
C         2.76667429381082   -2.22955478308656   -2.33466535411761
C         2.18909209851963   -1.11681129545340   -2.96624515944019
C         1.97524359110104   -3.03374840920032   -1.50674998047461
C         0.79540495468201   -1.03165693982931   -3.08721014264430
C         0.99618164347447    1.45146704475952   -2.80181578332808
C         0.24235016943278    0.29390331506970   -3.19066513382593
C         0.95853351510714    3.52676830802827   -1.50454747134517
C         0.27817458694056    2.61079089855255   -2.35580348246417
C         0.98259586948057    4.06234334553872    0.72217569520231
C         0.25288883419799    4.22247222014658   -0.50763663308086
C         0.50896242183371    2.39845093286466    2.45524764772036
C         0.11123095472999    3.50586495770978    1.68536576024888
C        -0.15246885172453    0.21289787026586    3.27166568692243
C        -0.56089706848327    1.47880121840624    2.84683371015453
C        -0.11926678297350   -2.02789875799910    2.77302110378844
C        -0.97035084193457   -0.93811191086422    3.12249220976153
C         0.38553318505472   -3.34637081460592    0.78181087292672
C        -0.53272541040075   -2.99258420123383    1.83675776672013
C         0.58451665110426   -3.02652421177140   -1.66306194423391
C        -0.01004070442227   -2.11336161197202   -2.59678128603323
C        -0.17024717312373   -3.48696032818011   -0.53389173606223
C        -1.44051810195869   -1.96878439912086   -2.59269141685647
C        -1.15394094477189    0.38349176688935   -3.24456262291030
C        -2.00231420915523   -0.74160964904920   -3.01228818670365
C        -1.17501911543969    2.63590815515664   -2.30782543352903
C        -1.85927491992978    1.55935226892889   -2.87778409759005
C        -1.10076153508765    3.96453749531847   -0.24175793939258
C        -1.21656848711941    3.58421691461666    1.13494930210182
C        -1.87879682250561    3.33516281633951   -1.24239770613877
C        -1.93860916948542    1.62015579709476    2.40968083192413
C        -2.24702204024993    2.73065030219103    1.53959878017653
C        -2.30612437715637   -0.84091424345147    2.69970801422699
C        -2.82282764908143    0.47530222581114    2.39849317157514
C        -1.93205318522711   -3.03958968802698    1.63322941606234
C        -2.82846939806534   -2.00124188082836    2.09236048278545
C        -1.56686290467426   -3.52027629742967   -0.70455205459828
C        -2.21553022877361   -2.77161614984986   -1.74836635059610
C        -2.42698178798936   -3.51113366919349    0.40352472229797
C        -3.90265712540309   -1.89490087139295    1.13789281111044
C        -3.49433131181851   -2.30241831387185   -1.24716722160070
C        -3.62759583902032   -2.78930805082863    0.06250132022831
C        -3.26967280490886   -0.27141167433945   -2.53708108108598
C        -3.19094078253944    1.15939749039999   -2.49425557493273
C        -4.01075257982796   -1.01575005017865   -1.57990679770175
C        -3.11777478911742    2.87695414595861   -0.78926282826577
C        -3.32457298414720    2.65523917124008    0.61936682378367
C        -3.85916316621666    1.85531877134705   -1.49780247146215
C        -3.99005160665484    0.50549704977756    1.58349440932765
C        -4.44405634608096   -0.66271488845979    0.85505571353929
C        -4.65599004820560   -0.28341766075878   -0.53363416800370
C        -4.24153528821440    1.60325203830169    0.74470547080151
C        -4.62399065315609    1.12367396469830   -0.56315978483780
