76
C76 Isomer 6770 Symmetry C1
C         4.83496775694562   -1.65975460434615    0.69062974155065
C         4.84717029802011   -0.77720873882899   -0.40450363466059
C         3.94498510000685   -1.26626082245825   -1.42835590803072
C         3.91975452939228   -2.70085242587668    0.39065384486487
C         3.40649190906399   -2.50039758770870   -0.94980527511906
C         2.96006083676053   -2.73416772962941    1.42577720340893
C         4.29977540824677   -0.91170598169502    1.82260150218261
C         3.12936910618797   -1.55920382306386    2.26983374571197
C         4.67028428726321    0.55141417916869    0.09192385356290
C         4.23202425027502    0.45770907299993    1.48587429862030
C         4.03980379760257    1.44350805343575   -0.73424462455728
C         3.09760843613697   -0.37733214508844   -2.12492923437947
C         3.30476085276727    1.01079116793267   -1.90103074528136
C         1.77857120813836   -0.79767743198601   -2.53561529013954
C         2.09876879300837   -2.87612883917317   -1.24435001412919
C         1.31644972093180   -2.10752416530531   -2.18018613787959
C         1.69465327814085   -3.23279787940199    1.16375277897211
C         1.37523063622033   -3.56974153616994   -0.19727511074922
C         0.63810773595880   -2.83170397436631    2.06456072425516
C         1.98088016188870   -0.82356213893739    2.64825127075166
C         0.71251595657385   -1.51955614675118    2.66847596552441
C         3.14608846686649    1.23994315164451    1.92493709469816
C         2.02507872402579    0.60582292782638    2.58031545463679
C         3.34798165686586    2.55197507024744   -0.15219068581420
C         2.92288825420912    2.47377074557471    1.19522710039764
C         2.28509169220516    1.96885845596260   -2.11369293547513
C         2.44679814239180    3.03027296466771   -1.15235772783123
C         0.80585819167986    0.22125927430764   -2.87296682512802
C         1.00441379325896    1.61050374416406   -2.58000859785396
C        -0.52468367546783   -0.17209414724062   -3.09551142646093
C        -0.07750145345855   -2.46086019108910   -2.35250056481029
C        -0.96428532546891   -1.50909463126513   -2.88703586920438
C         0.06885843909717   -3.97167687188105   -0.45387087377101
C        -0.68209605932642   -3.46929173666628   -1.58427794320795
C        -0.59837579780476   -3.43008125274108    1.82716893437121
C        -0.81477573319469   -4.15377881482689    0.61251869897406
C        -1.81133916081567   -2.77091043165726    2.13963625992011
C        -0.49949641856326   -0.80710131321828    2.91157418858103
C        -1.76267281419948   -1.49018796582177    2.72003127459833
C         0.77930593078108    1.32278473734453    2.73111420508298
C        -0.48056815967214    0.63667738460770    2.92342748583430
C         1.79655272614496    3.23923633746812    1.53733336668198
C         0.74298226291837    2.67199103292082    2.35258832625711
C         1.37005715319786    3.80953705172445   -0.79722975647186
C         1.19034121956861    4.07866135850256    0.58221389088211
C        -0.12780505068300    2.46454926254691   -2.24004518167928
C         0.07318514321101    3.55521091005633   -1.38450370819454
C        -1.63313598558138    0.70210818553398   -2.92735881710148
C        -1.48327761119088    1.97120884243447   -2.34249286034939
C        -2.35562569197534   -1.49089844419081   -2.57117101392797
C        -2.77675776860919   -0.12583919542751   -2.67755081371007
C        -2.06447429034108   -3.40228905604182   -1.19603737504197
C        -2.14291731642829   -3.86328076314149    0.14771540417042
C        -2.78473592692168   -3.07295489365312    1.10585655899270
C        -2.91906830027759   -2.34795761955544   -1.60479095574542
C        -3.77990294969417   -2.14537080598699    0.72520860792348
C        -3.91905642322357   -1.81391239629918   -0.68216166496928
C        -2.96206223474794   -0.77343016215650    2.61603661427253
C        -4.02666398930752   -1.16705853721515    1.71726685330140
C        -1.71272885926819    1.35186445374371    2.72943273038394
C        -2.94254403358184    0.64845554303981    2.70158127436916
C        -0.49011716133093    3.27600929546475    1.94677025392152
C        -0.22316261387011    4.09434290743633    0.82827168986838
C        -0.91381343295685    3.84124672839327   -0.37635370018623
C        -1.71339234873977    2.61199257382966    2.03163462622208
C        -2.53540509515593    2.43093572320363   -1.47653544589055
C        -2.16261830846550    3.20999744431439   -0.32593877425272
C        -2.67400795738457    2.86137332696780    0.97789141317791
C        -3.82635138855096    0.32928617282481   -1.92884113355753
C        -4.48037597517223   -0.54889602450635   -0.98457570061148
C        -3.72712742428762    1.66345944623757   -1.36873322762029
C        -4.72650857630130    0.00924808382034    1.38296979355172
C        -4.06118941381410    1.15083768329716    2.00851028560578
C        -3.88145638244917    2.14475255834076    1.02355167541814
C        -4.95761391757011    0.30379214242136    0.04661288855505
C        -4.46702483009979    1.66315323096134   -0.18570232626239
