72
C72 Isomer 2608 Symmetry C1
C         5.15257363265673   -0.73774607978426   -0.99389387351548
C         5.17626523845748    0.51860523153609   -0.40339620219103
C         4.83088660936466    0.33449240673887    1.00556469542059
C         4.74340067030920   -1.72288508035657   -0.00723636473434
C         4.44592701998878   -1.05551547759964    1.20663209858844
C         3.76171020733436   -2.52352184187440   -0.62658858552220
C         4.15805732077593   -0.75182242696143   -2.04520872544871
C         3.30920434171264   -1.85720650001071   -1.84973602149534
C         4.35457379836315    1.39412998714257   -1.21471977656671
C         3.61126601534942    0.55488297279437   -2.16259714346129
C         3.70777457324544    2.41592173846160   -0.57246112116189
C         4.08680862577181    1.30604615029083    1.61828141728909
C         3.77051885455399    2.49312679356621    0.87211722745367
C         2.90359875212486    0.96294713707006    2.42332914995150
C         3.25838226141655   -1.38566532668824    1.94156133379281
C         2.41766073391385   -0.35044385282246    2.53657335691554
C         2.79469567508108   -3.05189850449404    0.19480947477855
C         2.58202375597182   -2.53750610146798    1.51499044564753
C         1.52203119313026   -3.37446562797953   -0.36359979516613
C         1.92123111127892   -1.74340032061745   -2.11518672257771
C         1.03148827492485   -2.70021903329904   -1.49718067880610
C         2.22401527866487    0.71086921284028   -2.34838544236007
C         1.37861978580041   -0.46561357683736   -2.45955691653370
C         2.36178375712226    2.75628671310896   -0.97682371269486
C         1.62055273928159    1.93307773556646   -1.84557703981211
C         2.51580814675886    2.93490667143751    1.30802543676537
C         1.98430631689846    2.03224662455037    2.29138475382217
C         1.68782609457674    3.24325319908210    0.18241331399176
C         0.60505223831340    1.86050009783501    2.39717308373383
C         0.98248707032963   -0.53712905840754    2.74676138065411
C         0.08528567166790    0.58107363577177    2.77591804400493
C         1.20197359400904   -2.76987879217667    1.84269263002551
C         0.65376579256892   -3.51577198263139    0.75408068500916
C         0.38256588521745   -1.82740810225401    2.48408411130907
C        -0.68821291823963   -3.54665348772848    0.54249878296876
C        -0.39397992999199   -2.56807489195020   -1.65430777038214
C        -1.22607600640510   -3.24730511723343   -0.74527439304467
C        -0.05145745583430   -0.31505392698826   -2.51955062564426
C        -0.95306273058617   -1.40806315362981   -2.29164511466205
C         0.20395371197070    2.05403760908088   -1.81850979513898
C        -0.58646107264040    1.01440201143836   -2.43823273195143
C         0.31971974790242    3.17448569516102    0.31986842472976
C        -0.21847293372907    2.72409848355742    1.58300126396610
C        -0.45024264642260    2.85585600192515   -0.84372051886865
C        -1.57548497743433    2.56657234759665    1.65523358647822
C        -1.35755050281719    0.41210517523991    2.77768829390694
C        -2.16629200301716    1.50871329405118    2.41815950643640
C        -1.05920659331088   -1.99345349009542    2.37883495706630
C        -1.55834983226372   -2.99716371301605    1.52832018099433
C        -1.95562688352275   -0.89394601479802    2.66985367655075
C        -2.59327464056327   -2.89936554306001   -0.54149848272738
C        -2.81843816711433   -2.87164274418353    0.87566977419863
C        -2.39333724711079   -1.20507247388043   -2.25683825677811
C        -3.26567860036864   -2.01255540548425   -1.40187492031566
C        -1.95812761968313    1.18702619256010   -2.49150309456948
C        -2.86127814997034    0.08062867169985   -2.58362980621288
C        -1.87173926864532    2.87004636501179   -0.72532445374907
C        -2.45444699418718    2.88395017496251    0.56210193543579
C        -2.61886595568012    2.25000797002800   -1.75375428954415
C        -3.52313281245446    1.40309048245721    1.98053369565596
C        -3.71972050558722    2.28315052947784    0.83031858996019
C        -3.32090870831671   -0.98867610063462    2.31935478449705
C        -3.76918051133941   -2.02471747181687    1.40564189245444
C        -4.13926184335786    0.16234371515298    2.02747012276609
C        -4.48928823339989   -1.48080361110610   -0.88058736122051
C        -4.72925118935654   -1.51657622794794    0.52013703093565
C        -5.06224824789215   -0.17095600892269    0.97490547905096
C        -4.13318770888979    0.55315215463000   -2.12558104603221
C        -3.94484334248407    1.88357251782760   -1.53949373753719
C        -4.53592681843110    1.88119035822111   -0.23980812386055
C        -4.94722406423790   -0.18918788946625   -1.30672539924920
C        -5.25395738152291    0.64056890033246   -0.12497657366965
