64
C64 Isomer 2497 Symmetry C1
C         4.60188302373193    0.72500473234401    0.31171429390959
C         4.28474487528095    0.75942210168670   -1.05789364438620
C         3.96851830298902   -0.60784384804815   -1.46822385712969
C         4.22394597809453   -0.59932718387005    0.79981785685419
C         3.84928970096949   -1.40919991363556   -0.29727473290130
C         3.35138013511775   -0.44375109826249    1.92388686330938
C         4.01620009200320    1.66420684772039    1.15733272747952
C         3.32281149249388    0.93112422147676    2.23307389012237
C         3.11747391640906    2.62497528447904    0.65859305664101
C         3.26715341828694    1.60755810423364   -1.55006595574328
C         2.67683709872280    2.58926392295681   -0.70762462662108
C         2.89136297068076   -0.55284745176871   -2.36204843486635
C         2.40591600765354    0.80336813841762   -2.42070919124286
C         1.97926457435466   -1.60087376815227   -2.35723713958054
C         2.76684124152597   -2.31667319325947   -0.14690396105570
C         2.01835168993888   -2.58727369693860   -1.31435622883317
C         2.16117177767401   -1.20779666603272    2.03829320579842
C         2.03415905599611   -2.31311258630962    1.11511671292299
C         0.96115785900208   -0.59308692149881    2.58012850653688
C         2.11214662902898    1.56586860381052    2.51737196899709
C         2.09040706270323    2.73884634037859    1.67342196626352
C         0.91419526757954    0.83424183467361    2.73837152714434
C         0.89597291773086    3.28639455675578    1.36096045740679
C         1.32977832641589    3.00066938775567   -1.01850048290465
C         0.57375705272151    3.62598584303840   -0.00155453014881
C         1.04762580832658    1.05040395563014   -2.57089316127967
C         0.55667149216936    2.30567789682404   -2.03419974551643
C         0.61181780746877   -1.36517358440710   -2.66257865365252
C         0.10927209669862   -0.06056692215929   -2.76579031042312
C         0.71749401919611   -3.16118820079718   -1.24641787446222
C        -0.17985321145685   -2.41363129791501   -2.07645893559307
C         0.84584047247360   -3.02706505780687    1.17238749323296
C         0.26166105191072   -3.62809516428399   -0.01705579059911
C        -0.28525768344500   -1.32069254735735    2.56267865378110
C        -0.22718826195992   -2.64258839477873    2.04621389989736
C        -1.56334669377872   -0.62649857908508    2.58987953810284
C        -0.34263391253164    1.54477017209561    2.58414311581678
C        -0.30632060941439    2.83191493421127    2.00343565990292
C        -1.59130088052813    0.82367815880768    2.53266991735486
C        -0.83241446352212    3.77023376939727   -0.05318027287928
C        -1.38543651519650    3.36042960436691    1.23138770953233
C        -0.81071925470064    2.52410077852344   -2.12519122749726
C        -1.50557769921387    3.40340057250282   -1.22096713310427
C        -1.30039461369752    0.10280146286431   -2.55558399723313
C        -1.74181199433569    1.44831696822344   -2.46722518050534
C        -1.54129946698933   -2.24521292157090   -1.75531892862805
C        -2.13896410895183   -0.95011816886751   -2.01208631903364
C        -1.11680667219401   -3.72815272968079    0.16718919050173
C        -1.39605272302164   -3.27267005089369    1.53637118968969
C        -2.03757549220359   -3.08489989437287   -0.69896857810565
C        -2.70734580818573   -1.31039927284675    2.08785293967726
C        -2.59474093131929   -2.61568943834564    1.53482075909839
C        -3.07072730330446   -2.57137655228908    0.14401914952509
C        -3.31499450394752   -0.56757568121894   -1.25744714809308
C        -3.61516635436243   -0.63267590876690    1.21833472642018
C        -3.62297626539928   -1.32867525679890   -0.07343598323001
C        -2.72003940133767    1.48831114645791    1.99075972879566
C        -2.62189293151041    2.75314477272921    1.31067956429497
C        -3.70773774973712    0.73234450055938    1.25082567521123
C        -2.84422160792168    2.95748848417583   -1.11999379523675
C        -2.99355629438235    1.75690952871197   -1.94026783880959
C        -3.71580404844364    0.78267060540581   -1.20615700566704
C        -3.43053809481943    2.69706862524818    0.11767135611479
C        -4.04940766353695    1.40413609555627    0.05320736462664
