80
C80 Isomer 2461 Symmetry C1
C         5.83078600526042   -1.50813332877223    0.39651897751511
C         6.00584736949008   -0.12489258034298    0.02254435842367
C         5.56208573021866    0.01426225312919   -1.30148227154407
C         5.10772919346817   -2.17774818443413   -0.65348818363184
C         4.97389267539601   -1.27173980942629   -1.71670711067074
C         3.90574309575629   -2.72904554045919   -0.09794973232085
C         4.98785148815423   -1.51788855223512    1.53882134348817
C         3.85773578968381   -2.35728796621351    1.29663412242995
C         5.40321104553277    0.69439129155778    1.04711901626566
C         4.74653540891828   -0.19304326461503    2.00394288098500
C         4.71054322588477    1.82872922376523    0.65253855037469
C         4.64366619706368    1.03153382545178   -1.66080550659221
C         4.35364416268389    2.03314749335234   -0.73239053969288
C         3.70795277347305   -1.00313840639399   -2.28521718565843
C         3.51999308552594    0.42408149062771   -2.35006276824361
C         2.69975015633227   -2.66207197154622   -0.81308754433641
C         2.58209498162932   -1.79303911132342   -1.95150469132418
C         1.51027724318690   -2.88802875579880   -0.05928501526873
C         2.64265732839694   -2.07836944912190    1.92997086258549
C         1.47515895775566   -2.64216445596989    1.32674179889012
C         3.50498041905418    0.12736087586250    2.59457256389317
C         2.48156528527796   -0.88791628159413    2.71530637670504
C         3.60719645095273    2.29176826349658    1.44582463425312
C         3.05674548647831    1.49541417013851    2.47593699999005
C         3.06380633340669    2.64146721174238   -0.75154405142307
C         2.70102799431003    2.98309030044173    0.58761670854585
C         2.23761279531207    0.98432108212669   -2.33889831822790
C         2.03134089173855    2.21140384059720   -1.60731746568747
C         1.29294014701350   -1.26608245588846   -2.26217211660446
C         1.10721422357831    0.10851742070799   -2.52864591084902
C         0.27312226591299   -2.87746113167794   -0.76882399363344
C         0.14005006171708   -2.01737244771803   -1.87797763958190
C        -0.87520111947530   -3.34049370098080   -0.07638775154491
C         0.20256323834929   -2.47807445526684    1.95109499057403
C        -0.91013639797372   -3.14242652508790    1.34749010970689
C         1.14381299471755   -0.53892604372213    3.09968334226695
C         0.01575081097542   -1.40121984026116    2.84444217852378
C         1.74286991636092    1.80425347126438    2.86456587665463
C         0.83845350575057    0.80854209710825    3.32609240508869
C         1.36952566092791    3.23035409059301    0.93359249918020
C         0.95820431680159    2.80288236046585    2.20878807085613
C         0.70109720663056    2.62528745399959   -1.32866173583993
C         0.37413331522409    3.25960959289652   -0.09154260135137
C        -0.21896273566545    0.65311102966459   -2.53664016859400
C        -0.35606765496337    2.00148758035093   -2.07938199219534
C        -1.16567945599961   -1.56624239137403   -2.25811525500399
C        -1.37864134168879   -0.18307340930232   -2.58241835649903
C        -2.07363104788481   -3.32668204136009   -0.80853985795096
C        -2.24114505963855   -2.35876362032090   -1.84654181899808
C        -3.32040600398051   -3.42927051444453   -0.12973004269035
C        -2.16035579481226   -2.97051593609990    1.96128647351982
C        -3.35914684342441   -3.24168719413390    1.24444335823388
C        -1.33881894889404   -0.92201650170700    3.03453898854384
C        -2.38470760524031   -1.77112406196861    2.70381402507557
C        -0.50184336288060    1.30962811662865    3.17021309425342
C        -0.41291774018881    2.54082141705295    2.46556993719078
C        -1.61872045798223    0.49515730367295    3.04571433568422
C        -0.99518351542795    3.36643974409406    0.29616031946300
C        -1.43403850340801    2.92778837576460    1.59354365734044
C        -1.63546097724421    2.50420567631814   -1.91510698286377
C        -1.93548313080582    3.29942441763526   -0.74771074284790
C        -2.71761983987929    0.36923327928799   -2.47586483600487
C        -2.80532101775150    1.76778765776877   -2.28002775924649
C        -3.58633423998045   -1.82836265714676   -1.75807815498776
C        -4.27443732625453   -2.53231192440008   -0.75426734045045
C        -3.82648062511706   -0.44961240762048   -2.00688870194208
C        -4.33272445160907   -2.20436235190597    1.53636431188486
C        -3.70078884402527   -1.25458969455618    2.35604238226891
C        -4.93995796911471   -1.81791705510790    0.29334639049273
C        -2.82650521942914    1.04727300158607    2.46310819503411
C        -2.72917385110449    2.31308976014676    1.77567656643844
C        -3.90178964295614    0.14054355883787    2.15930508557087
C        -3.28686351528596    3.15534355520091   -0.46117160628468
C        -3.87510495802990    2.32780467898996   -1.51650820903190
C        -3.71399109582708    2.63929791299227    0.80352225564227
C        -4.84116182056423    0.13157397432260   -1.18459744873282
C        -5.17623832236643   -0.48101844536676    0.08803804020851
C        -4.83782815951241    0.48419473442194    1.13254835475270
C        -4.82230857243441    1.52018871749360   -0.93698612133211
C        -4.75899206548059    1.73230216410947    0.52245309088923
