76
C76 Isomer 1539 Symmetry C1
C         5.76062479980121    0.60722178546767    0.01049829016502
C         5.55245852807628   -0.40726804090500   -0.99931957690297
C         5.21339639159633   -1.59325167617600   -0.33945338818127
C         5.34465235211948    0.06992986883243    1.29440537055073
C         5.01263755939549   -1.26684392208860    1.08991790840954
C         4.32148876638089    0.91002084741099    1.84189032514442
C         4.87357598020748    1.65226298560810   -0.27995326824950
C         4.09388908440778    1.95916249883037    0.88219814890303
C         4.63826372371902    0.12008496608433   -1.98773794317363
C         4.17135659504693    1.41865388194007   -1.52228711670753
C         3.69845467800421   -0.73932388910278   -2.53081788997707
C         4.11218503062925   -2.37152852437162   -0.75519908418458
C         3.47712813386692   -2.04636003552373   -1.96069822780901
C         3.75735465372775   -1.80850474192992    1.49021037499485
C         3.25923946504205   -2.59697275345822    0.39744114930475
C         3.18709263458824    0.33697293063918    2.47993356810063
C         2.84178825422513   -1.05733127806349    2.27252133687701
C         2.10727411385843    1.21560034431381    2.62781553339875
C         2.83450064656625    2.53862592907710    0.71229111821835
C         1.97272398180337    2.38012620390184    1.82002689557497
C         2.83943277974377    1.83145821588762   -1.66499175011952
C         2.20811348053056    2.58861131087752   -0.58665852312484
C         2.40737542188000   -0.22712286312012   -2.90627779010736
C         1.96095197326277    1.04405390244473   -2.51253297899956
C         2.09127521183946   -2.33384899406733   -2.09729823605774
C         1.46166575440553   -1.28899032230668   -2.84278893550788
C         1.89494440675650   -2.84067310156489    0.27081938858603
C         1.32540391715192   -2.86753448784421   -1.05222570771982
C         1.45782905896067   -1.45467929702344    2.26846459985697
C         1.02239882950321   -2.44729639133771    1.34442591826426
C         0.78699043139091    0.76892692287389    2.94094074835937
C         0.42362012213654   -0.57127052701559    2.76467776907973
C         0.60731943172804    2.70031693472843    1.73609722735653
C        -0.13222303062842    1.77784315999740    2.56032807220093
C         0.83087425695076    2.87374623587063   -0.65839661493254
C         0.03443432043124    3.09658179118822    0.53022731234584
C         0.55451548424719    1.28655464229684   -2.54281563501585
C         0.07569366139647    2.41896445495887   -1.80144304212398
C         0.08788747187193   -1.07378061244010   -2.80026735088249
C        -0.39663802754494    0.26508446101670   -2.86130873570290
C        -0.08044607196504   -2.85042563488299   -1.19600551982601
C        -0.73426904511986   -2.05307860096743   -2.17383001763441
C        -0.35629867520744   -2.75629425161494    1.22058880590585
C        -0.83903178030420   -3.23029133940439   -0.04426175004475
C        -0.97435957306054   -0.84841043706919    2.61819333109854
C        -1.33022179314353   -2.13393418014857    2.07298134915957
C        -1.48012478475241    1.53608341003934    2.36185728060547
C        -1.95212536102968    0.19709773525933    2.57435283167936
C        -1.39936681389765    3.15853867500689    0.50654687899856
C        -2.18158871649291    2.47612768988847    1.51557170590885
C        -1.26693381475280    2.70726358229586   -1.86406657809746
C        -1.97514202288422    3.33294100318484   -0.76958916662600
C        -1.81381901433331    0.47401487478972   -2.75941994344303
C        -2.20720347391369    1.82331010008186   -2.52424493299656
C        -2.15690273305067   -1.87490311816861   -2.13960724845869
C        -2.73695654133985   -0.58199903913747   -2.46754598143952
C        -2.19500055666766   -3.43431635895068   -0.24849643505341
C        -2.87063184032172   -2.80386798299736   -1.37340239488852
C        -2.67982234947702   -2.45572767577092    1.90031812837030
C        -3.07256009806951   -3.34341125653433    0.86397946920699
C        -3.32957560024811   -0.08794635457875    2.23692441993299
C        -3.72335297662569   -1.44004817606497    2.02859333037465
C        -3.53898192867005    2.20525717722791    1.27668343245711
C        -4.10823103137811    0.92064401634192    1.63335697865222
C        -3.34150077544954    3.08844567718688   -0.97241351041918
C        -3.48688553501422    2.13042139542191   -2.08057364828324
C        -4.13704961711714    2.62041344280831    0.05918397785093
C        -4.06643358894529   -0.26536214657718   -1.95489275028786
C        -5.04196237638052    0.55295808555057    0.58277808073994
C        -4.39814105533182    1.11173943292654   -1.71081648481171
C        -4.92591938525171    1.49538545225936   -0.44672507573797
C        -4.20017829282163   -2.51207816306780   -0.94671480985217
C        -4.35794598075199   -2.92951894007331    0.39354947243392
C        -4.77154778259746   -1.76921760882952    1.13467816894268
C        -4.72814347758063   -1.18771596996528   -1.10924198205842
C        -5.19829586512896   -0.78031733137330    0.20305132742929
