66
C66 Isomer 3449 Symmetry C1
C         4.29537225224762    1.24805600504047   -0.58020047860149
C         3.89901029793052    2.12485261020811    0.41048168803353
C         3.71483379421117    1.35044982908325    1.64235936404358
C         4.48837779898703   -0.07228304918598    0.01241456619568
C         4.09716803598408    0.00313055271878    1.39135438352589
C         3.86772170262840   -1.00148846136325   -0.82071356727386
C         3.50030273810317    1.08729547139098   -1.76928229748112
C         3.23766096293047   -0.29824518521766   -1.93981767097575
C         2.47353712768159    1.99621850031540   -2.01534577598296
C         2.76742924217537    2.96739516388553    0.23020965609990
C         2.16564973090801    3.00008633330479   -1.03317804893666
C         2.45137591730527    1.67403159121284    2.15669758982009
C         1.90766638353668    2.75605795130588    1.36647081316686
C         1.56946724637162    0.66085046138920    2.65124200447133
C         3.27471786217414   -0.99713628114268    1.90387898318656
C         2.06427914919776   -0.65909475466872    2.60749726581934
C         3.25888414650236   -2.16801447765959   -0.26951052990927
C         3.01116763505276   -2.17939050794549    1.13538391326889
C         2.32780353394270   -2.81888827924119   -1.10581992051857
C         1.99671615829588   -0.74753661127977   -2.45430928594915
C         1.64854645383660   -2.07304506449446   -2.15999953664441
C         1.22029454399500    1.54685377526581   -2.56171509893284
C         0.91586282972828    0.18936941533634   -2.74640763449045
C         0.76671667699895    3.26099125760910   -1.09718736655012
C         0.19702674763060    2.45397008514878   -2.12339183090560
C         0.53197181402410    2.96873789933210    1.31436504541757
C         0.00322171596263    3.47488395007752    0.06740388386616
C         0.15108913277198    0.87900882130010    2.64080530193044
C        -0.32975433929299    2.15355880533693    2.14896956686905
C        -0.76295038963997   -0.22892413772837    2.68294052097684
C         1.15266024542104   -1.74503841946277    2.46714242327579
C         1.79000991339155   -2.73979009933387    1.63348064187494
C        -0.23480207065119   -1.56137771986510    2.50381755155386
C         1.37429476230380   -3.68133476265400   -0.54315459406926
C         1.01904943400115   -3.55423160367754    0.82392673339175
C         0.28670437006720   -2.49223011519987   -2.21632282073901
C         0.14815257708098   -3.54584113939441   -1.28667368695023
C        -0.48172805517786   -0.22612594524386   -2.71239573639340
C        -0.79702393693778   -1.59438914284841   -2.44068196586474
C        -1.16220622798387    2.11957894272697   -2.15467167685547
C        -1.52397616331989    0.76797353140437   -2.54152259083686
C        -1.38426020908385    3.45673508832304   -0.12918851471341
C        -1.99367220872389    2.86406668976363   -1.28881202284240
C        -1.71067127053366    2.33852665784675    2.01138798733346
C        -2.21336322220633    3.14936376705442    0.96303299564270
C        -2.19030345315257   -0.00613893317556    2.49005566193061
C        -2.66909267124249    1.28494810950830    2.23677133114837
C        -3.02165372756506   -1.08851514041957    2.03456040617977
C        -1.03756699619805   -2.56519247821585    1.82076837856467
C        -0.42160531679964   -3.46582591734742    0.92511794043181
C        -0.94742767971306   -3.55051081151391   -0.40305376052205
C        -2.38277364606601   -2.29577445316820    1.55356165166258
C        -2.08673787504436   -1.97083625910630   -1.89715905919719
C        -2.13606851989344   -2.90988083769747   -0.79067952653801
C        -2.98866177240675   -2.64157443205437    0.30660274171333
C        -2.83214847220789    0.35299786229956   -2.25569745389785
C        -3.11963599273462   -1.01598987695014   -1.96114768058405
C        -3.29642770172034    2.38344799663001   -0.91461765077275
C        -3.44695958804295    2.57973987473801    0.48638493466019
C        -3.80575015150044    1.51606624977034    1.34285012679259
C        -3.74991437768926    1.18398248423563   -1.46754837974368
C        -4.17058226838112   -0.86311240438856    1.26875181559674
C        -4.10047346946855   -1.78323956211085    0.13965022489101
C        -4.19803759449614   -1.03522473291156   -1.01738162679588
C        -4.48693236465432    0.43684682928802    0.76951239484065
C        -4.53058120085214    0.33814903381582   -0.65726269770805
