76
C76 Isomer 17504 Symmetry C1
C         4.31857672423819   -1.65408030373671    0.27062503917519
C         4.41251329253978   -0.50068730048684   -0.51968160251694
C         4.26913393344146    0.63522638298959    0.36535693645209
C         3.87922804815306   -1.24362953907301    1.59580891892574
C         3.81382364032848    0.14943885747441    1.64025958211346
C         2.80482410872300   -2.04152786995707    1.99695768603768
C         3.57153957372176   -2.78704707831855   -0.10726980138785
C         2.73808145852492   -3.13054633883894    1.03526048478686
C         3.00002528531914   -2.81210354261963   -1.38135859004995
C         3.76199471113196   -0.47312536403796   -1.79200230431762
C         3.04298245705675   -1.63033601162913   -2.19566890240434
C         3.25149070560596    0.76985954512648   -2.22274276086629
C         3.84913078067342    1.88725478277585   -0.09936511388033
C         3.40649750909025    1.97048234033138   -1.45179818599918
C         3.20740733267412    2.71889101233019    0.86310062557085
C         2.71548877647066    0.76238558919773    2.30868956226389
C         2.55927988446538    2.11566832005028    2.01536384563453
C         1.62181673894737   -1.45696428756842    2.55327379827765
C         1.56663719287558   -0.03071220788979    2.72222865882106
C         0.40586012057088   -2.22812433247654    2.45159086045427
C         1.53994311220897   -3.74448073288007    0.83889836923391
C         0.41847165658656   -3.40218962078656    1.66670622377743
C         1.71067871250336   -3.42166140592301   -1.56453349931070
C         1.04139214092265   -3.99632468004764   -0.50083191078557
C         1.76878024217613   -1.51135127239663   -2.84447375264748
C         0.94916379458054   -2.62290751867489   -2.47757071595679
C         2.00766620284356    0.86349499962998   -2.91216730705221
C         1.18760679991904   -0.25829433556220   -3.13466188487152
C         2.34422385083663    2.86025377572682   -1.81141655134400
C         1.42918806714605    2.14071855966656   -2.65391070651926
C         2.37645836040444    3.75869587952934    0.42867090248541
C         1.85863640887274    3.77532131226012   -0.88665246890742
C         1.30368742340886    2.76268044246289    2.22411562159242
C         1.23653705192171    3.83721508841642    1.31789896499005
C         0.27948460659208    0.62299302723400    2.86193273164527
C         0.14564118689943    2.02994239423767    2.57988815196870
C        -0.86418504016714   -1.59912114256349    2.70637732513105
C        -0.91529643663820   -0.17695715545535    2.92514754376440
C        -2.03711886947613   -2.24836635330364    2.25895917446965
C        -0.73592733870830   -3.77825792429082    0.92409570822701
C        -0.37564206118298   -3.95605726664944   -0.45750210111400
C        -1.95829619316055   -3.26195443431383    1.26193828873749
C        -0.44478856077578   -2.51793170128441   -2.41855989311175
C        -1.15458235316396   -3.30645875064762   -1.43764033924571
C        -0.23937525860833   -0.10552771914578   -3.14962774350217
C        -1.04131857745439   -1.29301399574705   -2.92372485885804
C         0.04271578165120    2.30579567311540   -2.60166969840295
C        -0.81240753943795    1.19329329350498   -2.94892994631248
C         0.42450350737177    3.98542727701925   -0.81945084258984
C         0.06871885762622    4.06681203844091    0.57125850325274
C        -0.45062348958223    3.33918931387058   -1.70477523619900
C        -1.11093483292167    2.59052546887742    2.14164133647240
C        -1.14145031465695    3.55454701900591    1.06389878569042
C        -2.16758241128813    0.46502645974118    2.75911862472383
C        -2.25904081034110    1.80786719792114    2.30958103705483
C        -3.26868031097154   -1.56182047258375    2.00736956432655
C        -3.34529006049350   -0.22095088115107    2.29768589606343
C        -2.95033825100754   -3.03476912620604    0.25348819883566
C        -2.51686811660975   -2.97474892763445   -1.09424098284966
C        -3.86594862410544   -2.07645164251926    0.79632064635892
C        -2.41198744201331   -1.15316740158431   -2.76944839727999
C        -3.18055562435018   -2.04041418146220   -1.92245657408242
C        -2.23009121443280    1.30953054652033   -2.69238406955826
C        -3.03077190199446    0.14450385659264   -2.74527844806612
C        -1.79078178686336    3.26401088101885   -1.27291711846843
C        -2.15103985156711    3.44028601946082    0.08739843588340
C        -2.71825902964847    2.35671431131205   -1.87073597096226
C        -3.42837172628425    1.93357901084731    1.47127387097085
C        -4.10720703112849    0.66400841052645    1.44992345553948
C        -3.34515789247784    2.69076218296414    0.31949934932492
C        -3.78187460941870    2.13720583953489   -0.93370788584657
C        -4.56027009193672   -1.21539995882689   -0.04726114508532
C        -4.27040499160656   -1.30417204758003   -1.43401769984141
C        -4.20728526873922    0.03377045473095   -1.97490445871985
C        -4.69193762883057    0.19067293275236    0.28583805307130
C        -4.50113849698048    0.94858432865572   -0.94510129319110
