72
C72 Isomer 2385 Symmetry C1
C         4.36986687919155    2.71917852555097    0.35728543472680
C         4.75387450274725    1.53888747466465    1.08073032146536
C         5.09085333817086    0.57213859963542    0.12558698055564
C         4.18337420456128    2.36317120046009   -1.05330247098023
C         4.68964591251214    1.08462703938729   -1.21399839779156
C         2.81901807692657    2.59989544630272   -1.40678565354058
C         3.12960793769237    3.14400100799776    0.84599383561158
C         2.20652792604329    3.20796514970704   -0.24453286557494
C         3.71659711908097    1.23035660590313    2.03922969351343
C         2.74771255838186    2.30321162862328    1.95254572274127
C         3.24097635733480   -0.08385181744878    2.20476843444282
C         4.61976247504350   -0.73454087605561    0.24072889355262
C         3.82575684867056   -1.13481377119966    1.37360460381156
C         3.92906064550926    0.07167382368163   -1.84536205089106
C         4.16277660599555   -1.13221937788723   -1.08632446498633
C         2.05059971642097    1.62388108444997   -2.09093333474543
C         2.61964449147366    0.31991064263603   -2.33923151344541
C         0.61680084760832    1.75768404065030   -2.02141241073611
C         0.85619159115670    3.05249586042723    0.01431381527874
C         0.01647095719608    2.60285303689608   -1.05478838385358
C         1.40329211909850    2.08339083619258    2.19573630724280
C         0.42743684400153    2.73474781232932    1.34342730360108
C         1.89279462688854   -0.26140471183221    2.72158793372843
C         1.00092133050979    0.84829674897680    2.80091177619557
C         1.28562576222976   -1.57111074970979    2.67358004388398
C         3.12185959010513   -2.33850010539673    1.21066567508633
C         1.86474369344814   -2.57993168135210    1.88533127470781
C         3.32689412938464   -2.20336694181003   -1.22348253177701
C         3.04963113678693   -2.97637246871594   -0.05608724483108
C         1.70758523524261   -0.80205920719341   -2.43302759599652
C         2.10270249885948   -2.07130263661600   -1.97293908583050
C        -0.24385653271573    0.73628624247889   -2.53475722803779
C         0.29699385429331   -0.58147420457766   -2.58365115495094
C        -1.66291241029957    0.96937338981758   -2.55839417606069
C        -1.38591824117776    2.65524679006700   -0.84448295964532
C        -2.25135482688564    2.06700658975630   -1.82506402308889
C        -0.93813947935984    2.57741900822673    1.56699534293650
C        -1.84810641140113    2.90052005048200    0.49105863834322
C        -0.40686116993071    0.69525971431310    3.05580204036461
C        -1.35954729662656    1.69602526248659    2.62486858202900
C        -0.10126350796353   -1.70234035910423    2.88528685617155
C        -0.90937054264548   -0.59131166807481    3.26357133433049
C        -0.93414206725476   -2.56073973513054    2.10754810206342
C         1.02540850407360   -3.34802973488001    1.02650289779444
C         1.74066314011257   -3.50666523130738   -0.19444937321702
C         1.14646531616049   -2.96387405277823   -1.35251757381700
C        -0.37711095102527   -3.19624197494857    0.98979325750990
C        -0.60868258767312   -1.64710403622966   -2.26507192225253
C        -0.22732861782248   -2.71047120081379   -1.39129723012101
C        -1.07202934119401   -3.00429210082048   -0.25350008161929
C        -2.48415068832182   -0.16087746266933   -2.79251216581892
C        -1.96897329284900   -1.41582434163722   -2.37613652278729
C        -3.85991514613856   -0.16198647729922   -2.43185958473575
C        -3.65536358135302    2.08301416973547   -1.55984803276513
C        -4.46523488828130    0.94266581836984   -1.90431179914666
C        -3.23070005489841    2.81545043382715    0.74481717592224
C        -4.12340993116950    2.51649667525804   -0.30164241892769
C        -2.73288305725866    1.42125904997304    2.72278604427284
C        -3.66644943956899    2.10336643097440    1.91113221466222
C        -2.27505112048881   -0.92082046444725    2.96846158755549
C        -2.27566912382168   -2.05679410232454    2.10306166653378
C        -3.21088744553499    0.06215545617215    2.80766942955188
C        -2.42609920905303   -2.54821237492174   -0.24111457797653
C        -2.91008962259500   -2.02827614634074   -1.46470830645357
C        -4.09811288195744   -1.29706785466207   -1.52491490077658
C        -3.09791656276749   -2.08299033598272    0.96529880425521
C        -5.21090363536398    0.50484206800610   -0.70286536229682
C        -5.08960260638057    1.51863668621872    0.22039473302791
C        -4.72363131617835    1.20732740211413    1.54092751581153
C        -4.30846094455567   -0.12161007362158    1.89299601919841
C        -4.78885072149472   -0.83903924386009   -0.38030195375613
C        -4.23415751890600   -1.15220028110016    0.90860906075144
