74
C74 Isomer 7086 Symmetry C1
C         4.23035731327739   -1.58543101467866    1.41586990871202
C         4.36715189022944   -0.23234312911874    1.55961604617634
C         4.72709248903435    0.35976429776964    0.25941069515705
C         4.45403088565538   -1.86736202862688   -0.02078627853467
C         4.53469039521180   -0.62585703512721   -0.74033719852318
C         3.52232637983065   -2.79302863588078   -0.38753142349701
C         3.01680612947807   -2.22952849125974    1.83623825854530
C         2.72600480022674   -3.15022254694679    0.79777104724769
C         1.94145954524157   -1.46824238838847    2.38656359296049
C         3.33378481271482    0.56273084607297    2.13197608522751
C         2.11911030646467   -0.04104064058994    2.56130053076668
C         4.11347623599812    1.60802255114755    0.19781653991984
C         3.30386567106100    1.79136941906669    1.39449439750332
C         3.54805178502794    1.98562119460054   -1.01700979179174
C         3.61668850333408   -0.36422476313705   -1.82345786176334
C         3.27790251876076    0.99391926353508   -2.00574928222955
C         2.60704008065759   -2.56419167041049   -1.46685785081435
C         2.59251567422233   -1.34317731495281   -2.18104481594426
C         1.42842323361045   -3.37237348568722    0.38024656666653
C         1.37375330962037   -3.13482029710119   -1.05083511133618
C         0.59678469762478   -1.94394032739757    2.16745125371021
C         0.34890273516986   -2.93458135858503    1.17408150728446
C        -0.53442713949426   -1.15281606945950    2.56193648661508
C         0.97724299936125    0.81592606417350    2.65759834817615
C        -0.32888504595301    0.23023372457425    2.84948396994310
C         2.18137287257227    2.60027179061155    1.38212802742293
C         1.08750606629674    2.19047826957199    2.23691757868886
C         2.49063130949510    2.93936208054101   -1.02156055515545
C         1.90577877605228    3.38669660575626    0.18309906924812
C         2.06884018427763    1.40405129253307   -2.66565047295341
C         1.65854937189118    2.67609079198594   -2.15130413423832
C         1.31899938899876   -0.93176786627784   -2.75357875732908
C         1.11477718490919    0.46408666414581   -3.08563329480755
C         0.17045348519150   -2.78531123157187   -1.61922691375732
C         0.14422486536172   -1.73508378979678   -2.58889436906325
C        -0.93653600170783   -3.09043433820829    0.57543611959675
C        -0.99574766896689   -3.14068112923590   -0.84610574457647
C        -1.86740037378747   -1.69261642198562    2.33712932452444
C        -2.08659638929090   -2.73384656030228    1.35023412313228
C        -2.96649886560634   -0.85300959692299    2.62759136584000
C        -1.47551317333051    1.09862119302032    2.85332421236020
C        -2.75426793636401    0.55649421003377    2.70773723781328
C        -0.06431033419732    2.99598571199144    2.17693384076761
C        -1.36081713754905    2.44485868881756    2.46418907172993
C         0.64770505581747    4.00032771232410    0.06884783670114
C        -0.21135914970566    4.00215676440784    1.20221227840277
C         0.31121272926574    3.10018402398089   -2.16922959561939
C        -0.17346996831302    3.86359726692823   -1.09054467986744
C        -0.19946595425488    0.97263614724171   -3.25514878584495
C        -0.60749279100244    2.24865196949049   -2.81003292602459
C        -1.17491550656964   -1.23564132521985   -2.91420762063773
C        -1.34157865462003    0.11741941377272   -3.21425533986251
C        -2.23572823029915   -2.94132507968412   -1.46115024867133
C        -2.34016909646592   -1.87563500645425   -2.44636743722611
C        -3.35215463802728   -2.89068137164793    0.71858390522341
C        -3.39168016275302   -2.99039225594260   -0.70018223760671
C        -4.22561076466875   -1.03775956638660    1.98279906265595
C        -4.43685295081975   -2.01826630906358    1.05470965697011
C        -3.72871216058229    1.21221130228997    1.86452506878229
C        -4.61297993134477    0.25317857160800    1.39151880753601
C        -2.28697342717639    3.02685340087063    1.55381471035159
C        -1.55916424299363    3.93679965002200    0.74083893847013
C        -1.55081959239119    3.73081659908718   -0.64648954832107
C        -3.34134693523430    2.27114956660775    1.00843970765651
C        -1.98525435603836    2.15085727466162   -2.38047126428346
C        -2.45976671796186    0.85493897793917   -2.72891886187587
C        -2.46115387417346    2.79153770904043   -1.23152767141394
C        -3.46368295357634    2.10439505494082   -0.41793514987029
C        -3.54788684745936   -1.17328139063767   -2.18179834335951
C        -4.27765967694867   -1.94145801114851   -1.21723821420676
C        -4.92304939154329   -1.34168818463834   -0.17452545740561
C        -4.83683877996548    0.09017161514873    0.01252842792754
C        -3.54727078689705    0.25096018472431   -2.07798702185103
C        -4.11747607390943    0.91663276743759   -0.91881934615020
