72
C72 Isomer 3867 Symmetry C1
C        -5.02566749163696   -1.02091995013272   -0.25454774736307
C        -4.40809600321516   -1.92429649409360    0.67631546629861
C        -3.81755098926679   -1.16923847959045    1.71865938520630
C        -4.78681740254082    0.30873634011727    0.19804294222033
C        -4.03884531831528    0.23802991375371    1.39793451124041
C        -4.19475390529084    1.06615795320940   -0.86312666485986
C        -4.31137079470420   -1.15258822161014   -1.47041463765066
C        -3.85144044551232    0.12646089221253   -1.89924148649706
C        -3.55843674766531   -2.79894441824904   -0.06914658674261
C        -3.37085185621333   -2.23142355124277   -1.39798380567620
C        -2.46316043997643   -3.30614799192026    0.57960941060142
C        -2.59655413219333   -1.58360730313262    2.31391741511997
C        -2.03976010133323   -2.79430849830835    1.85366859696960
C        -1.70232848297628   -0.60376429682332    2.86930448607525
C        -3.05265573597487    1.19490804991163    1.70517997349155
C        -2.03950828074799    0.79363903397223    2.65969905801025
C        -3.34061670848622    2.13169092059119   -0.55122007452115
C        -2.80154033357993    2.27800361395789    0.78341130597127
C        -2.53228840702208    2.51866693334222   -1.64781450427512
C        -2.61325730107447    0.22524524872650   -2.56537950077193
C        -2.11667658278937    1.53822755523067   -2.60332450525007
C        -2.08084132114804   -2.12291733907468   -1.96168862604240
C        -1.68300839336702   -0.89050265849472   -2.62976042439734
C        -1.29351203714678   -3.60704038755037   -0.18499095373192
C        -1.04432027626958   -2.97975764486547   -1.41854140764418
C        -0.63776959362091   -3.05524980644126    1.96356673851923
C        -0.23974187585981   -3.72677687305012    0.76659403864937
C        -0.33415708929349   -0.97812433677902    3.14374972705305
C         0.25345759698963   -2.18326530687275    2.59460919038915
C         0.57609068591585    0.04004118631242    3.50357073100714
C        -1.06901350115043    1.75550678148282    2.95504775810911
C         0.15359791391230    1.36612337349534    3.53265444144450
C        -1.59884162163694    3.05966889928912    0.94458791352379
C        -0.78863452212062    2.83661352672111    2.05081217909681
C        -1.44466138309059    3.39836083535786   -1.45808596483551
C        -0.91674772778224    3.61377049460971   -0.19328300788683
C        -0.74462350192918    1.78421811511567   -2.92968270344534
C        -0.36277456496489    2.99725516971498   -2.33572510876359
C        -0.30022880679508   -0.63323874349914   -2.88228916205211
C         0.17895869040088    0.72756660479482   -3.03083426594539
C         0.32676717837725   -2.80923544241263   -1.81769299493838
C         0.68882802709167   -1.66753287373719   -2.62482854211846
C         1.05499843701846   -3.68433937085450    0.34579860477552
C         1.33999805994107   -3.38847760118630   -1.02384188310934
C         1.66673520704110   -2.24756136946735    2.22641531942941
C         2.05781674798022   -3.09088299975684    1.16936041108442
C         1.97031059977297    0.02362372644318    3.08713031524852
C         2.52834754714080   -1.10897305290231    2.46755760915892
C         1.20788820639161    2.17157123376320    2.96206327403293
C         0.66309619038705    2.99704270394750    1.99549539739902
C         2.32724233206890    1.34282229099060    2.68956159246905
C         0.54315126654203    3.55461728935619   -0.30603076048675
C         0.84521565964344    3.11209304684170   -1.63603890098354
C         1.35241558282522    3.15632012625414    0.74957269089048
C         1.54168327506163    1.07397619662596   -2.73528166845570
C         1.87306534310253    2.19678230928601   -1.89091739108413
C         2.04754644703076   -1.35429078425456   -2.74832179440439
C         2.47792352311993    0.02703145943803   -2.80270970596178
C         2.70607510203584   -2.96909629671957   -1.06386811553865
C         3.17184268083361   -2.80878995842696    0.30084392925749
C         3.09096925074941   -2.07172269024348   -2.05036921772548
C         3.66319196188559   -0.87014599811208    1.66533728963507
C         4.04833327165709   -1.78162582079658    0.61534451196744
C         3.09901452896719    1.56639131319548    1.52624930975842
C         2.58214668667116    2.42142426778460    0.48652528603661
C         2.89676640709180    2.07030543014104   -0.87754512791317
C         3.94258495833174    0.47119548135445    1.19687283357650
C         3.72548438866082    0.17074314728582   -2.20201414029559
C         4.13857731519301   -1.15053288485595   -1.74564957710659
C         4.60994019257804   -1.01776994864045   -0.45064749953184
C         3.90585438396325    1.11439144614729   -1.13971882864293
C         4.50313803031695    0.39186648332327   -0.08050635706787
