76
C76 Isomer 17271 Symmetry C1
C         4.36981841483217   -0.81280733015833    1.24214102938726
C         4.23351846389478   -1.47623170033000    0.00163610345153
C         3.25662841476574   -2.52406946615204    0.15968419147745
C         3.46260157579726   -1.45367951019868    2.17862915687791
C         2.81186803127021   -2.51939580240969    1.53339949763347
C         2.69636872169708   -0.47990678962055    2.82104168475184
C         4.19137189943958    0.58215406195843    1.35437989608877
C         3.13863230098334    0.81398102349542    2.31558739739337
C         4.22700001564707    1.34915820343110    0.18333159428370
C         4.21599353048213   -0.71364033851659   -1.17293412816105
C         4.39354147041937    0.68175687156826   -1.05176068040407
C         3.18379577393863   -0.93781113762856   -2.17256696373978
C         2.32217114907433   -2.78661743534861   -0.85363874165050
C         2.20781784199005   -1.93394612844080   -2.02367789314324
C         1.16655855249973   -3.47224499546137   -0.44130844032704
C         1.48533803943027   -2.83598639880857    1.90003806790037
C         0.77375073155147   -3.55015448365707    0.92364989263520
C         1.34367743235166   -0.73067028671596    3.15748228669908
C         0.74374415778975   -1.98548142932046    2.79578901199390
C         0.54265743465542    0.43428160857032    3.39152384108598
C         2.21531609987902    1.83745805276582    2.14720742289630
C         0.97583939164605    1.72351005167065    2.88552964556804
C         3.23767600936306    2.38219476815558   -0.01143034989221
C         2.26605703573953    2.65594147736082    0.94338859141068
C         3.54026673783718    1.33455736154741   -2.02891987325066
C         2.82176600332871    0.34098259136092   -2.72031186393942
C         2.84465341470285    2.37840201986308   -1.40332226895910
C         1.53236461740783    0.61005369702147   -3.18840401025812
C         0.92481787680771   -1.76080790702663   -2.67600048834752
C         0.65474493372265   -0.52152656211258   -3.34957124805620
C        -0.01320812851259   -3.49447287222495   -1.23297014908510
C        -0.19080344477452   -2.61317515710700   -2.31067529724774
C        -0.63984750442365   -3.72787504629152    0.98654207562222
C        -1.10065494461031   -3.85620388463463   -0.35508740894725
C        -0.69151122279828   -2.13442262694711    2.84299347909432
C        -1.39516247441478   -3.07507419259571    1.98861916427309
C        -0.82203904257547    0.21705370951794    3.60607872265552
C        -1.42282778417220   -1.04585061608602    3.34279167809893
C        -1.79418661717809    1.24577123065689    3.36111655785910
C         0.03264321451298    2.72157796513877    2.67065576843944
C        -1.36134479683106    2.50586634617436    2.97207176803945
C         1.07543848771163    3.34800851146719    0.49856425718746
C         0.09698336312816    3.55462035534600    1.48296492365764
C         1.54024123895936    2.70009742403185   -1.82495769638203
C         0.99746691879898    1.92969746531414   -2.91606702308666
C         0.67981023057430    3.35998410258070   -0.88701588109045
C        -0.34801241950863    2.14410077916046   -3.23542760746763
C        -0.67527203919287   -0.22731907316814   -3.73009219479136
C        -1.10181860220847    1.09850579092551   -3.82725097218033
C        -1.56667145639855   -2.22971278648443   -2.60710415517985
C        -1.79511575152534   -1.03255719883650   -3.29697879165853
C        -2.40387095761064   -3.52085265112611   -0.67216254729338
C        -2.64365620928111   -2.65651089346250   -1.80312715929924
C        -2.76295061860726   -2.84279950386769    1.66449295798848
C        -3.25555075037708   -3.15341975722014    0.38521419947231
C        -2.76495992068418   -0.76368010258377    2.89348643611172
C        -2.94548777908103    0.65809117563304    2.76540712050714
C        -3.40941286286517   -1.60480357430012    2.04047797107831
C        -3.55414768881407    1.21325165795553    1.60646124265016
C        -2.14191600980994    3.18073790591158    2.01817940106490
C        -1.23218048900254    3.84744472644025    1.11157237438575
C        -3.12079868684556    2.51860789963316    1.25874293216324
C        -0.72120983564488    3.47988853156589   -1.21539497578741
C        -1.21265504355041    2.86227001610219   -2.37020867694021
C        -1.68091411245815    3.66330109348587   -0.19200095025530
C        -2.89798754956669    2.85996869543979   -0.12098569535961
C        -2.43942997004311    1.16063426452902   -3.30073684193764
C        -2.86360673753436   -0.15295070888136   -2.96174125406508
C        -2.50338476717111    2.17643102191201   -2.35785656496684
C        -3.24067145442872    1.98403749206320   -1.14388762383937
C        -3.66860450222457   -1.72752935946954   -1.40896697263474
C        -4.05338063823442   -2.03719439505661   -0.08835100519406
C        -4.11076938446778   -1.04850884293329    0.89060299450957
C        -4.00767202802440    0.33258351294968    0.55212202277392
C        -3.65665708370540   -0.37025028148234   -1.80887292943930
C        -3.82658821747267    0.68417776396164   -0.83383003490952
