74
C74 Isomer 13651 Symmetry C1
C         4.39462475644813    0.07263220111196    0.62137699374468
C         4.05588063523558   -1.25207677314774    0.28086770412089
C         3.26903438809644   -1.76896535222560    1.37156006205617
C         3.86606856024899    0.37261642315128    1.92808994551114
C         3.09484553778520   -0.72267370959545    2.34722969276805
C         3.32487407759691    1.67995955531590    1.89230870922409
C         4.09612221307306    1.16412535276825   -0.22801773021431
C         3.40921405021917    2.19414192870533    0.54636717885806
C         3.68209748815903    0.87855387135846   -1.52626253277051
C         3.67161435141122   -1.54602030350058   -1.05940335764163
C         3.49056675926429   -0.46756374136281   -1.96073675010078
C         2.84407022089591   -2.65661916366628   -1.23791187712762
C         2.27160222533526   -2.73147372017970    1.18267312112401
C         2.29225242766884   -3.35286597814301   -0.11082883843687
C         1.03241979783756   -2.66098035627037    1.92584397897799
C         1.83323517506571   -0.53930980405423    2.96888391631838
C         0.78996525177476   -1.51673050828089    2.79003591289393
C         2.17975915316010    1.90128503047092    2.62501019141178
C         1.47429722644743    0.80338722133267    3.24060869645480
C         1.23035664066655    2.86086771888870    2.16617081162173
C         2.36954935075644    2.95706349559531    0.00445041494120
C         1.27471586708785    3.39708942368712    0.86517973574832
C         2.68740870375202    1.71046421251832   -2.12564022642418
C         2.09585490552884    2.78257111063488   -1.41898186988310
C         2.36102200379775   -0.45744070021628   -2.84845505405988
C         1.91249210416852    0.88146887475803   -2.99065367930635
C         1.85676623475009   -2.71337752653915   -2.29667241089436
C         1.44800350432354   -1.52442539562580   -2.97323550056857
C         1.17398383336495   -4.06993749073490   -0.57063458475255
C         0.90915683195259   -3.67428099261125   -1.93574196889073
C        -0.09527290407736   -3.40745836069063    1.41921711677190
C        -0.03093702039488   -4.03930887086176    0.12905439066385
C        -1.38478430307377   -3.09453875305069    1.84388321301904
C        -0.55474964901985   -1.13024131482450    3.11728328383030
C        -1.60461636701736   -2.01020501858183    2.76237474564571
C         0.11664972627448    1.19472396426385    3.35339533333633
C        -0.01364101944059    2.50794492489389    2.78486872121912
C        -0.92739213088473    0.25899599734068    3.30643893417058
C        -1.19407770801143    2.91289789400722    2.22238273471057
C         0.02348123970916    3.85364518473250    0.29235477464752
C        -1.19367112152833    3.65051689134941    1.00139948060897
C         0.88742107182553    3.23471508928771   -1.94626248054744
C        -0.09555601434444    3.89840076889169   -1.12165944822273
C         0.58044120515384    1.17113219287545   -3.31838208402224
C         0.19417581119979    2.49530380749630   -2.97673902729728
C         0.04463786574305   -1.25773603056442   -3.19267613538770
C        -0.39351772016471    0.11093553320146   -3.38345478768648
C        -0.46644086927025   -3.41805909966484   -2.06306199447249
C        -1.08939234886089   -3.83084721276347   -0.83412141419641
C        -0.91395722510567   -2.24588017000920   -2.74174415140017
C        -2.53655946547407   -3.19247122266634    0.96445228353328
C        -2.33525951910337   -3.34432248359503   -0.43732466937584
C        -2.90801778158250   -1.54403981831242    2.55141152577172
C        -3.46373250029967   -2.24501158123437    1.41407558463722
C        -2.21588350085896    0.75030719870798    2.85926327418732
C        -2.32220377026156    2.03083708121914    2.27153734846633
C        -3.18624012906328   -0.17023176806350    2.41365739905727
C        -2.42211829746372    3.29071613144157    0.34551069368614
C        -3.08501406187882    2.25915613731044    1.09564619971827
C        -1.34400342532085    3.71160156716435   -1.74051693329649
C        -1.15924569339913    2.81054628046183   -2.85818926510319
C        -2.48407103473908    3.27539877379478   -1.04024412487189
C        -1.76622874790553    0.46216940046377   -3.12115068687695
C        -2.13629058859397    1.80080245686960   -2.81495309990411
C        -3.02306538716742    2.11012575833328   -1.72148442930276
C        -2.22170739327147   -1.85263293583368   -2.40268911900102
C        -2.96740630872680   -2.42240305835708   -1.31668645855302
C        -2.63856772158561   -0.50201100264140   -2.58006126962093
C        -4.03935610485419   -1.27622070462747    0.55668435804001
C        -3.93017927619170    0.02629616159552    1.19908668310325
C        -3.77463336359277    1.19845330936503    0.44925893224126
C        -3.67193103698308    1.09593562344791   -1.00551477223591
C        -3.80925408632732   -1.38758389103812   -0.80980658477748
C        -3.60068559993943   -0.19183973527772   -1.58399475961719
