76
C76 Isomer 14006 Symmetry C1
C         4.41608510873443    1.88089169077115   -0.03757284161843
C         3.80368333065640    2.65506333118668   -1.01588603887922
C         2.99716901571270    3.63220338486615   -0.33583479842100
C         3.81870705798320    2.23448431821508    1.25923404448868
C         2.88730854081587    3.26940856806727    1.05906381569907
C         3.43663617208096    1.03998017437730    1.87560592135998
C         4.41491866482317    0.49574437135752   -0.16201927910592
C         3.98574261768654   -0.05725206683521    1.10205919281465
C         3.88437354152070   -0.09112045635470   -1.35733517861845
C         2.98459761174538    2.04349036476418   -2.04146371863314
C         2.96446076570968    0.65385669860239   -2.20061832203662
C         1.83275412860336    3.80481130083159   -1.08866455976494
C         1.76716332085725    2.78110857737467   -2.12153224542248
C         0.68040777733480    4.11427869355339   -0.40126862551054
C         1.61001844027391    3.16224103788434    1.67813275495893
C         0.55825631204729    3.83871320158159    1.01297306945034
C         2.16255427526972    0.86864003550230    2.46282389071954
C         1.23506916165653    1.97380609238965    2.41037666421725
C         1.70708699131146   -0.49988503723841    2.60995490978671
C         3.50512093357684   -1.34917254135126    1.18467251704141
C         2.35052356081773   -1.64685213182258    2.00321875976640
C         3.72035500691397   -1.44937182399478   -1.26851896755523
C         3.75494485234264   -2.12601458777139    0.01056187759257
C         2.80625034300708   -2.15499451398844   -2.12465228147033
C         1.73751744526081    0.00023453813203   -2.63341583578989
C         1.68173767251877   -1.44468081759318   -2.63173689101363
C         0.54630262164924    2.16972760027006   -2.44658444125979
C         0.52215997904059    0.75536685255630   -2.73795618793907
C        -0.55628068341375    3.83251342316844   -1.02339988343048
C        -0.66543488761065    2.84759842061597   -2.02633512613036
C        -0.80807243027854    3.58546121554590    1.26916617882541
C        -1.51096654035932    3.83670855953233    0.04411097128175
C        -0.17520340258343    1.71989528657991    2.64014626276385
C        -1.24416850341524    2.52059914579392    2.08700618435917
C         0.38889166775355   -0.65780916526558    3.02450029862908
C        -0.53887448284169    0.43757301806818    3.04759336443762
C        -0.33557513874647   -1.85957994283680    2.82444649451902
C         1.61463839500164   -2.85495658503781    1.75787470877061
C         0.20774983799167   -2.92736610353020    2.09515031665319
C         3.13530911892657   -3.34715196318173   -0.14477051032755
C         2.67236015930496   -3.43337548967452   -1.54149567237469
C         2.07897275494110   -3.74579250333999    0.72009255099041
C         1.44814958661675   -4.05675400569344   -1.52032079167857
C         1.13113221785656   -4.38421712247746   -0.11798888371030
C         0.40034306329642   -2.11187262665829   -2.61893685811215
C         0.32164511664728   -3.43024310226354   -2.08779289741972
C        -0.76515499099129    0.08498375310746   -2.79075424086864
C        -0.81349667410693   -1.33696806926632   -2.65463949737188
C        -1.94215874298249    2.23061213550845   -2.22299969560976
C        -1.99055061342085    0.85902106895346   -2.68115989176211
C        -2.74117123374605    3.33260093268381   -0.17245184757767
C        -3.03098700580797    2.74586353988026   -1.46132278316733
C        -2.57892416839804    1.98914984874042    1.88760177689564
C        -3.38685789081817    2.55839343271709    0.85950006851815
C        -1.85946242920255   -0.08187168245303    2.89184084869699
C        -1.72961197460187   -1.50677158154103    2.80313004988134
C        -2.89412394431810    0.62619558177514    2.25500030155446
C        -2.61391609016606   -2.21682941108607    2.02862166352122
C        -0.73435931701462   -3.64476512181572    1.25515760630883
C        -0.23574617707187   -4.21099945802123    0.04904414063978
C        -0.77424563451675   -3.76689290686603   -1.20895481608797
C        -2.06856163720117   -3.23843622331412    1.18015359832375
C        -2.03735073980528   -1.95797399547039   -2.18492056268490
C        -1.96393667030431   -3.08236504176799   -1.27285158594736
C        -2.73712095084257   -3.08724052400750   -0.08034580672689
C        -3.21520375851161    0.16325811166859   -2.51236138710586
C        -3.20069201697931   -1.21525434798920   -2.13418009152732
C        -4.19326181361221    1.99150367399526   -1.24310599320542
C        -4.39640744279443    1.83469739510112    0.20930255467512
C        -4.32285671161256    0.75197030557423   -1.82756610893814
C        -3.90444187919547   -0.14884544974908    1.53425656670242
C        -3.68407872059304   -1.53511790417063    1.36880373338433
C        -3.78233769346801   -2.15155491228679    0.07075725591491
C        -4.15211108345588   -1.39321181692602   -1.04058895335833
C        -4.64066065043900    0.47480344224867    0.47937738460857
C        -4.77173244305997   -0.17289208990184   -0.79700820058904
