80
C80 Isomer 31896 Symmetry C1
C        -3.86395843178624   -2.01900876662161   -0.63725731114877
C        -3.97552473511185   -1.42177508016136    0.63787592240649
C        -3.15578702784561   -2.17959950951147    1.53284462002826
C        -2.99234198590747   -3.15297991094952   -0.53581687075319
C        -2.46668847056598   -3.20146232796846    0.75916281502923
C        -2.12434107110818   -3.15801243399234   -1.65113720388094
C        -3.45027323300453   -1.26293807388495   -1.74759749159977
C        -2.42164757276568   -2.00161163697255   -2.43644701200264
C        -3.43898319615840    0.14617673693696   -1.70631291269613
C        -4.08526594914402   -0.01807192335244    0.71485642865489
C        -3.94383034961723    0.76570160714716   -0.50077520798547
C        -3.66389922436293    0.53404989097782    1.94243269868400
C        -2.54126069559050   -1.57431409379781    2.62831252336643
C        -2.92817799517917   -0.23168629133623    2.88180863583190
C        -1.24189646388531   -2.06008581188215    3.04627795229779
C        -1.10312394207634   -3.51193034839915    0.98388831312075
C        -0.53353279693590   -3.02771756167735    2.21762072296362
C        -0.80885150935808   -3.63883246094607   -1.48645218119691
C        -0.27288228371900   -3.83693807779478   -0.16108255585706
C         0.04553115774259   -3.25432594104476   -2.54773364084157
C        -1.39908561891027   -1.33443566196904   -3.13413435611406
C        -0.22488686908628   -2.07305273006526   -3.32037571649072
C        -2.47427975986497    0.82267520879961   -2.56547152529977
C        -1.36059717448473    0.10811564725750   -3.16636905380425
C        -2.35072663798984    2.20934386652823   -2.39259902209733
C        -3.69080905724856    2.14517085757375   -0.33069856485459
C        -3.03751202620683    2.85410449514139   -1.33445557532750
C        -3.17217000177046    1.88871618275248    2.02146357503879
C        -3.22100400260414    2.69855700725247    0.93023731426482
C        -2.00715400443535    0.66513550374231    3.52337223080150
C        -2.04654005118738    1.95073675845153    2.90254012299759
C        -0.48825135762210   -1.21143554191366    3.87104157589485
C        -0.83154528982259    0.18312544894103    4.01679553452502
C         0.93345974780920   -1.26884587473242    3.93900813463088
C         0.86378953532475   -3.09473623911799    2.34880684605294
C         1.60259040016616   -2.23271561144765    3.21178343537627
C         1.16139175981179   -3.76996733649526   -0.01161420180117
C         1.69776766126500   -3.39358748105370    1.22456392590709
C         1.44150610413482   -3.34838084771925   -2.39882909298965
C         2.00628298146449   -3.50276162417837   -1.12805081514714
C         1.02558383985632   -1.40044672162514   -3.53781236735345
C         2.06169441191701   -2.22633552108419   -3.05582191651191
C        -0.09891425369956    0.75929138487945   -3.35867265260511
C         1.13236264723960   -0.00608885606205   -3.43914951399632
C        -1.08678884499793    2.85976868767195   -2.53449997296103
C         0.02010134656669    2.15532025255272   -3.01518142086622
C        -2.12370097583831    3.78989040136609   -0.72005605430475
C        -2.11248181403875    3.59209767755693    0.68085093026375
C        -0.94437874761571    3.80743740110195   -1.44840250465428
C        -0.86840289201557    2.64969061750192    2.56776611795562
C        -0.88576714401701    3.48351454981363    1.38109364656126
C         0.34853877132992    0.98682780160063    3.90541124515168
C         1.44499325089687    0.07600176532635    3.98974706547712
C         0.37952968379721    2.14442791362200    3.09272085117845
C         2.62379402066245    0.39217380994069    3.35084973705105
C         2.84655172963337   -1.91340356772964    2.56667734790236
C         2.90053982056450   -2.61497005251486    1.33175451605105
C         3.36144832700739   -0.62880103551337    2.63717558405540
C         3.09294360892718   -2.55161521585738   -1.03645527387538
C         3.05786270260387   -1.71965704904984   -2.21172885693050
C         3.50256142956625   -2.02849367562045    0.18995121387614
C         2.38531906811783    0.50958624857139   -2.92800433199400
C         3.28113317575511   -0.33046054198289   -2.14682576736754
C         1.26946616911405    2.70094340119284   -2.67418964270294
C         2.45349293618425    1.89411252849042   -2.68625576197844
C         0.28127868589273    3.95861635092592   -0.76327834155871
C         0.34912931539415    3.74879941374371    0.66545934037369
C         1.38336324545755    3.64843694649245   -1.58837017841233
C         1.61655433354741    2.47675039004060    2.42781519891720
C         2.72255752335088    1.62265019266109    2.64198972984508
C         1.59874879992089    3.30230069268740    1.23405727930762
C         3.96517973746893   -0.02678431727248    1.49253831757299
C         3.99245854488356   -0.66387219234151    0.23614510410516
C         3.92340988790314    0.16315977001599   -0.95226920317900
C         3.69464440204977    1.38216191108775    1.60679326233978
C         3.33031009206595    2.39846202250097   -1.71498950670980
C         2.62704562005313    3.45396283338667   -0.99670080555393
C         2.73799170057143    3.23678382822687    0.38436844759093
C         3.95108395365922    1.56621613711126   -0.77927763895883
C         3.71927132790133    2.17814380406752    0.51029376091367
