80
C80 Isomer 5351 Symmetry C1
C         5.86057560564582   -0.65649774969564    0.59283573690281
C         5.07403367431185   -1.79986652962252    0.58612509984992
C         4.05841877383668   -1.69336945160851    1.61515436468613
C         5.29384112015659    0.24279455552057    1.58480615166838
C         4.11768063304642   -0.37136843042869    2.16588568999072
C         5.13085787142989    1.46673518279579    0.96019306934248
C         5.70837260282729   -0.03044572025317   -0.72147020901260
C         5.38053100010946    1.29640430101333   -0.50347577064561
C         4.61435418390248   -2.02329488170721   -0.77151417362961
C         4.82442889639199   -0.81824842786248   -1.54079538936272
C         3.45248130479475   -2.71231348219981   -0.91367167162832
C         2.82885897426918   -2.33469883350372    1.44261692183499
C         2.67709361875290   -3.09010068840339    0.24921761031877
C         1.64077394264114   -1.75251696086033    2.02078432334083
C         2.90506755861939    0.34843673890384    2.35505378141721
C         1.65445043353915   -0.38289605445841    2.42297690380753
C         3.94399958564808    2.20188774154075    1.11964042060990
C         2.85387611462867    1.72139212005882    1.90256322379802
C         4.30659823113132    1.89072733899909   -1.18671504242313
C         3.64732856706639    2.70836172590104   -0.19848017228609
C         3.70872740616592   -0.24546417670437   -2.22459976182741
C         3.46499943186635    1.17094821621952   -2.09698719274984
C         2.51473694662250   -2.36562482383247   -1.94127131771933
C         2.54671427120016   -1.08269736705995   -2.50562262496368
C         1.39253168081934   -3.37798019626344   -0.21336463950206
C         1.27901747853458   -2.99844449427078   -1.58801393945054
C         0.38685895814609   -2.36374757773688    1.73226015249269
C         0.27168922091810   -3.21596445265024    0.60327265666534
C        -0.82033499228101   -1.78668141035570    2.25010149542048
C         0.38593389042919    0.32193759698668    2.49993002999245
C        -0.85512218152455   -0.39225922547411    2.58197535201253
C         1.57186381276695    2.32193004436700    1.67012232616605
C         0.35503203782781    1.69912561144199    2.12184901988567
C         2.41446030140486    3.19221606839549   -0.45556711403488
C         1.45448751856587    3.22828974084466    0.60160712770597
C         2.14004037715647    1.69389741241799   -2.35628488484065
C         1.73087204146600    2.85211260368372   -1.67138387310094
C         1.26050980003455   -0.53820870980203   -2.89615283298423
C         1.05707392432034    0.87019479971441   -2.87221390215686
C         0.06400368746255   -2.60805276306518   -2.11235499993383
C         0.09193318504498   -1.40140912921526   -2.88990236493582
C        -0.98079193592965   -3.39314665166147   -0.05611191171800
C        -1.13453918122226   -3.04574964449766   -1.42925349412883
C        -2.00438509020787   -2.45823320454450    1.95186019708418
C        -2.08255880700087   -3.31596133559228    0.80531281663124
C        -3.29602200530006   -1.83240176847283    2.12417966551661
C        -2.13292741157817    0.28479884199655    2.58205250623494
C        -3.37766843564047   -0.45099816115454    2.45579929783420
C        -0.90477119797235    2.26183179682210    1.76189026615687
C        -2.12632053450845    1.65570387776311    2.18021757250235
C         0.21038446480139    3.41077108417101   -0.03663819240182
C         0.36085104947443    3.14957486383291   -1.43026254753047
C        -0.97162097328902    3.09870901705474    0.60264115548806
C        -0.29023126224235    1.39654357159988   -2.90968779425441
C        -0.68079051005060    2.54341071350625   -2.13501126610896
C        -1.16052748337649   -0.85865407367511   -3.15342810816358
C        -1.35476197594996    0.53232439958404   -3.19795667683525
C        -2.41275137402535   -2.56848328752522   -1.86729036350068
C        -2.41057548525966   -1.47039253628311   -2.74225694920991
C        -3.37573515095220   -3.19372653768791    0.28287284009650
C        -4.17005396383884   -2.39810772624757    1.18603691219910
C        -3.56214745005452   -2.69222954612500   -1.02093684120046
C        -5.03740289884519   -1.58821166692304    0.40494953549262
C        -4.61730511908435   -1.71262351308510   -0.98328531771176
C        -4.56789713769097    0.19326860831224    2.01673957372368
C        -5.37284931422011   -0.36502480045723    0.94211039098759
C        -3.32066802145340    2.26618955998496    1.71508442688723
C        -4.55675754422436    1.60483835535294    1.79517099372392
C        -2.12141713923831    3.11332205328210   -0.24339039565278
C        -1.99932115344490    2.71510267848639   -1.60894456231350
C        -3.32845539594216    2.96962949385696    0.43856349254089
C        -2.72578445879406    0.79525742690529   -2.85458288081479
C        -3.39557022943444   -0.45568821597295   -2.65205854882085
C        -4.53143168047182   -0.54883046902789   -1.78873155696677
C        -3.10733774751874    1.94326328037324   -2.13703903034404
C        -5.64658078410976    0.70508718472587    0.01147489118310
C        -5.34953880136002    1.93886230861103    0.63118023398521
C        -4.52432431768377    2.67743273458777   -0.25821240537692
C        -5.07109721428117    0.66707877877512   -1.29656535472220
C        -4.34896781777565    1.91522224757848   -1.46462215121305
