80
C80 Isomer 27028 Symmetry C1
C        -3.21488217398956   -3.62858768203130   -0.48560733445259
C        -2.38370049347316   -3.83779707829446   -1.56131604708841
C        -2.63371200073777   -2.78092525821898   -2.54575101945272
C        -3.98878686572696   -2.42075967609905   -0.73611566271902
C        -3.55816384609755   -1.86323811301259   -1.99208614761804
C        -3.95352961914467   -1.66836116888365    0.43431599180938
C        -2.65888328229929   -3.56559421128929    0.82567688672853
C        -3.23119454361501   -2.41352483693389    1.44764160224529
C        -1.28614083724703   -3.88087823974502    1.02852093673019
C        -0.97480434563982   -3.97445715899261   -1.38842871003903
C        -0.38623048763296   -4.03506778318557   -0.10651208490669
C        -1.39949395709408   -2.33013289185720   -2.99946969509949
C        -0.37354102140452   -3.15206309070629   -2.38070227746624
C        -1.15646612380351   -0.95266904086139   -3.20740504656035
C        -3.30864741352240   -0.48949498882571   -2.07264870187028
C        -2.16406578314385   -0.01266436840780   -2.82516819934189
C        -3.87105730885921   -0.25609748606348    0.38164216702841
C        -3.74765443953002    0.30446886768810   -0.94153458325568
C        -3.38060248933768    0.47451296410837    1.51447460813104
C        -2.59239062247344   -1.72408180371704    2.47662410190806
C        -2.72515173759509   -0.28060729578602    2.57203312196621
C        -0.75883464657588   -3.35333669276012    2.21741811759830
C        -1.43591199000332   -2.36579276226830    2.97937303742127
C         0.65494436601121   -3.18211343142392    2.39415194121258
C         1.00075104983565   -3.65744953946035   -0.00490473899948
C         1.54304184284449   -3.39508997013599    1.31714335853606
C         0.92141297756771   -2.69136909572539   -2.26634727360610
C         1.69794373458503   -3.10497651220148   -1.12677721793915
C         0.21000721292936   -0.55401164284006   -3.34552589109971
C         1.24629049805003   -1.51087029406327   -3.03144967606492
C         0.51735795436618    0.84309190604337   -3.32219106935468
C        -1.81709592394145    1.37507603561186   -2.75737064370157
C        -0.46118850037098    1.81216544020594   -2.92546689057219
C        -3.53843079569286    1.66364581921679   -1.02130577843466
C        -2.70854209460733    2.23006206200743   -2.07020142185835
C        -3.14969357844407    1.88707206801266    1.39209080708708
C        -3.44788254130921    2.48359409765583    0.13734593984160
C        -2.12936036810629    2.54430301715618    2.18752049921729
C        -1.76829954277411    0.38861388876014    3.33851263230124
C        -1.39657600931363    1.73533247114356    3.06633490467618
C        -0.42764589532302   -1.62255003902063    3.66642799305801
C         0.86573729787072   -2.13059249442112    3.32516523591970
C        -0.58586827634123   -0.27537921487061    3.83722509252052
C         1.98871547163499   -1.27986724340204    3.24141495909292
C         2.79593800986916   -2.79390744581565    1.46223057527307
C         3.03022394358598   -1.79955861415933    2.45729714474962
C         3.01899371456703   -2.52970270280234   -0.98459900507485
C         3.60877693724799   -2.46431828168096    0.30662579971899
C         2.57561569303238   -1.08836611917297   -2.95876136805935
C         3.47361935203632   -1.59001813199700   -1.93239971916395
C         1.87116948115695    1.22182665518012   -3.22797886888178
C         2.88212148122969    0.25633500988152   -3.20705632155279
C         2.26923483286867    2.24995243139720   -2.29689576091648
C        -0.01183583816179    3.01602364541734   -2.26517949800404
C         1.32462900401970    3.03652857659176   -1.68921117659859
C        -2.31755070803147    3.49815319750728   -1.65219348512289
C        -2.81204134409510    3.68366214176270   -0.28425030620650
C        -0.95410772438695    3.86883507390172   -1.67142737552624
C        -1.40381643968999    3.65802412319677    1.68258544730958
C        -1.81094698799039    4.27471292870370    0.46158862874973
C        -0.65606880321371    4.46428278427005   -0.39194152963473
C         1.52673994722707    3.36538918773567   -0.28333604980260
C         0.02214516955828    3.62427554630623    1.65336811140093
C         0.45323401056462    4.03549378896800    0.33845915519333
C         0.02260523919942    1.84549398914073    3.21174613343553
C         0.53561955318710    0.60447774231050    3.67089338794593
C         1.80980659858301    0.15779562596557    3.30068219887699
C         0.77095685075042    2.66474188653274    2.34618061264467
C         2.43284561991838    2.60041398670628    0.50792146500124
C         2.60383645855839    1.02905329228213    2.44098664871580
C         2.03536053192002    2.19768389212466    1.84662650165099
C         4.00515584203675   -0.91147767837875    1.94015331228427
C         4.45421639515494   -1.40390636200077    0.66080078032222
C         3.73800274433709    0.45521308786728    1.81295229645298
C         4.32490132575306   -0.48728671204205   -1.54173116319073
C         3.90028591466700    0.65487481738071   -2.25278230845045
C         3.44906478146624    1.80837532101895   -1.59717616883940
C         3.49039300003780    1.88980347982055   -0.17176487643704
C         4.65360511645561   -0.30023088102598   -0.19811422020383
C         4.18649744605586    0.87581318500009    0.49793317841173
