78
C78 Isomer 19495 Symmetry C1
C         3.58875357778816   -2.95859575877866    0.24311615348515
C         2.69645910199516   -3.49056556856243    1.13624304296511
C         2.60098921964547   -2.56270802734840    2.28198203750207
C         4.15211576175102   -1.74215027531440    0.83869341903734
C         3.42628430367738   -1.44370358350391    2.03844990280057
C         4.26798342288615   -0.80517036271497   -0.16819506730016
C         3.17623658804048   -2.65332990338691   -1.08998642131753
C         3.71391369717575   -1.36899454020876   -1.39291476095548
C         1.88396742366100   -2.99698629817765   -1.54261598000700
C         1.39265158867011   -3.83528042726704    0.72018353405259
C         0.99316593786809   -3.68321799060551   -0.63114026085319
C         1.25404306434396   -2.41503379366718    2.57920599387777
C         0.51258344155186   -3.33488536271098    1.73559449323330
C         0.70301346616526   -1.14436064094794    2.89470103469457
C         2.90410152821464   -0.14066185902567    2.24235479672664
C         1.57206413219060   -0.00356185224481    2.79144138149243
C         4.10100132793256    0.57324356619389    0.14774166976699
C         3.45194724301991    0.90404042677356    1.40150103168935
C         3.97497145733097    1.41318777596596   -0.95996045123917
C         3.13814135561313   -0.51396789529342   -2.33758164254885
C         3.51482309960065    0.85258601260943   -2.22352436376261
C         1.30101878048941   -2.13824616547875   -2.55307334488224
C         1.87685111622658   -0.87659318590550   -2.92941077508223
C        -0.05078658641800   -2.34298630783179   -2.85458454844278
C        -0.42547609084786   -3.67827786556471   -0.84970741214960
C        -0.88751312449940   -3.21030418767493   -2.09320720073952
C        -0.83160423851838   -3.16554854314082    1.52617390610432
C        -1.34927577869804   -3.62287630895652    0.25243202487311
C        -0.72403803997953   -1.02583713228988    2.84241036482149
C        -1.49002932410354   -2.13441201827209    2.30359170751502
C        -1.34455753676385    0.26108839576584    2.97016250945726
C         0.94382814486283    1.28452721852146    2.81299965774589
C        -0.48456915595869    1.42051894057461    2.99761607285575
C         2.84331244511746    2.15954985530709    1.48379403775117
C         1.66933740858889    2.35706801941409    2.25698500696326
C         3.39733895488179    2.71847163356973   -0.83663729564936
C         2.82512906552092    3.08899639060051    0.37436481275769
C         2.73138932458890    1.82120661177743   -2.84928200116592
C         2.65574946257414    2.99454327067382   -2.01120909796796
C         1.00528385238083    0.17805021769228   -3.38979910166157
C         1.43250096066381    1.51362967162728   -3.30486984754632
C        -0.88393297687124   -1.31257559018729   -3.40655523833668
C        -0.41559717310202    0.00319894812040   -3.47391871632710
C        -2.25181147906396   -2.81084491885996   -2.29791678220685
C        -2.23957298286015   -1.62251580233911   -3.10970176086771
C        -2.70606825387088   -3.37446180210160   -0.00088496447734
C        -3.18410541079702   -2.94520281875086   -1.29314408479840
C        -2.84634089777637   -1.96934452643925    2.04239568869340
C        -3.46110266421458   -2.68605353274397    0.96978066657487
C        -2.74262258650804    0.40782497141144    2.60854399300724
C        -3.46132995906012   -0.69009155435428    2.11746603683599
C        -3.23114858461593    1.66431457354707    2.15780574689756
C        -1.06345150710744    2.67790742697829    2.67826516323968
C        -2.40259785432938    2.77448286894105    2.27903792177307
C         0.98147931350766    3.46669306170987    1.66054278593204
C         1.58428751673516    3.78706916134424    0.39212253695312
C        -0.34988610553885    3.61828560085892    1.83991316532225
C         1.32116525825753    3.41864998836275   -1.96380926816207
C         0.54939878908669    2.55184359489408   -2.82142508967762
C         0.75153867184862    3.87818361148261   -0.75206607510420
C        -1.32200451448268    1.07822353696628   -3.13238269878977
C        -0.80218903694788    2.32035917245932   -2.59905785129148
C        -3.12785878258670   -0.59614411631705   -2.84380604490657
C        -2.64351963351731    0.75051402900318   -2.82658722446820
C        -4.18598819202556   -1.90822513573003   -1.07843912202009
C        -4.39171009673120   -1.81459427155810    0.32986084812271
C        -4.37536158630292   -0.57682964629192    1.00285675025891
C        -4.11973785678473   -0.73281656626840   -1.81635529276820
C        -3.91369083997109    1.76933687346411    0.88590533527679
C        -3.36678493521341    1.47071233265742   -1.82147721327414
C        -4.40844087369672    0.63182680842367    0.24799488635588
C        -4.23457596292183    0.55251158982252   -1.16316623878332
C        -2.46689045156753    3.53398591931213    1.03842390920409
C        -1.19017131479801    3.96835691513352    0.70385081533902
C        -0.68555942645609    3.80302132875274   -0.61227830313781
C        -1.48693771508428    3.05165664164141   -1.54937124864852
C        -3.28506454900634    2.83081172985450    0.14180608955003
C        -2.80291572485592    2.59747744460698   -1.17226814018789
