76
C76 Isomer 15909 Symmetry C1
C        -3.42005456661703    2.94430148828730   -0.99529698193083
C        -3.20958823470785    2.32268001994691   -2.21179517085061
C        -3.76621188886789    0.96776271636754   -2.12925034923771
C        -4.10117829639925    1.98894312761720   -0.12525909127063
C        -4.25259739302576    0.75275946075978   -0.81738213830991
C        -3.46908586029966    2.02920249096040    1.11805470147706
C        -2.32364476318778    3.49435418290947   -0.28918553778159
C        -2.40398713511875    3.00998308532818    1.06396354083689
C        -1.05444212616064    3.58146178326242   -0.89267464083545
C        -1.90554742145557    2.23833696449601   -2.75160688554141
C        -0.83191083485126    2.92102347841376   -2.15874752645898
C        -2.82941897309944    0.09828250537588   -2.69410114448533
C        -1.70909523376652    0.87188087055018   -3.16247705166715
C        -2.65773458929582   -1.20731898908057   -2.16609752542538
C        -3.98963227684318   -0.47820339923407   -0.16033432602948
C        -3.38617740757880   -1.52920477007800   -0.96088304790130
C        -3.34349411155250    0.83084350028625    1.87098267471350
C        -3.73706639235329   -0.42583010220944    1.26254602632686
C        -2.30835048399956    0.83709215503557    2.82202027193453
C        -1.25205822228502    2.86017499617077    1.84141593511082
C        -1.27056511821687    1.81356032769840    2.79279376739399
C         0.06735485844910    3.74405450132281   -0.00648382569677
C         0.01270998258062    3.33803158003007    1.35896721245658
C         1.32634794742712    3.80202672598315   -0.64389643992040
C         0.48909989796073    2.42247411326729   -2.47971548164773
C         1.55886669490783    3.05826700824852   -1.86108474588613
C        -0.45118952794705    0.29343425036830   -3.25872473328806
C         0.71028559441596    1.11497633916405   -3.02504869430645
C        -1.46455416465858   -1.89376581598373   -2.54224440918867
C        -0.40166166995771   -1.14500840936473   -3.17805275064354
C        -1.10798299391381   -3.10202945616169   -1.83249979800342
C        -2.97805933991023   -2.69478817703939   -0.28533184123993
C        -1.83139396474364   -3.44984335030974   -0.69451264166016
C        -3.25016114373855   -1.60289895253509    1.87941731592259
C        -3.04524734296778   -2.75180902180349    1.11703661391559
C        -1.70852097103579   -0.38156334811160    3.29221311668351
C        -2.19232133874390   -1.58869440426150    2.87559935881618
C        -0.05153892421643    1.18986966253857    3.18778544893369
C        -0.30175470947316   -0.18780027246422    3.45078456107943
C         1.22999389961199    2.89869810757504    2.01796412627603
C         1.20333266784702    1.67996891186145    2.79926495925525
C         2.49249585848231    3.78875789022302    0.11348504433426
C         2.46081425499104    3.27241986181948    1.44353964592336
C         2.87163962575435    2.48028693184948   -1.77572464901253
C         3.50213271363207    3.06509753223906   -0.63952386791439
C         1.98833328896587    0.49053319255641   -2.83341474331153
C         3.06432730390877    1.12257977330937   -2.09337344812184
C         0.88268974593804   -1.69507192489810   -3.24888127229827
C         2.05069675629943   -0.89816638947988   -3.01587570128679
C         0.22414633065190   -3.59731152924419   -1.87507537321668
C         1.14339333216544   -2.99491499888065   -2.73518663585896
C         0.93548574648232   -3.99352021514763   -0.67433674934568
C        -1.12483118527646   -3.88920847081362    0.49891226588630
C        -1.84958586230556   -3.43737078776028    1.59421902860410
C        -1.25911544684227   -2.65806052458036    2.61226769755695
C         0.29127411754517   -3.90263861429000    0.57065728383741
C         0.63269661424803   -1.17986370030597    3.10712824439657
C         0.14320994324367   -2.45322756284706    2.62380145611606
C         0.92997710176177   -3.21138943437301    1.67561846654926
C         2.26784466126714    0.71209230821471    2.75617014073511
C         1.95439125792614   -0.70571025311412    2.79383202998476
C         3.57663865277571    2.39745765738073    1.56137471481117
C         4.20118438811820    2.26367854161852    0.24365966213785
C         3.46269029432806    1.11868003159699    2.11186280975915
C         3.91866348021439    0.31554170888459   -1.23104068821861
C         4.40603105014559    0.89708397552247   -0.03444129326320
C         4.15392410353625    0.21136221966456    1.21792438314737
C         2.99014815510270   -1.70300186657207   -2.27182635467762
C         2.43969802781355   -2.98582468992805   -2.12044344605818
C         2.29751479047922   -3.58515389648055   -0.83609630997212
C         3.75631145578553   -1.11913953904171   -1.22728213897872
C         2.25486239269463   -2.78268592301547    1.47593171451557
C         2.76910593441123   -1.59567318662773    2.07759558364221
C         3.81155112242195   -1.10369215224123    1.21643537493595
C         2.94358408640962   -2.97382381799311    0.22556220441616
C         3.79131178471290   -1.83880803243265   -0.01157793167998
