62
C62 Isomer 1731 Symmetry C1
C         4.39251232438500   -0.30005850765334   -0.79362484369363
C         3.82347493727222    0.61414990110049   -1.68351324006441
C         3.57046392328227    1.82244595803501   -0.93150383272698
C         4.34764416476907    0.28595933181102    0.57357094815847
C         3.75621770167173    1.55587575686282    0.47643333639756
C         3.82626947831994   -0.69774776430065    1.45479034092250
C         3.87635169559275   -1.58214091392142   -0.72970885567334
C         3.62496723631993   -1.89000612516298    0.68462270018334
C         2.72342262373886   -1.94716083858687   -1.47538198443804
C         2.64765096458235    0.29387065723211   -2.42646847027427
C         2.06471532012751   -0.99931142609676   -2.32828213640767
C         2.37817493779507    2.36927396796440   -1.40047934317138
C         1.78245727692905    1.45146808371317   -2.35149903443796
C         1.52346534885100    2.99972730785874   -0.49699777111785
C         2.71548451148776    1.94426572500741    1.39851938426360
C         1.68869725852809    2.79475292072266    0.91645496660574
C         2.82077601910123   -0.33048536942457    2.37123780286312
C         2.30321976056640    1.00437223824138    2.37523260679502
C         1.71947263431961   -1.20935545957323    2.62489865048667
C         2.43977020592218   -2.60472466954357    0.76453702276182
C         1.91535482095436   -2.73148765409949   -0.59031729212104
C         1.51670162009696   -2.35147321000936    1.82669729176552
C         0.56127829173629   -2.92134755913992   -0.82196017081907
C         0.64082569529701   -1.12083024622362   -2.51959007171689
C        -0.05245589494733   -2.25291835684218   -1.94978517188448
C         0.40256304982053    1.36021046794242   -2.48989434867360
C        -0.13795821141851    0.05998730800907   -2.80777279824090
C         0.14467407967717    3.09596310328928   -0.80358827022382
C        -0.45908863088055    2.32274062632855   -1.80998209459295
C         0.38261627484807    2.83842314426388    1.49998428823232
C        -0.52493991018280    3.23946444630522    0.46826454136017
C         0.92487887220404    0.94161441477116    2.82206026422265
C         0.57180638333665   -0.41215823707188    3.00113810743052
C        -0.06191106309091    1.87688049368977    2.43565790307402
C        -0.76503945245521   -0.85229851922192    2.85293048143677
C         0.18416436937704   -2.74811729432803    1.60323640179218
C        -0.25171879071679   -3.18206746857691    0.32074434354556
C        -0.92804800207652   -2.12542874970078    2.26238642874858
C        -1.67263608840741   -3.05531191736143    0.27038243116023
C        -2.10131055061860   -2.44102839378610    1.51242328278749
C        -1.45455519170864   -2.30727868574538   -2.02516250561827
C        -2.29583938537957   -2.73529093694058   -0.91446334856968
C        -1.53847975633571   -0.03442062795340   -2.86796520414328
C        -2.15686749010024   -1.26987146410066   -2.65464519811560
C        -1.89136827490320    2.11348337597353   -1.72659172223072
C        -2.44072497886576    0.99455405912574   -2.36499627300588
C        -1.85486304926296    3.00743598768187    0.58723377107795
C        -2.61589401965393    2.62508948015138   -0.58919381522996
C        -1.46554938401427    1.50436548693630    2.49614260743685
C        -1.83303018006939    0.12203592527924    2.73788377464422
C        -2.36525831658834    2.30045346087850    1.73700381646997
C        -3.19080225046749   -1.60885919247739    1.54841073263491
C        -3.08989329121784   -0.35258984807022    2.26311530777856
C        -3.50224520794630   -1.92863669455441   -0.89049442831634
C        -3.43197849171955   -1.05065709781699   -1.98853978005486
C        -3.63747070230843    0.34273647087144   -1.86901073127942
C        -3.98633765766713   -1.41721494019167    0.34037716248359
C        -3.77719454928348    2.01206880399653   -0.12643263962077
C        -3.62305056971275    1.81332767678625    1.32687887022980
C        -3.99857793060004    0.51795526539393    1.61207345105611
C        -4.27513998074846    0.81088003372192   -0.69922119137982
C        -4.48484452756200   -0.10955371146946    0.37374354903709
