76
C76 Isomer 13542 Symmetry C1
C         4.58384566216264   -1.65449913263634   -0.07691733143134
C         4.93697237654684   -0.35773007800906    0.21831849279241
C         4.79028239209139    0.44154730575246   -0.99465014459010
C         4.12527884375677   -1.67371217902974   -1.47502673129533
C         4.11835383214838   -0.34843300051615   -1.97534808463799
C         2.99681447950309   -2.47437864682562   -1.56270769475182
C         3.63805184171325   -2.36473157924404    0.70641582566142
C         2.86874965358659   -3.10160535791802   -0.25747312273326
C         2.95786003728756   -1.75033174523715    1.78819308479498
C         4.28852465962881    0.32407133459672    1.28484242425253
C         3.33396409473634   -0.38182926622858    2.08342736923547
C         4.29280745688789    1.68638424511308   -0.59851505171426
C         4.01146071332070    1.66166547877350    0.82904660573612
C         3.37699947880012    2.29361400197080   -1.44332372196937
C         2.92998910099599    0.13337411548794   -2.61068496500422
C         2.73786292187088    1.52792954657387   -2.46676805065453
C         1.81058543641828   -2.05282261123427   -2.24809055694402
C         1.75564433164800   -0.71561718704207   -2.75972567749001
C         0.59607274601860   -2.76102277850950   -1.94850381013884
C         1.67106379782480   -3.60045514368583    0.10031253748875
C         0.61850187069288   -3.67073826092976   -0.86981232336003
C         1.60619538361402   -2.20896459925833    2.10463345071265
C         1.08731412335000   -3.28001956614020    1.37091096544897
C         0.60843847145981   -1.34282832454368    2.71059003114675
C         2.36101073813498    0.42842385832070    2.68554245709456
C         1.04899975392720   -0.06217873742165    3.04635220869280
C         2.95635339203374    2.42107786642777    1.34438690820532
C         2.25004799466917    1.81591279379683    2.41867031898346
C         2.42506771397745    3.22672952536681   -0.91744450474315
C         2.22112950482233    3.33814393000069    0.47559951968880
C         1.46146869993540    2.10698789287201   -2.67590061945579
C         1.31453128368532    3.23933478623269   -1.80816666051516
C         0.44421429156489   -0.12495631944021   -2.99033118962487
C         0.35739044315808    1.31796579327341   -3.02873233418147
C        -0.69352354319628   -2.23092198025923   -2.34940694751678
C        -0.77346191332115   -0.86826066655224   -2.82559431467384
C        -1.84950789500108   -2.85757869957368   -1.85552528883341
C        -0.54655581334780   -3.93529323207239   -0.11665059795003
C        -0.31004111873401   -3.52193769592314    1.24824497673684
C        -1.76726930796806   -3.73050050911707   -0.71132192486240
C        -0.82257307556660   -1.53711134660614    2.57217295374665
C        -1.27587125233993   -2.74215891665171    1.91269908222552
C        -1.73560487625444   -0.42714193402971    2.67068889676349
C         0.15639066975769    1.02862928889235    3.11323723514074
C         0.91235828362953    2.20207118515357    2.73155688189727
C        -1.21307701959662    0.89827596023380    2.87211805099192
C         0.93422160209647    3.76877225759115    0.87500019089560
C         0.30073829613311    3.21980569241310    2.05098356385599
C         0.04542778760586    3.68564191816639   -1.40904763623421
C        -0.11345408387920    4.02466354703891   -0.04142223226487
C        -0.88975249492370    1.94940960296632   -2.86908921910724
C        -1.05496099752615    3.13031055521006   -2.08953100977365
C        -2.06969850071029   -0.19438551963471   -2.76192092567791
C        -2.09450089960986    1.20234343883669   -2.81916763303019
C        -3.11679663473713   -2.17031618406972   -1.74582558215711
C        -3.24608497921361   -0.82659547306852   -2.16990746258519
C        -2.84060638995684   -3.44057515588778    0.15195127259946
C        -2.59667686013925   -2.82451768193279    1.39845252194313
C        -3.76224899990184   -2.61043495399361   -0.57130879267485
C        -3.09775301698696   -0.54170243145549    2.16180403446974
C        -3.51963532239617   -1.72713302054467    1.53924976304498
C        -4.32316698059870   -1.68432011382907    0.33377381815170
C        -3.79609572609610    0.64506526506326    1.76761557604583
C        -1.89083726222137    2.08055314538229    2.34777599152535
C        -1.11305259143259    3.17214656748295    1.85981021096288
C        -1.38006492839630    3.75400124135931    0.59549169211463
C        -3.14548105431263    1.93674051326099    1.77661028645767
C        -2.36804371322166    3.10254395294985   -1.51806301425245
C        -3.05876685771845    2.00074899225608   -2.10436222759371
C        -2.53356945023195    3.39900943617837   -0.13756870968547
C        -3.51143016233505    2.65694631471132    0.57865873689021
C        -4.22371977624281   -0.05231962071909   -1.49663829016990
C        -4.71973405887228   -0.47359194531354   -0.20343051547644
C        -4.66195358487950    0.64109070867711    0.66511161558845
C        -4.10152204129607    1.38635919213632   -1.43102240806083
C        -4.40289097803245    1.82736034456505   -0.12132224416699
