72
C72 Isomer 2197 Symmetry C1
C         5.03847910939758   -1.55047687131301    0.36336318397270
C         5.02760455318121   -0.22657817473303    0.95048423086315
C         5.09087099324664    0.69357593079780   -0.09153893227190
C         4.79097869648819   -1.41051313849600   -1.05528112786508
C         4.89756963271909   -0.05346602455222   -1.36634450362208
C         3.55724461987028   -2.06522740126389   -1.39228935031863
C         3.93798698656277   -2.23986355408520    0.89870143529290
C         3.13117277939937   -2.72103234421390   -0.18346375004891
C         3.90505407577076   -0.13064033840459    1.85349055868574
C         3.25652535657129   -1.41828260873544    1.85672535452649
C         3.08517269635752    1.01050977676524    1.88670288432830
C         4.25099637828159    1.81613208288784   -0.10828085948155
C         3.33225814276174    2.08427679519586    0.94523638987501
C         3.90058545990348    0.60702368517995   -2.09961460207507
C         3.72632595858277    1.88898448214717   -1.45486317802957
C         2.55841063466310   -1.43325477999022   -2.20070237176656
C         2.72607829713573   -0.05763294819602   -2.58963619471178
C         1.22929238611745   -1.96094729668004   -2.14188707786424
C         1.79828655731137   -2.96039651449423    0.04638503380549
C         0.95090938935001   -2.91413479143397   -1.11040564491128
C         1.86888453912732   -1.56897766215910    2.04423793083008
C         1.19642290859697   -2.59324920265366    1.30139756455180
C         1.73334408316107    0.83208027628301    2.39807494230206
C         1.09155880367419   -0.45142413793827    2.48576454325875
C         0.89929347310561    1.94935024746941    2.36657166472924
C         2.27608409082076    3.02128495958404    0.65502965184782
C         1.16818778711304    3.06774616690261    1.52132811236070
C         2.61839050624888    2.62148244089827   -1.72047735357098
C         2.00832859210126    3.40057437312709   -0.68406892674795
C         1.54690727231292    0.72065735373171   -2.86528894337996
C         1.58903619692326    2.10983490867352   -2.57805764863283
C         0.09228839114444   -1.27397682249142   -2.70211196271636
C         0.23667720876649    0.12341190016257   -2.99007269714805
C        -1.22468933125310   -1.85480943798005   -2.56392951688992
C        -0.32290894598457   -3.38149695644489   -0.88611659733113
C        -1.41560763036234   -3.02703696497525   -1.76254209419151
C        -0.18957627250515   -2.78402940704390    1.46387565077103
C        -0.81709517088456   -3.55088749128357    0.43717101938575
C        -0.34773580006487   -0.57365649685956    2.55362334771026
C        -0.96949569446388   -1.82061744288211    2.19865550400613
C        -0.51580684249715    1.85235333148608    2.55304745126104
C        -1.16542130643135    0.61225403791794    2.61295738143803
C        -0.08915880765487    3.63697719230077    1.14513271198747
C        -1.11127069697308    2.98694791177640    1.92176940243645
C         0.68956542233772    3.67138236845348   -1.11996979088729
C         0.43206800717782    2.85392657879315   -2.27548276204745
C        -0.35408922899164    3.94281548478532   -0.21236440323081
C        -0.93982961749807    0.96609266659107   -2.99467485790235
C        -0.85518385662750    2.35374633899251   -2.56986242490751
C        -2.36470872208655   -1.04358705945138   -2.69509557391866
C        -2.20760467140072    0.36885969028881   -2.89093938889620
C        -3.56614790421826   -1.25957137914253   -1.93068023883107
C        -2.60388847629869   -3.29649589953858   -1.08888173562939
C        -2.22420728414180   -3.58503425239379    0.31022678460293
C        -3.67186754103287   -2.35769182729333   -1.07503346739190
C        -2.38661081746195   -1.85721078238776    2.01956884366667
C        -2.99617522903339   -2.80627582147146    1.13298778416752
C        -3.98785689763055   -2.10918408749975    0.30376649938611
C        -2.55690563975893    0.58505190154125    2.18765783791381
C        -3.12780365075832   -0.66135837398298    1.87699055483671
C        -4.08629871736821   -0.81277632728269    0.77900247090086
C        -2.41968119909294    2.93473156799979    1.45829072648034
C        -3.15578849821484    1.71417423801355    1.59030372501543
C        -1.67494354040318    3.76573922776727   -0.70848790188680
C        -1.92420654063423    2.99196177068733   -1.92788511502019
C        -2.71218713896642    3.48663787414801    0.17965168141699
C        -3.31070456994893    1.02101455197394   -2.25910039766456
C        -4.03031046940347    0.03254604676903   -1.49775257654162
C        -4.28666646945500    0.27448186244071   -0.12430027619280
C        -3.98977536500956    1.55696329610299    0.40061707167583
C        -3.17271349492467    2.31366948910282   -1.76861915162375
C        -3.66391794684808    2.60154181200946   -0.46768653414190
