66
C66 Isomer 2970 Symmetry C1
C         4.86563430523576   -0.05659001293495    0.74765489989923
C         4.43632712592394    1.26276613267964    0.87700696436332
C         3.43512396457985    1.28701644634043    1.94153369147415
C         4.01181955025026   -0.88291029252461    1.62149862604779
C         3.10546249502942   -0.05499456676319    2.31755037458438
C         3.50221037924422   -1.95641120875880    0.86044174570202
C         4.87724476147636   -0.66445413330178   -0.52268320734450
C         4.07382445795950   -1.90340426553659   -0.44516843014803
C         4.45447299315906    0.05732461692147   -1.64111668920701
C         3.89101415852910    1.98205779190800   -0.23546100149802
C         3.88610130736418    1.36224309013001   -1.50209591603896
C         2.40873781657645    2.14209935598787    1.57799707817407
C         2.67273976751615    2.60593807602214    0.21668213732723
C         1.08976894421979    1.88285490938429    2.00731627340448
C         1.74335387910986   -0.43083815933783    2.48092221090735
C         0.74925773970083    0.60038594143759    2.54609846315679
C         2.15722867928692   -2.36198643763924    1.03064073553232
C         1.30136159564444   -1.70178600951592    1.97876620251696
C         1.51941089895351   -2.89140418271319   -0.14485352506928
C         3.22185936261438   -1.94221999435119   -1.56847324911455
C         3.47696880327864   -0.77132651310503   -2.34435877085774
C         1.89884764272424   -2.41598289182374   -1.44946018269891
C         2.64964187184997    1.35528277092260   -2.24353022576214
C         2.39016134323036    0.00907628549841   -2.72668337377578
C         1.57088836391993    2.79466951187443   -0.60755656098453
C         1.54862813552817    2.11255488147262   -1.87897178255122
C         0.08395960151881    2.69196947466206    1.38338055470478
C         0.31382429560250    3.12577749792804    0.02896120913682
C        -1.21695091476647    2.52912217821385    1.83841356439220
C        -0.64161374519991    0.25552497567662    2.66501985147391
C        -1.55591504539282    1.32400865279348    2.56076687325796
C        -0.10299216298476   -2.03032612393630    2.02581313266163
C        -1.10684171587044   -1.09151819907732    2.45434552788241
C         0.23100913090795   -3.33753794120874   -0.00091398944112
C        -0.51296256255750   -3.11922371358195    1.21632439007934
C        -0.69506410439016   -3.32119254279962   -1.08956526441169
C         0.84376254938205   -1.84593747731242   -2.24304144167093
C         1.06973858442900   -0.52685452300060   -2.76735774263473
C        -0.50367833926326   -2.31150083485892   -2.07273110985618
C         0.26779022489019    1.74763714174486   -2.43399463375295
C        -0.01730698906077    0.39105748778872   -2.83027832429085
C        -0.79149206994455    3.28914125778811   -0.79674645846862
C        -0.79040073500359    2.58487110083317   -2.07143782189164
C        -2.35638578297132    2.93384207343724    1.05412460600023
C        -2.13882628850038    3.27247327933484   -0.28863956642625
C        -2.91582382953131    1.07462124150471    2.30645462468425
C        -3.42118340892171    2.05422590408101    1.37213806286301
C        -2.51087502796252   -1.32679384204605    2.12774340900273
C        -3.38079673075081   -0.21016384205584    1.97620184316843
C        -1.85754987119230   -3.36005318577310    0.92273638816041
C        -1.96406549889400   -3.55533739454970   -0.51505856460008
C        -2.87193399425977   -2.46259438153545    1.33971308787846
C        -3.06256358998549   -2.83535211185806   -0.94788370606541
C        -3.74605903756640   -2.29537623470908    0.22300634777096
C        -1.62813675260418   -1.48257014786778   -2.43969761006234
C        -1.37465881368454   -0.10648810409072   -2.79233758136629
C        -2.91948393328738   -1.79897434591556   -1.90446387916638
C        -2.10484309356026    2.17301740214454   -2.31526495727186
C        -2.97350096221264    2.65346317037004   -1.26480699929590
C        -2.41823054160593    0.83531579770140   -2.62541192352841
C        -4.15749009419719    1.34921526582127    0.39319616499613
C        -4.24717843077065   -0.03501656086400    0.82272005359635
C        -4.27554749237834   -1.04444162321927   -0.12716958704674
C        -3.83962269937742   -0.75809670691767   -1.49652283796349
C        -3.89976578369394    1.63946579204355   -0.96182817558851
C        -3.62143468729314    0.53363900103719   -1.87860400494904
