76
C76 Isomer 5062 Symmetry C1
C         5.33403025853467    0.01653535358099    0.00124618554354
C         4.83558192158617   -1.00106028531333   -0.84549493860612
C         4.04850292298370   -1.89346565467032   -0.05327238243833
C         4.82601459629936   -0.19447957095213    1.31699999974350
C         4.02650280637761   -1.37536388219624    1.30235006839023
C         4.22379918585699    1.02991330829260    1.73817534729099
C         4.81733709841736    1.27337458624482   -0.47308795021996
C         4.16876128587736    1.94118801688848    0.60005784616448
C         4.22037298198368   -0.36293969406018   -1.97785336749931
C         4.14509289633510    1.06355377870060   -1.71467915060782
C         3.12820893491671   -0.97767689885804   -2.53771537710623
C         2.88744789858358   -2.47586464415092   -0.59125331968521
C         2.54847420346442   -2.14318854654860   -1.92970796417358
C         1.78653140743071   -2.82010135664106    0.27540941133064
C         2.82312995145405   -1.43710022395729    2.04530181448133
C         1.73617175099586   -2.25989181771712    1.59440193638275
C         3.11860652142961    0.95822490882563    2.55647973028606
C         2.47180011877131   -0.29462830261136    2.81601198526995
C         2.10349696772669    1.96807951214418    2.48297495508216
C         3.01447661231331    2.69769274351572    0.34650784133513
C         2.02623869854435    2.85261316683645    1.39943832790949
C         2.97021811089454    1.77923044501989   -1.99418642823409
C         2.53913453413886    2.74751556194548   -1.01454053429552
C         2.05224670002146   -0.19986692180547   -3.08953234080191
C         1.94545969900154    1.16910897112451   -2.82782888829332
C         1.20256685479134   -2.20191568049623   -2.37060703784530
C         0.88644193258844   -1.02512007853039   -3.10856887263329
C         0.57416135779421   -3.27396409792971   -0.32927914398714
C         0.21089784593516   -2.88055809735624   -1.66127719550261
C        -0.49449190216237   -3.58337362631232    0.53446082172500
C         0.44838943046989   -2.10725546894714    2.23496706793772
C        -0.59834496480956   -2.90499156550193    1.80286597385889
C         1.11723988269300    0.00336529477961    3.14086085644672
C         0.90720601616955    1.40463368434871    3.01272990107919
C         0.07094053531428   -0.89836744931649    2.91905296384317
C        -0.35890518013885    1.93172462317573    2.77982967980234
C         0.74151544612310    3.43666324650998    1.14632185981564
C        -0.40643515219541    3.11804706231956    1.96077708638484
C         1.30152488464288    3.34932225108002   -1.22580861855458
C         0.49854730824508    3.87885372085597   -0.17062895462767
C         0.62824096763205    1.73262566237978   -2.93701859160635
C         0.42351952634513    2.96531009812046   -2.29406628112959
C        -0.41748451450057   -0.52344798035875   -3.14209868065556
C        -0.53392784213865    0.90998278179310   -3.19828005403915
C        -1.16088048192474   -2.62165337315184   -2.03068504954079
C        -1.48941771963087   -1.37616042931002   -2.69106313139368
C        -1.77405994338823   -3.78115186717313    0.03299574574428
C        -2.14773293739138   -3.26555356162148   -1.24485692350033
C        -1.97005803500244   -2.57769179800950    2.04143316610380
C        -2.71482072623926   -3.26974773940277    1.03182606288082
C        -1.27855227760504   -0.40408682788394    2.89138688713011
C        -1.47735332320756    1.02547219503817    2.90574442069339
C        -2.34138539099266   -1.27316964428193    2.43951146331429
C        -2.72876365406664    1.52650697628949    2.50631128747071
C        -1.68011947108063    3.53195132054950    1.51970677897690
C        -2.81351763119102    2.80719560953122    1.91634503839727
C        -0.82667701709706    4.06096371869515   -0.67512694580222
C        -0.87450294453869    3.46123233957799   -1.99141130508008
C        -1.91425860910697    3.97506798875491    0.15976722422038
C        -1.80585788622701    1.45172858940987   -2.95463282378804
C        -1.99018457345790    2.74650828867444   -2.37151623588607
C        -2.76801239414115   -0.76452776068116   -2.44165284231366
C        -2.89372500855054    0.63217343081836   -2.54230994067480
C        -3.42700455305686   -2.67286624062439   -1.07466522632428
C        -3.74178344739046   -2.65234240657399    0.36145212711204
C        -3.69181010274168   -1.40363295235940   -1.55972142847369
C        -3.54372904558157   -0.70197314851817    1.84145464646890
C        -3.69460347758748    0.68545785547574    1.86197479745954
C        -4.15932513194939   -1.34979395225624    0.72426205614286
C        -4.32285841885486   -0.62602620713360   -0.49705006572757
C        -3.74009934732078    2.73101587156796    0.80887348394656
C        -3.15302169613225    3.37336827418317   -0.30371239084505
C        -3.16674077313621    2.70861765291435   -1.54002085743557
C        -3.73022405890236    1.40553545737407   -1.65110256486889
C        -4.23875361143010    1.41952438027308    0.74156107119013
C        -4.32540680781393    0.77012102560309   -0.52651411315843
