62
C62 Isomer 518 Symmetry C1
C         4.83671808022150   -0.52344509840897    1.10152809299674
C         4.91492276417493   -0.18852999916401   -0.33134571610368
C         4.70175009810877    1.19201420157738   -0.41789144217975
C         4.22319908028543    0.59718322039220    1.78544350703965
C         4.20750572550800    1.66575450571565    0.91103016968679
C         2.97257527294290    0.15352986547844    2.37844237177702
C         3.97913748724889   -1.60276479560189    1.24218551616947
C         2.87862990331700   -1.25324901466992    2.12528065708425
C         4.06326991428578   -1.07428220236244   -1.05793456140964
C         3.62779412878139   -2.06767970043265   -0.08133249747313
C         3.08104622804143   -0.58666865023398   -1.99052844229729
C         3.80993000851562    1.67508465424977   -1.36815523152197
C         3.01071526019227    0.82079236754173   -2.17469658083595
C         3.00257252886344    2.40868560795838    0.70602368069518
C         2.89570433358987    2.59470559033068   -0.69453577548206
C         1.79916034938243    0.93282645989530    2.29384079605076
C         1.81146181447317    2.12223980192389    1.44386317191809
C         0.54214296858413    0.26046321909256    2.49054192613287
C         1.63357064158870   -1.86915864886832    1.95824466002398
C         0.45341394807877   -1.15564735926064    2.34989394433925
C         2.42262895940110   -2.67984410200612   -0.22345379189542
C         1.48676174503453   -2.79598124564412    0.88517855057587
C         1.83463217571851   -1.32311837074327   -2.18832544451219
C         1.63140240899032   -2.47823464273680   -1.40950931705671
C         0.62184036195540   -0.67391113445982   -2.66835754725490
C         1.69935655638870    1.44824821773405   -2.28504162164388
C         1.65895465757655    2.51651110325583   -1.32253605230388
C         0.52809622967240    0.76592259733206   -2.58371476152131
C         0.57209406797067    2.50396377275359    0.85148258467017
C         0.49758425874268    2.69002900769350   -0.56034472771774
C        -0.67243085952195    1.03809232800429    2.39544569494438
C        -0.66167100948235    2.18525294804269    1.52828246486542
C        -1.89545468815044    0.41516212883877    2.63916406414084
C        -0.82711946908816   -1.74809394098350    2.07758375936949
C        -1.96560656176585   -1.02079428156879    2.48596818949785
C         0.21686488520813   -3.05403282178291    0.34866841407874
C         0.32875960487194   -2.94905997822199   -1.09112890026271
C        -0.98117443610575   -2.67301382336806    0.99296452144235
C        -0.60814852818776   -1.34299828335695   -2.60433188962160
C        -0.75999836816582   -2.50481811543603   -1.78974813913177
C        -1.89019192493507   -0.68468659510702   -2.59594236643249
C        -0.73856328880025    1.40706367095818   -2.26169329086320
C        -0.71649409938378    2.40356350656751   -1.24782859788753
C        -1.98916466845332    0.71848475664316   -2.47640414101472
C        -1.85901832960425    2.57754618921222    0.93135516519071
C        -1.88417619220647    2.70866000976748   -0.51711320382396
C        -3.16775588473101    0.96956575673195    2.21724195028366
C        -3.14616710147079    2.06076294440751    1.33412116827344
C        -3.23834557066923   -1.34854028432811    2.01511190494407
C        -4.03748378245448   -0.12915122286632    1.92764408030505
C        -2.20568869393774   -2.65020634027878    0.21241874521142
C        -2.06490714101532   -2.50419689233787   -1.19267286485717
C        -2.82594641728764   -1.52078293835300   -1.89039081218555
C        -3.37538877883653   -2.08320379423692    0.79403910893495
C        -4.76423349204608   -0.19731543763705    0.73768917599997
C        -3.99402307490668   -0.98854141052406   -1.31242839994117
C        -4.33447723037598   -1.39818861933440    0.00941174746969
C        -3.20531273119440    1.24576570327054   -1.92418475478668
C        -3.12737151267117    2.32129727469972   -0.98389648091401
C        -3.97922215993164    2.01976996535243    0.16674655947783
C        -4.24555848683554    0.39807447445087   -1.46453222169443
C        -4.72510196549989    0.89312389444237   -0.16383676896342
