76
C76 Isomer 18335 Symmetry C1
C         4.61279721953209   -0.81078758530714   -0.80460101519785
C         4.53967668864424   -0.12240554454543    0.41130583369229
C         4.41389023567291    1.27376482796123    0.07341808762882
C         4.13960814023802    0.09987982962157   -1.84137009403457
C         4.02044357177983    1.39217807803043   -1.31878948372273
C         3.06994798293613   -0.53557240556236   -2.47796922732572
C         4.00373239832491   -2.06122887795490   -0.98724675562907
C         3.00739751372354   -1.91784000760291   -2.02874151733431
C         3.68045845034122   -2.75269916085645    0.18291237688391
C         3.76727821408956   -0.66100102976535    1.49936971028363
C         3.45937510709124   -2.01159483706524    1.40388455148034
C         2.84898839300982    0.20488370818794    2.23876628908956
C         3.85554759155141    2.11032458059121    0.99498549527137
C         3.05520796119736    1.57372684474521    2.09618526325340
C         3.18769519111731    3.25523886101583    0.49758533526172
C         2.90906829249104    2.19657238628977   -1.68757361634902
C         2.60911168676862    3.25865438159374   -0.79340207362970
C         1.89171852269918    0.18983822045655   -2.75205537565567
C         1.82690356668254    1.59436484245693   -2.42071177872961
C         0.69610756405583   -0.60154218007733   -2.88520204184501
C         1.78964794126963   -2.61199764810497   -1.96030720161660
C         0.57212381954367   -1.96384748346854   -2.42605890701027
C         2.64407119951349   -3.69388087081296    0.07790500419157
C         1.69866632818184   -3.62645226415977   -0.96273676607162
C         2.24662415539590   -2.52858005162058    2.02493169356903
C         1.89238326981340   -3.67500915603703    1.31111387168813
C         1.52915172409663   -0.27387265902533    2.67224263328066
C         1.23628729885298   -1.66641579137295    2.55954658945357
C         0.43900712185069    0.65697111630546    2.85728424678841
C         2.00183532440411    2.50984661870748    2.33472952178159
C         2.16104775037770    3.59390584199008    1.43672924031608
C         0.70348551965539    2.06485893264222    2.69649116972709
C         1.27610566380561    3.80423984410323   -0.68064660753233
C         1.06161685302900    4.09741530440128    0.71471553268167
C         0.53181465154336    2.24044703368600   -2.38110257627735
C         0.22486819567613    3.33059984646366   -1.46763470308684
C        -0.47542386887529    0.11152068355489   -3.09568759777115
C        -0.55145860716829    1.52255947049626   -2.87377610467936
C        -1.76139995275112   -0.45139615447916   -2.91265420010909
C        -0.71731441553819   -2.45693083709555   -2.04654181222749
C        -1.92244005969253   -1.69498941720861   -2.29095210498626
C         0.40501757368193   -3.92828210796490   -0.40760617208413
C         0.54370315756330   -3.92150320732517    1.01316479433235
C        -0.77590336450023   -3.46807463687939   -1.00315715536195
C        -0.13410100271300   -2.13084297181746    2.55644474771916
C        -0.43981004172630   -3.33063974832078    1.81869316441647
C        -0.93468097834625    0.20447891774928    2.85939994815128
C        -1.20553665585277   -1.19787758452732    2.78293399723830
C        -2.02365009941315    1.13126252250210    2.57007624948398
C        -0.35404294372878    2.91498187588240    2.32095078422586
C        -0.18251838385640    3.87382495476313    1.25419622750018
C        -1.68356534641293    2.44648500136757    2.25605655354552
C        -1.13908154527979    3.48666888490647   -0.97820415444531
C        -1.29973290319984    3.78754951013826    0.39015182622410
C        -2.32988293554190    3.14575128803992    1.16060779696003
C        -1.92311094766700    1.84383859469909   -2.59352407120428
C        -2.67959977449787    0.64086079343660   -2.74019286490012
C        -2.24238125368398    2.80867794253547   -1.61730072658099
C        -3.85674039177144    0.44060228361180   -2.03839518958613
C        -3.15678503916121   -1.89350034986911   -1.52659689965036
C        -4.08752324507144   -0.83939125525741   -1.39609739858469
C        -1.89869152689866   -3.53202822927387   -0.16114612991694
C        -1.71294809665523   -3.50384888697994    1.25437886452801
C        -3.12255457179014   -2.82578239046577   -0.45095293254950
C        -2.54829118175561   -1.60850849153612    2.49460186716645
C        -2.79165045224951   -2.80090569516646    1.81135679681843
C        -3.75848975236768   -2.54417140572305    0.76977010841878
C        -3.33019093847550    0.69043202058433    2.09167165279164
C        -4.69536491612064   -0.54332550290395   -0.11187024052923
C        -3.58955402061009   -0.67556771693702    2.08497959749983
C        -4.33947261266699   -1.28645075083403    1.01421414276411
C        -3.43031045423559    2.64735394421680    0.55565577696944
C        -3.45395406694449    2.58171671730775   -0.89481556454445
C        -4.27511237771548    1.48617600173409   -1.18670289130081
C        -4.04986355379515    1.47268068704551    1.12409714462648
C        -4.70927956147107    0.85361170008274    0.05481946435728
