72
C72 Isomer 705 Symmetry C1
C         5.23615654229982    1.61246200207987   -0.39857979563660
C         4.84245670377880    1.89375872190538    0.88496874139012
C         4.52539018817577    0.63505102200246    1.58003065319174
C         5.18418802201559    0.15844546928674   -0.57458793153284
C         4.74185526058886   -0.44174261659857    0.66920683757056
C         4.38733709764002   -0.06651923827600   -1.69212433135924
C         4.27835170515014    2.23984832117686   -1.30941916612550
C         3.81815744608226    1.22056578016306   -2.13814255780240
C         3.65247363344033    2.73271705769739    0.85434254029597
C         3.28442262644616    2.94300466673019   -0.52206393496228
C         3.24359044664609    0.80708755957620    2.12156945575270
C         2.72092873083032    2.09815381052659    1.68491200099660
C         2.35476938072191   -0.28291185745609    2.24105382707504
C         3.82134908796948   -1.51349084707062    0.64671412040485
C         2.78637689468353   -1.52703581723784    1.66490953175348
C         3.62155106573842   -1.26219217791039   -1.79988213854987
C         3.48812286797790   -2.10590342095120   -0.63710890735454
C         2.56744344849365   -1.23348574806964   -2.72612692287460
C         2.48950184713744    1.24383130196655   -2.63849633998150
C         1.99985047039277    0.02389682840049   -3.12768183037042
C         1.92621768244531    2.86062927991774   -0.87534582233362
C         1.54315359016765    2.17416169235059   -2.08978111086609
C         1.34565942492763    2.21163613463687    1.42085990943673
C         0.94276912465966    2.79095239820298    0.18758295222904
C         0.95603412653570    0.00066975983812    2.40777634897708
C         0.45016202528403    1.28437315970525    2.02960958476488
C         0.00619099761568   -1.07450263391925    2.40291028670127
C         1.81982379003325   -2.54669222988899    1.60132001644973
C         0.45937336948944   -2.34432699335294    2.02275513429383
C         2.46810948776744   -3.08144656964288   -0.67820907425730
C         1.80587127160538   -3.43129211106553    0.51124610769989
C         1.48162142914803   -2.17167270917089   -2.68784770885548
C         1.45913869392270   -3.13673999632959   -1.71401651876325
C         0.60982072706365   -0.17080129108779   -3.33129309334087
C         0.25635129034884   -1.52808059055081   -3.08564319198706
C         0.16286886382276    1.99130802496690   -2.35774946681626
C        -0.30957088905552    0.84755304409446   -3.06839547886795
C        -0.43080244763114    2.78300154904130   -0.12547253802193
C        -0.79430269937204    2.63060979456661   -1.49314396885687
C        -0.94761358906105    1.51145204181180    1.85528713589548
C        -1.40999839814202    2.42749244715767    0.86133344146185
C        -1.39854316790088   -0.81952834047263    2.35916956986226
C        -1.87906057202812    0.53972900888291    2.34267555315214
C        -2.25207925897090   -1.78244528274528    1.74800535928308
C        -0.39005987437149   -3.16183217886321    1.19162556643497
C         0.42176181931795   -3.75348531414668    0.21584829579819
C         0.16876570562698   -3.48424876768928   -1.13518856237353
C        -1.67074268573303   -2.73464954014555    0.84787812354875
C        -1.00116169706002   -1.85671421452183   -2.55433302973313
C        -1.04819586109431   -2.84964916123505   -1.51152992123901
C        -2.07164922631181   -2.68088383435405   -0.52408408912205
C        -1.68484807370803    0.45166027783948   -3.00922265185600
C        -2.05996859091456   -0.88570367070256   -2.67446607467938
C        -2.14084857582327    2.51419846858911   -1.79626759999939
C        -2.58807375182417    1.49156805010659   -2.70898576889259
C        -2.81763539747720    2.54467972756960    0.55135878901507
C        -3.17017199039894    2.74241442340653   -0.82271785740299
C        -3.24443060391110    0.79437241176218    2.20416801887507
C        -3.75522141369712    1.86773167732937    1.37668053314118
C        -3.59073020958297   -1.48860505331092    1.50895447221137
C        -4.15741695981863   -0.30654825120156    2.06556954900067
C        -3.29124763172875   -1.98378197637588   -0.85970180872395
C        -3.32486148394796   -1.13080318231056   -2.02333325483610
C        -4.17625884052654   -1.71553319476535    0.21297201528106
C        -3.90810188904905    1.20568482919983   -2.39867588087581
C        -4.34956748444233    2.12884582499505   -1.34064307248341
C        -4.32855107211619   -0.10571511797194   -2.06691453954448
C        -5.03223785269313    1.43210003122087    0.86447498852330
C        -5.26297424523714    0.08776340707718    1.28912682339855
C        -5.24492846723931   -0.75678105944683    0.09731706610595
C        -5.24730034816987    1.45728941226704   -0.54196472184038
C        -5.30081163695276    0.05004557079033   -1.02807268685379
