68
C68 Isomer 440 Symmetry C1
C         5.07531292404737    1.04413362384202    0.83103772020520
C         5.09904084739954    1.39208818975479   -0.50618310261396
C         4.84521334700530    0.19415120274915   -1.30550508060341
C         4.85423181764513   -0.39224226179527    0.94725947297253
C         4.79289974512097   -0.92697445470990   -0.39288783392391
C         3.73774245751792   -0.55067926572778    1.77828142305398
C         3.99033679265139    1.75317690473509    1.48849820511160
C         3.17818460974333    0.77938841156561    2.08786590509987
C         4.04414578953795    2.35894115036006   -0.74535678194503
C         3.37608179229279    2.61936157188130    0.51097315367035
C         3.72128193548371    0.45997338287428   -2.09731946897658
C         3.26160818615838    1.82038022637217   -1.77385626599478
C         2.72932243374785   -0.53853851346725   -2.38188641251884
C         3.83875229385618   -1.89348200608063   -0.64004890411861
C         2.92302292627787   -1.78826614561632   -1.76238209929501
C         2.83115235312678   -1.61950523681000    1.58891304662722
C         3.04445476980482   -2.41351367627666    0.43784099073601
C         1.48672793704408   -1.49104958070941    2.11139760658450
C         1.77513870928956    0.95058582618462    2.17656395885424
C         0.92467594834234   -0.19613287569954    2.39775534360956
C         1.99445463969985    2.75488494821391    0.51801896635502
C         1.20761624335909    2.09730431556258    1.54301805265329
C         1.89334973431696    2.10397252516954   -1.83624491051171
C         1.30451893426195    2.81246436239362   -0.74707099521075
C         1.38425990866886   -0.16547987186503   -2.73906524969391
C         1.03833345665346    1.23292818894276   -2.59899995485306
C         0.30749217873942   -1.11019931903981   -2.71896156531922
C         1.79301723282072   -2.61576061348379   -1.51182954303868
C         1.92333282009976   -3.07160015672576   -0.15566765692481
C         0.51883473292406   -2.36865689029357   -2.04652053678408
C         0.57504225641974   -2.49708822194520    1.77418715931403
C         0.79504793251288   -3.28217245044634    0.58843465258376
C        -0.82790323181117   -2.34265206421253    1.91252940027806
C        -0.48822668574918   -0.01334536225303    2.45473494562284
C        -1.39941727824512   -1.12328176122018    2.29847003269300
C        -0.19234597534451    2.27162647935666    1.55313936821691
C        -1.01140278457859    1.31846455455841    2.24691033985470
C        -0.08738758340202    3.04437239566565   -0.73366838928668
C        -0.79911936623727    3.07658966148858    0.52159876641252
C        -0.28380292190637    1.63093943935562   -2.68345179561299
C        -0.81134327855834    2.68232162043298   -1.87312437458574
C        -1.06622687054130   -0.66435202129259   -2.91407645094977
C        -1.35606221177134    0.72751379902255   -2.95472488761686
C        -2.15246851977173   -1.47536652145045   -2.56451751114327
C        -0.60123991723337   -3.03841404915260   -1.41517099535382
C        -0.45690753874818   -3.46637720936939   -0.07013444887236
C        -1.46550023213717   -3.14505886025298    0.89448359350261
C        -1.91085250685609   -2.68236913198569   -1.80484924815515
C        -2.74637952448264   -2.85659923897781    0.48098707041728
C        -2.98246826827538   -2.81673630562417   -0.91118620737364
C        -2.80890596762547   -0.91447602287610    1.98408459645562
C        -3.48836665558034   -1.78191143091618    1.10400694697036
C        -2.39906172044365    1.52698134568983    2.23830772389678
C        -3.33294021955060    0.40214282965439    2.10536205685900
C        -2.18484327225135    3.21363467417015    0.48901359782497
C        -2.94797895214378    2.62070061484605    1.53595259963509
C        -2.23465778715321    2.54053322563704   -1.84542846846354
C        -2.57751948357532    1.30355600243190   -2.51364785876450
C        -2.93575331820077    2.97962357182047   -0.74257541256570
C        -3.42676984449147   -0.91112454935031   -2.15640365262694
C        -3.93657431904717   -1.74969197892635   -1.15152884950268
C        -4.37154218033618   -1.22446759697276    0.08918926604049
C        -3.65246653927560    0.49768172954049   -2.05289714542536
C        -4.44146958671982    0.82091363752481    1.35053854027787
C        -4.21735250521357    2.19391610019158    1.00027785443703
C        -4.13969214739706    2.27106457863666   -0.39939798833145
C        -4.75222419647544    0.10868404510722    0.14010407018773
C        -4.44645429543944    0.98057050979282   -0.97416638005724
