80
C80 Isomer 15401 Symmetry C1
C         5.67995757544113   -0.14032699487542   -0.77982972838876
C         5.05627903666142   -1.17062656193637   -1.50412596218060
C         4.65848310526709   -2.16321343302833   -0.54379261179555
C         5.42862148539930   -0.37682755318517    0.65727699667808
C         4.69766809375137   -1.56176317942812    0.77185122403135
C         4.92882691534333    0.82151690670909    1.23437839289334
C         5.30806486347548    1.15827029066868   -1.04821510630462
C         5.06340616101916    1.82973643900687    0.23624664326773
C         4.20964276076879    1.46286408346020   -1.90988695392831
C         3.93939021764978   -0.91121026351314   -2.35524861121280
C         3.44853361959925    0.41650760840212   -2.51918333340988
C         3.47826989939578   -2.74749328597313   -1.01260925639212
C         2.98680592491476   -1.97257737550553   -2.14168918301294
C         2.56880179269184   -3.16123396262375   -0.06302584922168
C         3.52569949487581   -1.61909523775025    1.62059115978213
C         2.60746710181286   -2.62303773835922    1.28043917356302
C         3.74940942083057    0.79910515699679    2.06181111884632
C         3.00741367380009   -0.42973117024336    2.26631818081578
C         3.01795153290317    1.99992540078414    2.09077410888711
C         4.06708865418592    2.77573652544883    0.02919895111488
C         3.51749882026530    2.55773652607301   -1.30827638010455
C         3.18207853262240    3.00162552121700    1.07679978192104
C         2.17230602225009    2.80582092053067   -1.55958169565408
C         2.02588102873783    0.61307716143238   -2.69256326775020
C         1.42932396999581    1.87825405163658   -2.38235069305457
C         1.62037538609643   -1.80152611787394   -2.33594985879568
C         1.12993219285036   -0.51047049126023   -2.75735555237312
C         1.21473919028031   -3.29284204782017   -0.44368398242403
C         0.71007329036399   -2.65951502884419   -1.59439600048103
C         1.26946394899873   -2.59513879267398    1.74115367394024
C         0.43696632415746   -3.19603544159693    0.73799417504051
C         1.60251930390379   -0.36942077277762    2.64324472047540
C         0.74746682269513   -1.50989693258377    2.45293426325109
C         1.64191065731765    2.04186573201783    2.47445816451748
C         0.91407945644224    0.88984917215664    2.77433867253048
C         1.91370957570769    3.54907476413737    0.77902952185238
C         1.45831953712357    3.57045752159165   -0.55991220875133
C         0.99815576481006    3.10641585709914    1.77977551203040
C         0.08823274517136    3.71222296711761   -0.72021455832637
C         0.01170921473762    2.04778538743799   -2.51475352100038
C        -0.59441033253505    3.11405493977741   -1.82321455142297
C        -0.28118236514879   -0.33179187538083   -2.86846006653547
C        -0.85652796790386    0.97233250003232   -2.91071345581978
C        -0.68384680282724   -2.46032080801411   -1.65886253445177
C        -1.15943020678321   -1.43542537399235   -2.55376963900065
C        -0.91894033481172   -3.00163941839000    0.69096297238778
C        -1.54476436287874   -2.86205357725605   -0.59146857986886
C        -0.68844412542704   -1.43440479847647    2.55571189819620
C        -1.50449151401058   -2.36897234464035    1.83322722712349
C        -0.53692679036474    1.00109307255523    2.76487410563958
C        -1.30680326161136   -0.19521854172721    2.91509886072818
C        -0.38741910427429    3.13693653905049    1.58951432358129
C        -0.81849398215979    3.70122819289824    0.37520176914949
C        -1.20330704620486    2.14533789426512    2.23064418400290
C        -1.98205455966271    3.09996616147481   -1.51660134140473
C        -2.11193485495107    3.40150301955565   -0.13518044863776
C        -2.29459968284595    1.14301371197950   -2.89106115922445
C        -2.88062182955586    2.23975715083806   -2.15569466283903
C        -2.52293813742444   -1.27531617101194   -2.67232896775193
C        -3.09860729930877   -0.01028893532195   -3.00888028385880
C        -2.95096024005790   -2.60646143365352   -0.63602126860467
C        -3.46264310859737   -1.98486571166182   -1.81565411420121
C        -2.89509656443754   -2.23234300930563    1.78810677200775
C        -3.66343967999711   -2.43831614664632    0.56544789747742
C        -2.71113995003014   -0.09439034111608    2.87801370892266
C        -3.49971412677236   -1.20566427131925    2.50888673259558
C        -2.61150445228977    2.11422810905278    1.88157003610574
C        -3.07666371502303    2.76846657509629    0.66148856889323
C        -3.38465753075111    1.06795331646465    2.36712087737164
C        -4.12184698437100    2.09634722470115   -1.47764105368546
C        -4.18732153295664    2.28133250819972   -0.04971478689749
C        -4.44500450556277   -0.04052615989621   -2.54410619731689
C        -4.66086999890269   -1.27908642880168   -1.79221941972708
C        -4.95495962202051    0.99489109053375   -1.78221005734136
C        -4.82173565534939   -1.57818363542345    0.62191603941171
C        -4.67184804847199   -0.76582004438762    1.78358577298437
C        -4.61152691510733    0.63728041833561    1.70606211727985
C        -5.02752291237298    1.24314067414858    0.50792463853109
C        -5.30946891932515   -0.97112717917237   -0.55245783444049
C        -5.50985409122788    0.44048749456388   -0.54306820023524
