74
C74 Isomer 3207 Symmetry C1
C         5.22099347079926   -0.32516192023264    0.82924685674964
C         5.01934770802493   -0.45493338195345   -0.58452535099117
C         4.28811809915513   -1.63423801137121   -0.85002462910970
C         4.46978657183010   -1.34093381622287    1.45194211300149
C         3.90815846585583   -2.19839403217593    0.44950205498942
C         3.55988860047259   -0.74983851142971    2.38613844580122
C         4.63039885693169    0.92135792326921    1.22216494489025
C         3.67552885879011    0.68111633613511    2.25444241566016
C         4.50745106823107    0.79939068293983   -1.07774708422823
C         4.19759449632315    1.63390818295950    0.08189466823729
C         3.63706571468641    0.77605641876918   -2.14406258424621
C         3.36812848857020   -1.65301650817766   -1.93225825997434
C         3.10189282061134   -0.45929223162933   -2.65364551704933
C         2.28049529543694   -2.53180535247764   -1.81348616608097
C         2.64479501679412   -2.77586664184456    0.64301555395928
C         1.97250211430344   -3.15289762667969   -0.54587441708640
C         2.30431095070463   -1.34452984060651    2.61738800406894
C         1.81131518953792   -2.43124489763285    1.80302462044796
C         1.35435633513291   -0.47990018671505    3.18472956171682
C         2.54404957511748    1.51378595925265    2.35632247356959
C         1.47615949066205    0.93846104846194    3.06456432370958
C         3.01269502951535    2.42290441679718    0.12090588109641
C         2.22536213925332    2.47777126804014    1.32366812745680
C         2.61102091301116    1.77403705352561   -2.23122824145420
C         2.34843554361352    2.63176156525700   -1.14064816094009
C         1.79202240648661   -0.17506154279221   -3.14867537069430
C         1.53462658603506    1.22184779500884   -2.97132682441457
C         1.04839281790467   -2.31870493919480   -2.47881230428801
C         0.70812794531859   -1.08636714787577   -3.07568641758325
C         0.61591298303634   -3.47884794293700   -0.53314518825723
C         0.03966924607014   -3.02908488764861   -1.76861019516655
C         0.41530685350746   -2.70596638694675    1.79576474260577
C        -0.14459679111167   -3.40052659197281    0.65759262983102
C        -0.02381647515403   -0.79515996960692    3.21783092986593
C        -0.53868169155622   -1.91283989437260    2.56919851442175
C         0.16816348306513    1.49118906402453    3.05335774955060
C        -0.76290035773984    0.44011233389260    3.26231535593700
C         0.88925037964918    3.02664727685357    1.29280746911995
C        -0.13304709031707    2.59457673116256    2.23588257037256
C         1.07290604538890    3.20818556795437   -1.13901583567194
C         0.41252316741929    3.54421696625739    0.07609187270082
C         0.22226912982053    1.71223660525765   -2.89261666933419
C         0.07775892467637    2.87747560734347   -2.11335088619564
C        -0.66695841403685   -0.62350565189204   -3.03066245483436
C        -0.89622440486858    0.80304509055635   -3.04548794999104
C        -1.30218159368509   -2.71672053380467   -1.89117342268703
C        -1.70970298337567   -1.49478555806876   -2.55374797939473
C        -1.51481165725846   -3.44963048362737    0.47456002504410
C        -2.10000889822748   -3.26729131144272   -0.84055095598515
C        -1.97587221937147   -1.92147113540376    2.33177119451386
C        -2.44730551664657   -2.89613898034356    1.42804782535960
C        -2.09382774801815    0.51346069941820    2.85613535368396
C        -2.77372401227778   -0.71533043936046    2.50648212413149
C        -1.50819899676990    2.74853082532001    1.95197086235258
C        -2.47818630619359    1.76652846153313    2.31273266514250
C        -0.99445190258100    3.66821695583508   -0.22055416526076
C        -1.18919328786416    3.24706011981634   -1.58171323930208
C        -1.94744929732409    3.34442393857664    0.71851261448234
C        -2.15677236833459    1.28449610846927   -2.66455404952888
C        -2.30786900586103    2.52244947523222   -1.94000044692661
C        -3.02896434812561   -0.98591073908280   -2.24414004710148
C        -3.22008499627765    0.41242393075718   -2.27853890021969
C        -3.41525282460883   -2.87387931965140   -0.68803004483839
C        -3.67146518492731   -2.73414991487591    0.74528664071669
C        -3.90295990217930   -1.71315611624357   -1.36005067864303
C        -3.98635408242626   -0.56273847407706    1.78146825764355
C        -4.42708596217986   -1.58793645164556    0.91572934296471
C        -4.68711568002440   -1.01680878922105   -0.40646659227895
C        -3.56174844900298    1.82505251664325    1.36977728581143
C        -3.19113851905925    2.73578266581496    0.31932430267059
C        -3.38092737294338    2.35419750951927   -1.00539295056257
C        -4.02035538420719    1.10206634323478   -1.29829791083026
C        -4.28861004245371    0.68933258632123    1.10617598163109
C        -4.62793701475391    0.37996013102705   -0.27366446475744
