78
C78 Isomer 902 Symmetry C1
C         5.84113889718921    0.34856349615336    0.13959882531611
C         5.67766714341992   -1.00692628808517    0.21084830627133
C         4.85554752069994   -1.31231952983492    1.38955828599225
C         5.11459923449788    0.95454920554115    1.25912605869153
C         4.45318391782099   -0.08344882428633    2.01766448384503
C         4.29039417068842    1.92055162128608    0.70134569707679
C         5.22912980358450    0.80893467120946   -1.11312119400638
C         4.36535384459976    1.84654122060359   -0.77320609776712
C         4.97699033432828   -1.47314918958259   -0.99242104773030
C         4.66400706137750   -0.31401916330529   -1.80651035092690
C         3.85444223384967   -2.15899969389396    0.93037912067627
C         3.92127330596878   -2.25718633251404   -0.53764980087357
C         2.58328352926944   -2.13516993859731    1.52080779592476
C         3.10126788027569    0.08001889150204    2.42683507131554
C         2.22282982508990   -1.05823379308342    2.38492546715708
C         3.04819387210039    2.23918697393846    1.31041572654019
C         2.43157695893776    1.34540780670217    2.25057939720081
C         2.22800365580604    3.03257355648449    0.49925656755305
C         3.19369561664895    2.06943825058594   -1.53500162629797
C         2.26364865240272    2.93004858011637   -0.92493317388582
C         3.37731728657106   -0.21022425682672   -2.38655726744834
C         2.68590268366844    1.06422444485835   -2.41028216791836
C         2.71429788992651   -2.34050911434663   -1.27790272401376
C         2.53744979848905   -1.38688091462378   -2.32936197702553
C         1.56669610364947   -2.84072304083371    0.80588279579969
C         1.57293918575410   -2.89929782022657   -0.62975641401079
C         0.34921401179033   -2.92338543701056    1.45106272098248
C         0.84047286105509   -0.90390839599020    2.73554691599524
C        -0.00066180529196   -1.99366387658889    2.47683508320688
C         1.01958948789371    1.48955416512394    2.52037623326012
C         0.20933743592185    0.36813571663586    2.89105646657119
C         0.90136174915724    3.32141123099347    0.89586596356224
C         0.33311867308381    2.63202307074071    1.98610090183336
C         0.93319724732808    3.08087023215927   -1.38542795170130
C         0.13426713354245    3.53706993565280   -0.27531013152510
C         1.28500433690599    1.14530721330696   -2.77968937825503
C         0.38400589570548    2.18783244087452   -2.31044655322894
C         1.24718155793025   -1.28858933483677   -2.84601577831408
C         0.65961668825908   -0.03207126812658   -3.17807402764952
C         0.30109426475075   -2.92533979990567   -1.29360758714953
C         0.19406854334828   -2.15132710364442   -2.45386107343663
C        -0.84648734480366   -3.32133286054491    0.78751148604659
C        -0.93353831033377   -3.21543411022284   -0.60296112367734
C        -1.42338233290188   -1.92551231746362    2.54966793095417
C        -1.92231544227691   -2.89992667847693    1.62929366441517
C        -1.25404711560509    0.43915197179204    2.92239873529839
C        -2.11225938878305   -0.72463099815837    2.76055664885342
C        -1.06465765530369    2.69537381798836    2.04384111440915
C        -1.86125814417931    1.65703970672252    2.61977302002069
C        -1.24331421564955    3.43370547217935   -0.27799094958969
C        -1.83342645179650    3.26729052075176    0.99783761850288
C        -1.06284519610450    2.04470184510298   -2.33284030657331
C        -1.87043003316968    2.82698946431367   -1.43147479567988
C        -0.76212880166277   -0.19267179184103   -3.16705136999197
C        -1.05613971249933   -1.51656818601680   -2.78671592659568
C        -1.65569462486334    0.84439839846289   -2.83610408630958
C        -2.22440441802586   -2.85243246088822   -1.16258183892341
C        -2.28600705608845   -1.88299646529560   -2.22315254521786
C        -3.17671394549560   -2.77981415508949    1.12174337248555
C        -3.34919329597492   -2.90785106468830   -0.31084953867511
C        -3.50079974403763   -0.63254197836313    2.30579568769891
C        -4.04582776821346   -1.75474420839044    1.62324914496194
C        -3.20334070528212    1.76287287935805    2.10491360656422
C        -3.16672800152042    2.78926975181715    1.11573620137133
C        -4.08399418326988    0.66206447175693    1.99372172134430
C        -3.23211091780025    2.54820409714798   -1.32758192896996
C        -3.93145040510785    2.67867786044252   -0.04249971517759
C        -3.01980385606329    0.45970920499404   -2.58630769279804
C        -3.36815490839374   -0.93265213815542   -2.35425675158664
C        -3.84524231993430    1.46767007658201   -2.02606253112879
C        -4.51570784810006   -2.20631114766056   -0.62939247631696
C        -5.03371852762295   -1.59466369947956    0.60849013280796
C        -4.57075289348350   -1.23700728114850   -1.65318263845418
C        -5.11903542720340    0.78980756503479    1.00225490457122
C        -4.99499088906544    1.78401984607412   -0.01134539135599
C        -5.03547401891984    1.12124135103241   -1.31813915106078
C        -5.58388432011067   -0.37639085847671    0.30942931578706
C        -5.40843826834818   -0.18357550951863   -1.14165510961710
