60
C60 Isomer 1124 Symmetry C2
C         4.47272140182330    0.53737107432581    0.47523141547251
C         3.92320715043582    0.11505701958268    1.67481546832088
C         3.59475034293205   -1.29998623849845    1.58504424449709
C         4.48050723487792   -0.62077075466708   -0.43056414242747
C         3.90644257508815   -1.74363561398266    0.26121645201143
C         3.93004612614890   -0.20456464976709   -1.63181161871077
C         3.88839920641614    1.65383504781009   -0.21832539458436
C         3.58569165211682    1.20676577804336   -1.54312203005064
C         2.90615694520349    2.39939976816775    0.43146347714967
C         2.80889477844376    0.78033289342682    2.28246848541805
C         2.38952816794931    1.98080322583001    1.73612373990528
C         2.32007732066472   -1.47304894101138    2.13786636552149
C         1.79688618870245   -0.19877218212042    2.60180625889787
C         1.41514895035594   -2.39934350184455    1.57661346337063
C         2.93451479720616   -2.50005426180203   -0.39155127753695
C         1.81092142045167   -2.98117487803173    0.34505974568852
C         2.82506101024573   -0.88215290949666   -2.24292200975327
C         2.41731424571361   -2.08719556362394   -1.69785633060888
C         2.31091913727777    1.36569107013808   -2.09988131047919
C         1.80330370912655    0.08568733559023   -2.56539014033062
C         1.77955424602885    2.86797656311830   -0.30862735868852
C         1.39405912604119    2.28191206107974   -1.54144180863970
C         1.00719772097524    2.31693639101841    1.82475328211219
C         0.73586239702971    3.09753874112370    0.65140551678152
C         0.42025392108739    0.08330990225388    2.57844051539034
C        -0.00079314357736    1.43575829548833    2.28448320475122
C         0.01571025118029   -2.24483903294396    1.89639818521578
C        -0.52817212670884   -1.00419524147370    2.37862334804490
C        -0.85103589750203   -3.10690978209351    1.17421507189213
C         0.77283395519119   -3.22219021363397   -0.61829247753143
C         1.03909891930661   -2.43867783587836   -1.79087511369003
C        -0.49765095965745   -3.40349072916915   -0.20817630269673
C         0.42980766443983   -0.21168768596071   -2.54629183513683
C         0.02283806330225   -1.56872380953548   -2.25365047401768
C        -0.00257721598158    2.11183365393660   -1.86550895990892
C        -0.53124540079280    0.86527045306076   -2.34939666846057
C        -0.53520778436498    3.26479939370643    0.23731729230031
C        -0.88106056515553    2.96432452234871   -1.14612616729974
C        -1.38375010475941    1.72173199935579    1.95065268701970
C        -1.61490079759255    2.81908873321917    1.07651357359307
C        -1.94324881151215   -0.70709119335273    2.24909455012710
C        -2.39690343914016    0.68032774080937    2.04134415383289
C        -2.21164343150609   -2.90600263168618    1.20098930012649
C        -2.79639319937320   -1.76305470400118    1.79993022176641
C        -1.57959337854908   -2.96995216595084   -1.05076012409491
C        -1.35796248944879   -1.87006260514360   -1.92415927111253
C        -2.70751222137873   -3.00192093844318   -0.19346919647596
C        -1.94333040920132    0.55235379358317   -2.22425370802463
C        -2.38221119793104   -0.83994058328553   -2.01797134265408
C        -2.23925445399545    2.74816519837990   -1.17709485463881
C        -2.74028604587290    2.83819633141803    0.21563242346921
C        -2.80943751483328    1.59879729039796   -1.77773395212008
C        -3.63645639966159    0.90225603403142    1.36415231272095
C        -3.74449465618489    1.93714096854949    0.37451174223114
C        -3.95326788375562    1.30093595907397   -0.95209642992841
C        -3.94085684122027   -1.47781283222045    0.97068859088133
C        -3.72086199050279   -2.11165838877811   -0.35527526764596
C        -3.62130409359500   -1.07566148107558   -1.34457952127261
C        -4.32114978353354   -0.19758513641767    0.74533681185264
C        -4.32014638847438    0.01655924702191   -0.72798681184247
