72
C72 Isomer 4225 Symmetry C1
C         4.53726122622048   -1.31334952333886   -1.22581196299754
C         4.69952310639100   -0.98956854166520    0.17909997703712
C         3.79352102013363   -1.77595155103659    0.90828002473798
C         3.55379323554410   -2.34031852348872   -1.35744746775123
C         3.17025818394605   -2.69476132004480   -0.04634060327418
C         2.49274261336248   -1.84957466591814   -2.20407048025895
C         4.01356642947719   -0.15473315727662   -1.82579875536287
C         2.74111105369978   -0.45697372679865   -2.43060039345672
C         4.64093441334018    0.43209184846605    0.31974377879014
C         4.13340275942970    0.95900857021236   -0.93250685318723
C         4.10897917072977    0.92422560123089    1.50953848829102
C         2.96033453351879   -1.21027487580834    1.93753823565293
C         3.22212178861715    0.10631875930053    2.32420196146829
C         1.63357692915443   -1.72466159893912    2.17477327276485
C         1.89335453372761   -3.17862753727944    0.18124221645985
C         1.26140667635267   -2.90737456245326    1.45173524713420
C         1.19880411616759   -2.31584988267243   -2.01160673397332
C         1.02441383950268   -3.28669965322673   -0.96298763556947
C         0.08068275659394   -1.46582891226265   -2.33559089493072
C         1.67794530689122    0.45279279087599   -2.37447970649704
C         0.32541311889980   -0.06604399881177   -2.48439669896500
C         3.13409519545429    1.94810968955615   -0.96491631075634
C         1.92082748405146    1.74390784490454   -1.75775496049817
C         3.52780759564413    2.19693273171347    1.44536100272730
C         3.03330969708353    2.71459446581951    0.23367530256129
C         2.14660458005844    0.93798784202758    2.81991509090293
C         2.43549858383059    2.26347963979671    2.40916017909219
C         0.57513375839985   -0.90163235443345    2.68992255507276
C         0.80478582585615    0.49940539524078    2.89628495902394
C        -0.79923591849161   -1.34965505546722    2.68458370941754
C        -0.01726837299317   -3.41287770077648    1.63676765070932
C        -1.03792048383050   -2.68641880591467    2.34232342605109
C        -0.25659380120254   -3.75567086505787   -0.73848572496736
C        -0.65213021268379   -4.09648639562591    0.56633213834240
C        -1.25415776287847   -1.97057811708015   -2.08764878341952
C        -1.40082000921743   -3.20272940590747   -1.42693003083975
C        -2.38085697428769   -1.06216113505886   -2.13619146289515
C        -0.77717569866490    0.85794869880950   -2.44933909419608
C        -2.12352104736126    0.34135487674036   -2.39431393394572
C         0.80157354688240    2.57759758415535   -1.55099086825077
C        -0.49139474395734    2.23299801219700   -2.11614400940200
C         1.80944064584546    3.37725672270291    0.53707979819689
C         1.43027105896599    3.06551213556631    1.91032986653256
C         0.81568628543163    3.47693097892571   -0.41596806585022
C        -0.28102157251673    1.45562169753171    2.70888348076202
C         0.08168582498042    2.76039997916427    2.22202058604277
C        -1.90674983865745   -0.39228748449566    2.62818661217160
C        -1.63481539650000    1.02874027315487    2.51711876906907
C        -3.17734248200414   -0.85996425983726    2.26112978658223
C        -2.31416750078637   -3.11470226723837    1.81965842389713
C        -2.07359789961243   -3.90891767302886    0.67133093886759
C        -2.54917235955046   -3.47166052072839   -0.59498216137503
C        -3.37243992010857   -2.21582162680669    1.79705102530143
C        -3.58369423533742   -1.45424670586899   -1.50556950074745
C        -3.61908381738598   -2.58899449777182   -0.61855273359997
C        -4.17071532472559   -2.16593103287694    0.62829426408969
C        -4.06452492901916   -0.01542755862258    1.48965562843871
C        -4.41064688530722   -0.44716310813775   -0.87978670622717
C        -4.63114640550268   -0.81752307499289    0.47449165179224
C        -3.16234626858963    1.25859090188616   -2.08637044605469
C        -4.19148094107635    0.87345012512904   -1.13636271533672
C        -1.57639075122568    3.10763421704509   -1.82901664321054
C        -2.88631629688877    2.60631028010824   -1.85615415150101
C        -0.41600143084579    3.93280780794234    0.13029349256812
C        -0.82584751611832    3.49073381757136    1.46081339937994
C        -1.52208511142835    3.98260080306096   -0.67426107173217
C        -2.62444783781995    1.91288928261493    1.90684265589205
C        -3.78202211162128    1.34001752595028    1.24590483330751
C        -4.16895711082951    1.81651623042951   -0.04839940140260
C        -3.55597321764657    2.96621458156336   -0.58702607255461
C        -2.19778399659772    3.17259774190455    1.41983562769908
C        -2.68402071091377    3.69986222345125    0.16740297815957
