72
C72 Isomer 3663 Symmetry Cs
C         4.98551612708482   -0.11182771819411    0.55030229688421
C         4.45020023112231    1.04750698280881    1.17006378288041
C         3.52496957295234    0.61920776072715    2.17918558141627
C         4.43783623270836   -1.26553721030816    1.16846150769590
C         3.51723245431926   -0.82875250417961    2.17849344394081
C         3.96699124795066   -2.10618774878054    0.11953054679825
C         4.57693404437041   -0.10867426204242   -0.84047528553249
C         3.92997831423688   -1.33100740337771   -1.12807089158982
C         3.98836301403070    1.89396670451558    0.12205168688202
C         3.94310028344525    1.12085008223359   -1.12635406153220
C         2.93212441192817    2.70384168017045    0.42604177929615
C         2.31838475768684    1.31943664731185    2.38899063058345
C         2.19556326804956    2.52154251458064    1.64510464213013
C         1.09287146972651    0.62581419997800    2.77427651435022
C         2.30341035738949   -1.51626997368631    2.38754704172857
C         1.08524084246737   -0.81004846237317    2.77349995494129
C         2.90226611278584   -2.90472119658510    0.42275454798824
C         2.16760624838325   -2.71650724151263    1.64246753479780
C         1.96474877756946   -3.27677230217345   -0.59614365028032
C         2.76879424849133   -1.34671192269256   -1.93128351941647
C         1.87048852188301   -2.48697126466236   -1.76944999787234
C         2.78194790582719    1.15010017525958   -1.92966374276713
C         2.23952678406608   -0.09509001611058   -2.42458346788320
C         1.99873709947372    3.08700719473914   -0.59240512809221
C         1.89586300365081    2.29960497059008   -1.76640733075920
C         0.92978322860544    3.10511474436452    1.43129206169375
C         0.82933915697143    3.54491361222405    0.06625216278427
C        -0.15480155624149    1.34590756383731    2.75285272514073
C        -0.19787844269214    2.65097090716668    2.12329218231438
C        -1.39476120931617    0.63756707905130    2.93057888268546
C        -0.16994507671589   -1.51681863891126    2.75136115558198
C        -1.40241613116412   -0.79557540429750    2.92992018228374
C         0.89624869437121   -3.28582084702688    1.42793799990791
C         0.79096561051504   -3.72310143932460    0.06188164877048
C        -0.22690276653640   -2.82053818531013    2.12025452292403
C        -0.46190154679971   -3.75418001375425   -0.58721518923501
C         0.60493796843915   -2.46090248859898   -2.37453814104325
C        -0.52749234972727   -3.14907272692471   -1.86541386237506
C         0.90483934925561   -0.08761618594814   -2.98665448001666
C         0.13800164840606   -1.27194053051874   -3.03389540951109
C         0.62988893367333    2.28770104413695   -2.37155109532008
C         0.15058359934059    1.10465978061582   -3.03241812565908
C        -0.42324130983855    3.59021481475906   -0.58293338636232
C        -0.49526756351684    2.98730456762364   -1.86181565364312
C        -1.41362310685298    3.16916847552915    1.61431696028182
C        -1.55662466549642    3.55455569827830    0.23850906979411
C        -2.62386859697311    1.31125884598426    2.61704180409733
C        -2.61234581816749    2.56172690988819    2.00146912453657
C        -3.76809874514465    0.61203693803563    2.05373382679207
C        -2.63848724834494   -1.45585064198503    2.61570866805590
C        -3.77527111386353   -0.74406590724735    2.05315908510206
C        -1.44782901420638   -3.32528841506270    1.61082886453977
C        -1.59491152621095   -3.70758080513326    0.23420454361572
C        -2.63995569426867   -2.70573965013848    1.99870407144337
C        -4.24356208518060   -1.47238248473940    0.87596927677912
C        -2.85169281253234   -3.17205645696530   -0.24719073449360
C        -3.55855641039720   -2.69795444088050    0.86939989529113
C        -1.70588855499338   -2.43109356132914   -2.25511894340290
C        -1.28159842651672   -1.27474139598218   -2.98715263543659
C        -2.87962113217015   -2.41911971615532   -1.46595255716602
C        -1.26918263523719    1.12236193193806   -2.98576308167076
C        -1.68122109416629    2.28220843475323   -2.25250338404173
C        -2.02428084193199   -0.07224532585158   -2.92957340036379
C        -2.81943869281088    3.03277122247519   -0.24374503250687
C        -3.53104675398159    2.56484442100192    0.87212638684335
C        -4.22900790959866    1.34634298586684    0.87733635152376
C        -2.85531078969527    2.28173309147132   -1.46339868262188
C        -4.38287233577580   -0.78016405914635   -0.32903864125584
C        -3.67069669490895   -1.23385974737491   -1.48906153481504
C        -3.23246787128872   -0.06640127536247   -2.20091865088937
C        -4.37551643223548    0.65705838248392   -0.32821706173283
C        -3.65869856567860    1.10488920624765   -1.48799618580829
