76
C76 Isomer 6662 Symmetry C1
C         3.92544175937165   -3.04872874012513    1.00800401953042
C         4.48670479334556   -1.74096293487536    1.13388328254596
C         3.74987770559124   -1.03517723392899    2.11905140547900
C         2.77706157736825   -3.13318924012179    1.85521497626598
C         2.64621723242110   -1.89606979379150    2.53831502773035
C         1.67518981334511   -3.58306837618232    1.07347012708998
C         3.46570645883025   -3.18727432296588   -0.33361940647302
C         2.10541737660004   -3.60252831811516   -0.30555502588482
C         4.57761508615751   -1.17604188979508   -0.18169765874206
C         3.83178663709592   -2.03754380892745   -1.09303294716214
C         4.44356935006908    0.18589685230326   -0.28501372135599
C         3.54936704449180    0.35203384253585    2.00022662321295
C         4.12503105581430    0.98061779282801    0.86365886798023
C         2.34460248918170    0.92891584402917    2.56612721929502
C         1.36862929053216   -1.35477961047921    2.77939766987422
C         1.23549561079458    0.07055673297035    2.92260666128438
C         0.38225206931483   -3.15656822156168    1.39408402876207
C         0.21880379103869   -2.13416620807163    2.38161630006482
C        -0.62694960196265   -3.30310775971074    0.38664581971487
C         1.22546845138333   -3.16061404217182   -1.29130192443833
C        -0.17605335439007   -3.31677017504855   -0.97274477257500
C         2.92384639367820   -1.48469229847112   -2.01806851703170
C         1.66052369773555   -2.15955649949526   -2.23222786900488
C         3.77555978079265    0.77639544201316   -1.42103185870330
C         3.00464225557665   -0.05041109411415   -2.27885059451960
C         3.59303704028868    2.20758956687754    0.36597301894075
C         3.34920289335741    2.08102684430292   -1.05654130354112
C         2.07133112534284    2.26795281479595    2.25956738212396
C         2.72575638830794    2.93435758997507    1.14931030263041
C         0.73408512436733    2.77558104158681    2.30588900613029
C        -0.08742055520338    0.60017951075123    3.00248908316179
C        -0.34493014992573    1.96605455541728    2.63730136600095
C        -1.08700493979453   -1.63503026821767    2.58886192388886
C        -1.20523866495415   -0.29001681080793    3.05907023949943
C        -1.97807218528719   -2.98590102238804    0.71917419069649
C        -2.20780128404456   -2.28495783356868    1.94874421952637
C        -2.96963695127892   -2.90566774323132   -0.33591359098261
C        -1.09316940116396   -2.91376208193821   -1.93788168943246
C        -2.47600833976922   -2.75233425794889   -1.64354547503457
C         0.63276033529787   -1.49236504824857   -2.97033976233171
C        -0.69657744115146   -1.95135249820319   -2.90903951697205
C         1.93003940061722    0.59488803802213   -2.91399991463783
C         0.77163593860093   -0.13324770498095   -3.31207841596465
C         2.20676210799925    2.69494477775867   -1.64381994497711
C         1.52389440103855    1.92945118287560   -2.61050660160257
C         1.75950025406510    3.76244589083485    0.50472697920479
C         0.57142487984049    3.73869477508332    1.26801720815846
C         1.41682924418278    3.57640090664572   -0.86573421088416
C        -0.53947391195280    3.66056632658607    0.37761350692976
C        -0.02271738902956    3.55274271383099   -0.95470989966758
C        -1.62620088624315    2.32133169956899    2.05210853568497
C        -1.68502977093280    2.99103336423638    0.76922016819711
C        -2.49471334703381    0.29109303082703    3.05844840288704
C        -2.70264772205839    1.55894053573308    2.41189324626004
C        -3.51247955532877   -1.75601347747424    2.19084841903926
C        -3.62523351783176   -0.47898556103630    2.80430004404606
C        -4.24022998521158   -2.30302998306193   -0.07871049468222
C        -4.53920635780850   -1.84721719651735    1.22146305334294
C        -4.76942609044480   -1.33604740997024   -0.99190766539971
C        -2.94571327964109   -1.68486539536008   -2.48336034639500
C        -1.82460628415012   -1.09466184361327   -3.12117330450018
C        -3.99806132386130   -0.88094631468409   -2.06251216422179
C        -0.34468050223067    0.75022282548111   -3.27504844608301
C         0.10270515337582    1.99819978595074   -2.75861224171899
C        -0.71348418635858    2.72527708015227   -1.85879629526963
C        -1.66075804513062    0.30874082992255   -3.09382643630947
C        -2.58293222207985    2.45946599263887   -0.23432115587463
C        -3.77593669532329    0.54967970574507   -1.89887387207554
C        -2.03604714248312    2.22845536676465   -1.53171764126696
C        -2.57450064969795    1.12493862547465   -2.30561520534474
C        -3.90591442584588    1.48753021817030    1.60533611158396
C        -4.58187572582973    0.32871462639226    2.03241090470502
C        -5.19658490787404   -0.52671290214683    1.11719207980938
C        -5.20421035433615   -0.16910273355617   -0.22794857851268
C        -3.78432150120848    1.80185143507350    0.21448132162417
C        -4.46692535835974    0.95570049075135   -0.69906427332870
