74
C74 Isomer 6450 Symmetry C1
C         5.31677998953788    0.83049160386176    0.11245044309327
C         4.99053804196710   -0.05352471308668    1.12316992129540
C         4.09423409752835    0.62252587678639    2.05665768793153
C         4.64119190749305    2.10244963769895    0.42188890329217
C         3.78324210033966    1.91949021623608    1.55711899307306
C         4.09058779210624    2.56283053235140   -0.75919166879407
C         5.03696410763382    0.48425914080522   -1.25928298952163
C         4.33944380489376    1.57931993491703   -1.82729511132747
C         4.52689416744618   -0.79065963552289   -1.54337638476132
C         4.44434472699296   -1.34681540946587    0.85418320512104
C         4.32216031417172   -1.74179871238341   -0.47095655676552
C         3.08601095907724   -0.26831157812705    2.40272207836959
C         3.30430759410586   -1.53971861087140    1.74777130224619
C         1.76758870972221    0.19226702052838    2.59224249244807
C         2.42163226675247    2.31707062954800    1.51618622165312
C         1.43860532033470    1.53130768705195    2.21970375764124
C         2.74626941776054    2.97829618283946   -0.82331024118889
C         1.92209367801590    2.96639915181163    0.32730348757032
C         3.14500466297370    1.42107902818016   -2.54036869462541
C         2.22029743353030    2.40629135063016   -2.05107750045061
C         3.39833237408158   -0.94188730127648   -2.42188780930571
C         2.61162335997355    0.13741665020358   -2.86786138000915
C         3.20954220770112   -2.57848734205155   -0.81581689866815
C         2.69461359342713   -2.13522437085339   -2.05747946310557
C         2.23822623274472   -2.37081866666137    1.43722017733958
C         2.30214927627478   -3.05164753836225    0.16319093211348
C         0.75581185125103   -0.82055904642873    2.62594681873629
C         0.92889357142831   -2.10323548612274    2.01966750493892
C        -0.53872358465697   -0.36194668826918    2.85757328983388
C         0.04744869297069    1.89198061796009    2.12658894054171
C        -0.88182876667302    1.01811563419222    2.68973392927504
C         0.51582937097253    3.06089217235253    0.09043658438881
C        -0.45055490295913    2.77295060259111    1.10324156382974
C         0.87760156669621    2.26098087931891   -2.22823604847503
C         0.07069714030233    2.95332925843077   -1.25813852108961
C         1.17384831636438   -0.02422778775697   -3.04995370383560
C         0.32454106654280    1.09836914843651   -2.89775875114902
C         1.36498461323187   -2.38318739363554   -2.44539005003789
C         0.54251479964388   -1.32120961814545   -2.97009478776934
C         1.13679121422732   -3.61207362432164   -0.33335521581321
C         0.76069909030860   -3.42195197550320   -1.70162074854767
C        -0.23625095170655   -2.81510483743150    1.58527739448388
C        -0.07709692807850   -3.67532060113203    0.45441021516914
C        -1.68686233186688   -1.14490217637265    2.60494329776805
C        -1.57574773062664   -2.32893134462522    1.85408022372079
C        -2.28830879008754    1.10103060684072    2.44308569841968
C        -2.79705760194528   -0.23860583997506    2.50408964496737
C        -1.86198138377477    2.86375963110063    0.83014546768504
C        -2.83860756376486    2.08074394852563    1.58416419412647
C        -1.26968468332053    3.00395128818110   -1.52061162235019
C        -2.22453072371624    3.21689253880749   -0.49753069496189
C        -1.09936447181139    0.98660774017409   -2.94332616189002
C        -1.83813019187618    2.13635190853355   -2.54454174948948
C        -0.89540390314602   -1.42959216555050   -2.89623441745667
C        -1.75851517050823   -0.27967784034998   -2.90953128227558
C        -0.62844082016568   -3.59342428492305   -1.77489906318218
C        -1.13347828602599   -3.86646788713820   -0.43693080812166
C        -1.44728317111719   -2.62640458551002   -2.34559529478518
C        -2.67618454877303   -2.58381778312000    0.93279602168072
C        -2.37155902869717   -3.22135935590238   -0.29327540627076
C        -2.64692770102032   -2.55437761360603   -1.52887354751614
C        -3.90889053667317   -0.58393027964408    1.75556512638051
C        -3.77029011647463   -1.70852867834740    0.84967424240538
C        -4.11486521427573    1.75625942897874    1.00814373070381
C        -4.62159406417214    0.44513113675916    1.12066551114197
C        -3.47119229074583    2.82276441363626   -1.07143836168365
C        -3.19525684781455    2.07568807158906   -2.31065976673179
C        -4.41596263381368    2.14938608770569   -0.35363531478892
C        -3.15141572502382   -0.35644468067785   -2.44713676008346
C        -3.51873472584347   -1.48217802166598   -1.59860585080445
C        -4.30665133098592   -1.29648896702832   -0.41642097684068
C        -4.95142612311851   -0.05153585737005   -0.22512448970246
C        -3.88328096805968    0.83221808326696   -2.24758514816763
C        -4.80425561720726    0.96548045838474   -1.13562976104163
