46
C46 Isomer 21 Symmetry C1
C         4.00911835132237   -0.81453685749462    0.18554394722005
C         3.35867604450076   -1.88003978517000   -0.38242271535167
C         2.65022809057165   -1.41817422866876   -1.57337653304826
C         3.78112006465775    0.36828850607786   -0.66653177757794
C         2.84612611514471    0.02573532662455   -1.70037062224689
C         3.46284762036676    1.40003011035442    0.23214093211574
C         3.36991673909349   -0.55918056227438    1.48414414024949
C         3.10525216076624    0.78555455247442    1.55518430433341
C         2.34360318305578   -2.37606191104708    0.54447630447138
C         2.25500448258547   -1.49343965676847    1.65133580070682
C         1.36543373652733   -1.94030103822569   -1.53193996498268
C         1.18451912530916   -2.60516675327022   -0.22930626804819
C         0.25494193312108   -1.22533044005801   -2.07532809464818
C         1.69698186569092    0.83501950714082   -1.96738236922606
C         0.41456756749161    0.19334681085664   -2.33327317016225
C         2.43212606075909    2.25470434000510   -0.08842264121773
C         1.60692368285472    2.05980757967829   -1.23062550762862
C         1.80957491280365    1.27622189290114    1.93539250460953
C         1.52038397752259    2.34569408318407    1.06914353574594
C         0.96517626894556   -1.03393632165013    2.06425966608357
C         0.72179967081819    0.38162852520792    2.25461210624036
C        -0.05246887856672   -2.56467975920907    0.39410466800023
C        -0.16581854704401   -1.83899762206391    1.63854845827265
C        -1.00362525654818   -1.74897347633974   -1.74237174006476
C        -1.15692526947612   -2.53643149749427   -0.52365272727412
C        -2.23530651386224   -1.02876560290571   -1.93337249188085
C        -0.78479972564066    0.93366170258896   -2.31058148080483
C        -2.11087528918424    0.35139191413394   -2.19738366642785
C         0.30922947904143    2.54430882438897   -0.84076458032693
C         0.23389330813652    2.61186033664505    0.60542808283207
C        -0.81750904665240    2.15891648486457   -1.53300608424061
C        -0.62160490570572    0.90407659807828    2.12504316952989
C        -0.88586693234278    2.07451930383947    1.29137035778472
C        -1.45492697648112   -1.39846728181565    1.98268411022878
C        -1.68980949638838   -0.02499031370265    2.26552672239452
C        -2.44668687712374   -2.39940759638522   -0.05595509095173
C        -3.18683193073009   -1.50387778349113   -0.97508882322773
C        -2.62984746044345   -1.90873286112388    1.26991015402854
C        -3.02960920019763    0.27454039222286    1.78082318415046
C        -3.93799681616943   -0.62982959500521   -0.18160849923069
C        -3.62100199542075   -0.91779665831756    1.23472295478762
C        -2.93547272131317    1.22529417638838   -1.40828501018638
C        -2.05247452803647    2.24121589866144   -0.85698063557272
C        -2.10849665349549    2.16779929902450    0.56372349607744
C        -3.75962788565436    0.75981699893801   -0.38004466179711
C        -3.20886153460965    1.31568443820174    0.87595655626160
