80
C80 Isomer 6074 Symmetry C1
C         5.38718114838372   -0.17724358955952   -1.03288500133918
C         5.10429793853766    1.08441167866393   -0.51153682443121
C         4.70449830808083    0.96449504213944    0.87055316122543
C         5.01680155618988   -1.14391398779215   -0.03962315189110
C         4.62108685559503   -0.44674098865244    1.15449634443417
C         4.06208405946289   -1.99447265998739   -0.61224336722089
C         4.51987833859198   -0.36180266199465   -2.18419076797565
C         3.78014412131508   -1.53131072527487   -1.97317426673152
C         4.24087105375463    1.78428432603148   -1.44473579514307
C         3.81434004590147    0.84446883645320   -2.47134345270858
C         3.31281266167795    2.64175738888947   -0.92701505376009
C         3.74198504546898    1.85386291311953    1.38734541396934
C         3.10898798114488    2.78217130175133    0.50396235675906
C         2.92831317912418    1.36901495891159    2.43805065380434
C         3.57261201185191   -0.96679805622010    1.94675376254957
C         2.88267940346784   -0.02445553108071    2.73377912800210
C         3.01367862020773   -2.56028997828143    0.15852312652863
C         2.81822834318193   -2.13489927388699    1.50849121171634
C         1.94459791241122   -3.14340969661193   -0.59659798345175
C         2.49024859443987   -1.64534458041196   -2.50428815144553
C         1.68996409270859   -2.70042563487681   -1.94981454144809
C         2.47219084512392    0.78704624205211   -2.89942994888781
C         1.86593058223078   -0.50101446354472   -3.09847927831778
C         2.03633777343970    2.77865645557403   -1.57560659144103
C         1.57858697953600    1.87663263374542   -2.54335380404954
C         1.76807617917886    3.16409176563332    0.69265588883617
C         1.13287787990657    3.26082131229274   -0.59873410079241
C         1.62494217325578    1.88810254958192    2.69565634614311
C         0.97929541658615    2.74895390787097    1.80315163071571
C         1.60269064292666   -0.31959442996885    3.30885870705760
C         0.84232053264614    0.87430493752378    3.34147124116172
C         1.57941498130312   -2.46823518231668    2.15944057918382
C         0.98817346668348   -1.56497117607933    3.12534684321392
C         0.87123707860931   -3.67005345192544    0.12609141490878
C         0.69901361753435   -3.34248165142095    1.49827931993590
C        -0.42882256476734   -3.85624946743312   -0.45313969175095
C         0.41639220670008   -2.84535967728176   -2.47741363263043
C        -0.65114083352103   -3.47008739313971   -1.75505571014386
C         0.47093493157535   -0.56877171498971   -3.41438908003074
C        -0.16146000738747   -1.81518078638860   -3.28732613435121
C         0.16160879762207    1.78766795501747   -2.73942996555191
C        -0.36072129355988    0.61549256214469   -3.38428793289335
C        -0.23176885062169    3.17601474926984   -0.75492480378898
C        -0.73760593168528    2.59236427446341   -1.96658082129837
C        -0.45752346940385    2.73276671103286    1.69374463040084
C        -1.03188606096333    3.17460474224742    0.44965876872423
C        -0.55765689313801    0.88223675235163    3.29569506425828
C        -1.25318754834112    1.89220550293642    2.53269056293832
C        -0.40501056978462   -1.57430979839559    3.34824257715387
C        -1.15857410592841   -0.38057283436977    3.47135657691595
C        -0.72444951492613   -3.36283045937224    1.75294132876924
C        -1.43785258009379   -3.61363561811835    0.52328028227902
C        -1.26127845454968   -2.52007129626902    2.68693729093502
C        -2.65171065918074   -2.97727416267988    0.20541501044867
C        -1.89537501612744   -2.87452608722602   -2.11539924202339
C        -1.57955455548558   -1.92683000917066   -3.14741164211004
C        -2.91262572826986   -2.61559380968817   -1.17845232434010
C        -1.75081798459735    0.46298411532699   -3.44846710364672
C        -2.36816976738742   -0.82008922306556   -3.31751076617856
C        -2.15667565891153    2.44399893028396   -2.08638399918961
C        -2.66445277997217    1.40794053766494   -2.88513046072685
C        -2.39814208996865    3.11761761985952    0.29278513126036
C        -2.99309952547315    2.90384342936951   -1.02021964620885
C        -2.66113232430005    1.71632445425360    2.27210656669095
C        -3.23928431990396    2.53510639091644    1.28376834263032
C        -2.48971603242364   -0.61759831789848    2.98472434673821
C        -2.54060416469332   -1.92761606133514    2.44545005178403
C        -3.26770229532262   -2.19184894201936    1.25706434405480
C        -3.29030323706128    0.42323403416217    2.50024259937637
C        -4.24093643398097   -1.24127035990184    0.94064414499706
C        -4.35273595985705   -0.01172954461776    1.65858827809183
C        -3.85552379760972   -1.55938485051782   -1.49600478784431
C        -3.59344735657202   -0.69289107520390   -2.58597256636760
C        -3.87855866557488    0.71367372687767   -2.52212352140571
C        -4.63837860947739   -1.00195379079783   -0.44333437747116
C        -4.27153829357406    2.39121322856224   -0.83020611067934
C        -4.44228561857511    2.16208946486552    0.60563736628281
C        -4.98500555733859    0.91130234388043    0.78177073757566
C        -4.70010381921456    1.21206569538307   -1.51988253915012
C        -5.15949642683183    0.28830952866310   -0.53055219163412
