76
C76 Isomer 16017 Symmetry C1
C        -4.24005184249596   -0.31205404296432    1.90834251188407
C        -4.70257664731805   -0.20988609325890    0.62087167841816
C        -4.38933567167110   -1.46573674080808   -0.07442574246888
C        -3.70030819016922   -1.66247308059715    2.07793692153726
C        -3.69291186943747   -2.32547469321648    0.81695012252759
C        -2.52154436095197   -1.55353238020289    2.78872748227603
C        -3.28876230384279    0.62573933115132    2.43726289827873
C        -2.29858822984509   -0.14709682766144    3.10479894502774
C        -2.91603115022464    1.77811841139288    1.72395898058012
C        -4.28501688425759    0.88289478682349   -0.17773584455688
C        -3.54234059232689    1.95567786262188    0.42074969787221
C        -3.83293345398989   -1.10356599248897   -1.30070425123975
C        -3.86210168261095    0.33901772732745   -1.42937719278859
C        -2.76881763562900   -1.83914618169248   -1.84947160551767
C        -2.53228921031461   -3.00479654830711    0.36318076573816
C        -2.26126093672167   -2.92927414374223   -1.05092040729103
C        -1.42816864433832   -2.41168692242177    2.47861363937323
C        -1.41931247449622   -3.18717261852446    1.26852900896795
C        -0.22155614809575   -1.99174789240146    3.04362411979026
C        -1.01180450037730    0.34243831448311    3.29642475916962
C        -0.02257354656743   -0.65244089529927    3.49111903179104
C        -1.59332518894178    2.34174095929446    1.97072051362665
C        -0.64433201461788    1.64092221799634    2.79085508611696
C        -1.11232953933485    3.36162477778150    1.06987023260797
C        -2.92553983697212    2.77993049820583   -0.51467111872206
C        -1.80569098264790    3.62210225783528   -0.14848531079370
C        -2.93826133359163    1.01159046777910   -2.23751394194955
C        -2.73993634321030    2.36110229993550   -1.86922913795561
C        -1.89669488092241   -1.15367096634573   -2.77895187272077
C        -1.87910310596186    0.28244142529460   -2.89138208378791
C        -0.74633229091099   -1.82622574360231   -3.19894813527748
C        -1.08050046225278   -3.54631319962715   -1.49101102099878
C        -0.47776091093213   -3.12049408826781   -2.69063042179486
C        -0.13819764438952   -3.64917114900619    0.77331567956905
C        -0.05006271023104   -3.97523623330539   -0.58656545453353
C         1.03683026900687   -2.49826253888425    2.60501615689360
C         1.10482307437497   -3.32984389362376    1.47104505946690
C         1.35233033396099   -0.35872201420681    3.39308862020638
C         2.03054197951351   -1.53422510437464    2.91956561327586
C         0.77200929763023    1.95051326344542    2.75428004061003
C         1.78744551225160    0.94636927353615    3.08220349408373
C         0.26203594694137    3.66347308755237    1.06006077725880
C         1.17446464497775    3.01157599892241    1.93543832774693
C         0.97657171195786    3.93015512581894   -0.16920970652294
C        -1.10088683682237    3.91728871880594   -1.32332208248003
C        -1.59874809166874    3.02859299273561   -2.34607349426431
C         0.30901185244755    3.87604338486205   -1.37714826647144
C        -0.62560428224685    0.93486019965977   -3.15350501409660
C        -0.51629180307733    2.31892896262349   -2.88291667972569
C         0.70193263283062    2.87983950818623   -2.34949538186723
C         0.51796760968431   -1.16829409814839   -3.38278078674791
C         0.62713400455704    0.20943221958319   -3.20002879072712
C         0.93629238650682   -3.28042232993422   -2.57659551874913
C         1.20246138454046   -3.86102431220588   -1.30708307090115
C         1.55569799439537   -2.07389998210858   -2.96924784230153
C         2.33344902726452   -3.26282905730360    0.76705202270306
C         2.34191179582538   -3.43749926207451   -0.66750385008834
C         3.22407573478294   -1.43796123531087    2.18556824747517
C         3.35651900288405   -2.33408235709748    1.09680482544894
C         3.09562340173699    1.03067093519645    2.55572834548955
C         3.80672998962554   -0.14302509303385    2.09770753805788
C         2.46686290762517    3.00941495893075    1.29826089926006
C         2.27240186365521    3.36421626080541   -0.08150680359121
C         3.42959759793835    2.09515715735052    1.64569573407442
C         1.85822530199826    2.10882506162111   -2.16832802853823
C         1.86291882388224    0.75128768265240   -2.66676156176359
C         2.76097141295087    2.51771666238703   -1.10968125894112
C         2.69357976604100   -1.59303518080414   -2.29022304022094
C         3.17019255985092   -2.41708093599826   -1.23968763638405
C         3.90036546013440   -1.84805724752043   -0.15568717085208
C         2.89434233924993   -0.15476133787720   -2.22518678303238
C         4.51793162136234    0.20998594544208    0.92636237283945
C         4.23831546027371    1.56774970326659    0.60423645375915
C         3.78911642164637    1.62503601632988   -0.74139025514325
C         4.37434533115093   -0.55985290741483   -0.26628213529106
C         3.85785777895794    0.30960086402678   -1.30329790270434
