72
C72 Isomer 9302 Symmetry C1
C         4.52205434191801   -0.59779096764122    0.89744745829506
C         4.54524211807679   -0.98543646309073   -0.43612578609610
C         4.43653952035818    0.21196267694101   -1.27337823860994
C         4.51749622397926    0.84103394060412    0.95320797557715
C         4.43665806216696    1.33677201138170   -0.40837819686112
C         3.55615226181580    1.23004084398808    1.89013089467303
C         3.50076038338559   -1.10164850984698    1.78498737935146
C         2.95750138105119    0.03013777996796    2.45702681435376
C         2.67241565313483   -2.16896249159401    1.41402439638485
C         3.64155763138133   -1.95680825807009   -0.88691800838321
C         2.86880997717858   -2.69796353594693    0.06177647797977
C         3.37622631893184   -0.02163309486277   -2.16450955945761
C         2.97651092377861   -1.39690689568995   -2.03058456401757
C         2.36008922397384    0.94402519668464   -2.41519250219140
C         3.52188617616213    2.33209941150197   -0.68486847795164
C         2.58887340350296    2.18261970474075   -1.76756901781009
C         2.75779142435594    2.39678697164530    1.68157871155831
C         2.81281664461884    3.00727572864721    0.38606039959316
C         1.53717467603586    2.44666593347760    2.36735548394123
C         1.63026591404345    0.01898196524606    2.89732717069493
C         0.98689886763191    1.27598962245365    2.99588037306506
C         1.35918765753892   -2.27821196363411    2.01365557922479
C         0.82548445080242   -1.16458501655449    2.74618831164843
C         0.45830182736625   -3.29759749283688    1.51089983917928
C         1.84905297885823   -3.41653719491632   -0.52304774221509
C         0.73851437478796   -3.91240784819881    0.25136978077247
C         1.70341052118490   -1.81700308223296   -2.40816199389727
C         1.35901081436526   -3.07136080749005   -1.83759683047768
C         0.99832931705238    0.53508843298172   -2.71077239488976
C         0.66124613098343   -0.87281871361354   -2.74874688012842
C        -0.06370501690106    1.48990292805724   -2.61540200095596
C         1.49222128626113    3.03162434904600   -1.49439585496798
C         1.65097473718062    3.57739255571705   -0.16086960981607
C         0.23715671936010    2.78665536574394   -2.04125864599843
C         0.43794526057935    3.23775666680318    1.90953431433791
C         0.49582391114494    3.82333060067331    0.62555895093760
C        -0.41699027148529    1.39081738166874    2.97376714385767
C        -0.77607904611441    2.63097959117813    2.34437188370164
C        -0.60152621821980   -1.03088343439652    2.95274316925067
C        -1.25395083458990    0.26573313413786    2.95534228108203
C        -0.89074796900180   -3.26728244478594    1.88809423163416
C        -1.39750836344885   -2.15296193650431    2.66551256560560
C        -1.94355700381773   -3.66339671068777    0.98373036764826
C        -0.29634556159698   -4.18030099166590   -0.65219958022421
C         0.04807352766254   -3.51561517889694   -1.90770565515709
C        -1.63666023555208   -3.89895411811445   -0.36094550518189
C        -0.70766932784790   -1.29024205806470   -2.62378985253501
C        -0.99522896222201   -2.63652067562773   -2.23245013999958
C        -2.10858063846910   -2.96840637507425   -1.37164652913859
C        -1.44910598671515    1.06407779613349   -2.64202545976192
C        -1.77083630167678   -0.33462046495742   -2.47097756530377
C        -2.45530448043406    2.02337019467990   -2.33986848211706
C        -0.80133521631025    3.57458387941809   -1.46121138790581
C        -0.71300487788189    3.97455228364198   -0.05952320465350
C        -2.11257602251969    3.29256810432895   -1.76129439449694
C        -2.00631257784199    2.81235808729568    1.68220383428985
C        -1.96804416390418    3.68302685521966    0.55065137231931
C        -2.88087978264687    3.46996372185359   -0.52899634681723
C        -2.58679979777910    0.47396137021664    2.43651262984683
C        -2.94996464854917    1.70436012431160    1.73494227055902
C        -2.75300849056689   -1.96775790969171    2.35598724856244
C        -3.05569633014443   -2.83211830529022    1.23147170833321
C        -3.31158564218815   -0.69459135675876    2.13061237492125
C        -3.06307164313642   -1.99742035766863   -1.07613309306656
C        -2.97231311103366   -0.73415891302580   -1.77737758222121
C        -3.64997684433912   -2.05139073890250    0.23379191397721
C        -4.02117944446068   -0.80887993930398    0.87829036424036
C        -3.62322866757095    1.60633082457650   -1.66066854144026
C        -3.78851928043562    2.45147455845182   -0.46164568769576
C        -3.87976889683759    1.59532291052315    0.67357724519238
C        -3.81837845987942    0.28926782111404   -1.28603759196178
C        -4.19601452649138    0.30028292058503    0.12465998781335
