64
C64 Isomer 2871 Symmetry C1
C         4.22332853660760   -0.25203457524770   -0.80422116646766
C         4.24458098351829   -0.66309851200766    0.53102803813672
C         3.47537887184594   -1.90035043906404    0.60960940255207
C         3.49890166034368   -1.25751051892019   -1.56851761826016
C         2.98631224413359   -2.23680603149844   -0.68494176916627
C         2.63985863497163   -0.60661775241170   -2.47404769219148
C         3.70502808665699    1.01401056051634   -1.17097092146495
C         2.76895199108784    0.81150587995674   -2.27135700335212
C         3.35647293675105    1.91090378407815   -0.15974542701978
C         3.79453577730190    0.19920051304649    1.55826640845879
C         3.42587761154191    1.51105543018601    1.22396021256409
C         2.60665425050158   -1.83191442030098    1.70853309804116
C         2.87649033033894   -0.57534082878759    2.37807327501238
C         1.29948592574301   -2.37635007566627    1.62435797431340
C         1.66829311645220   -2.73099606201383   -0.83719290315764
C         0.91234148224565   -2.98653527048398    0.37400626823521
C         1.40446523603851   -1.20954889300702   -2.79486792438445
C         0.97230222006078   -2.36840602387745   -2.05325004460298
C         0.42220031089329   -0.32128063641176   -3.29971190441556
C         1.67075602035165    1.65342771289300   -2.47340322905471
C         0.55775738478181    1.07327426692311   -3.14386169360456
C         2.20079611182955    2.75093717148683   -0.32826197983853
C         1.41814351880575    2.72025721426426   -1.51216806044523
C         2.30418673764702    2.12548969655937    1.88034821952004
C         1.58168610889709    2.93833752133079    0.94215150136140
C         1.83351284242913    0.03546808326392    3.02399880483897
C         1.56290010934797    1.44234402380609    2.82651755566309
C         0.27333686940235   -1.83351180936911    2.48940221499342
C         0.57919824597827   -0.64145886339732    3.17547417493326
C        -1.13439807346892   -2.12235253512254    2.25783144945425
C        -0.44934292541019   -3.32122051121412    0.22540572510756
C        -1.47389393638099   -2.93086859480849    1.15857850817789
C        -0.39930584117604   -2.69798351493775   -2.13856365955658
C        -1.02016122170673   -3.33231146577066   -1.06248654291608
C        -0.98836511953726   -0.62349054918717   -3.23805942274454
C        -1.39726798117397   -1.81369390295902   -2.71275420794824
C        -0.77152657465303    1.63389316981620   -3.03088955820935
C        -1.74141068585875    0.58700032562649   -3.01582857979055
C         0.12606690378846    3.24699412022240   -1.40386453554668
C        -0.95693387721098    2.77184497714821   -2.26298303932722
C         0.19746176608588    3.18868131091272    1.07574380483909
C        -0.45252010766024    3.54718382085754   -0.13017787757811
C         0.15192968810765    1.64561592733620    2.94459496511883
C        -0.41378739591297    0.38400124626247    3.34437436154664
C        -0.57471820720337    2.52399085563230    2.11039072493715
C        -2.12632341783592   -1.19847540375103    2.70071433572512
C        -1.73928868744344    0.11698079219793    3.14675190604998
C        -3.32522299154984   -1.01631218167694    1.97883245045020
C        -2.69656379566315   -2.70166150412306    0.40534601214752
C        -2.39139814977948   -2.86631477632605   -0.95833609543111
C        -2.60611166626289   -1.85521097923215   -1.90300793287279
C        -3.54761281851130   -1.64719732814570    0.72474889653085
C        -2.87432714824228    0.60162455544803   -2.15830728662254
C        -3.30063178370172   -0.65534212364195   -1.54511263830386
C        -3.86285944013431   -0.62998756206428   -0.24724542991621
C        -2.16722421941689    2.87707793169254   -1.56492264188093
C        -1.85330868488999    3.36829674122866   -0.23781103983091
C        -3.08707440533953    1.81649610947154   -1.44823429741670
C        -1.99290321885900    2.25208200441479    1.92127564258303
C        -2.57060199067039    1.11000046599450    2.51850570318096
C        -3.59502576280980    0.38108865020824    1.85241874000341
C        -3.93770592415471    0.62394503447102    0.49801083527439
C        -2.61401320043778    2.67661008378896    0.70190438998683
C        -3.49536326143108    1.79856366438412   -0.06105147641923
