76
C76 Isomer 11605 Symmetry C1
C         5.16136484869441    0.26306712604445    0.32959888728286
C         4.87926923196269    1.45678257466935   -0.31449556557830
C         4.45577400293416    1.13818390580067   -1.68418518039768
C         4.96957851350041   -0.82653774429365   -0.62816680610378
C         4.52617965644734   -0.26796017258523   -1.87061857034875
C         4.21067346363731   -1.81533465354909   -0.00107055840878
C         4.48804558596520   -0.08924875883457    1.53908465284776
C         3.91939299940690   -1.39470597631954    1.36796131540471
C         3.71885603166015    0.87915687944614    2.17866120369204
C         3.95529438181986    2.38059278060936    0.23778085219337
C         3.49581460966778    2.14261596593300    1.53914974909680
C         3.27666099101684    1.85470135648554   -1.94035352998904
C         2.98672729134123    2.68735864357566   -0.79554782899592
C         2.19535534271842    1.25595591141993   -2.64672139650409
C         3.46458099018100   -0.87976973778391   -2.54587617245021
C         2.38036526794858   -0.08693767466053   -3.02846686354736
C         3.23663651319731   -2.54910209864240   -0.75356793546790
C         2.90069665660439   -2.10729842953308   -2.05222817481814
C         2.21065062161108   -3.15244005652538   -0.00651100323799
C         2.70994144704108   -1.75702106949185    1.98540907484236
C         1.99064693162044   -2.79830310167607    1.35070331657479
C         2.48123502135695    0.50309843561219    2.82268076275651
C         1.93843294450992   -0.78734861878942    2.75782796198277
C         2.16974297352090    2.55873289666996    1.86123667184319
C         1.59411402372587    1.61727115444440    2.77103285097670
C         1.67283334426835    3.04469568097798   -0.50676308033011
C         1.33823855094602    3.15351695106513    0.89532284379723
C         0.85653410315714    1.75365267933913   -2.44799002679966
C         0.60991407087181    2.72621675716587   -1.44612945408284
C        -0.26839666343140    0.97093060299118   -2.91464546040216
C         1.22657321478236   -0.93668048507220   -3.08274360323911
C         1.52864070094229   -2.17565761795092   -2.48430535017413
C        -0.06982858578580   -0.42930836793819   -3.09901118117526
C         0.92626461520909   -3.45806481729457   -0.57053440229976
C         0.51692918479306   -2.87752840561046   -1.77511856548475
C         0.62413454106171   -3.02933164464335    1.65682018475502
C        -0.01951825210122   -3.52230200061364    0.48626248897900
C         0.50817820388423   -0.95074378447740    2.95840142979102
C        -0.08847671429513   -2.19679826423472    2.54639946191024
C         0.21064330215854    1.46799110842454    2.91578200364558
C        -0.37198864840142    0.17373013953854    3.09615145371484
C        -0.01242139968725    3.20924525449792    1.23474397402830
C        -0.57167189863568    2.46675619879255    2.30568276970798
C        -0.76032633160431    3.03135599755693   -1.09311719650317
C        -1.01909171016717    3.38593034481284    0.23873121651285
C        -1.60168455193390    1.45740398716410   -2.77841434795418
C        -1.86890028156836    2.54722631426293   -1.88074695741653
C        -2.64491997367320    0.53512411698620   -3.07075560435861
C        -1.12478497914932   -1.36259903715042   -2.78874909834853
C        -0.86930799584080   -2.51246416365186   -1.95968939646489
C        -2.40763222408092   -0.86557197353196   -2.89417715783562
C        -1.39496654153827   -3.37581183107011    0.26443539775438
C        -1.87273674684840   -2.91314800371374   -1.01883389677981
C        -1.47357338535308   -2.32827649962386    2.49737867002123
C        -2.12289312545542   -3.05101180147660    1.43103005621070
C        -1.81637651075321    0.05234884911765    2.94093817210123
C        -2.34011218534532   -1.23778892283421    2.83943391947514
C        -1.96482639450062    2.30274735545556    2.05945742425739
C        -2.25890820054107    3.04560539075604    0.85988350450360
C        -2.64451703153854    1.12934014434448    2.38298633977715
C        -3.18006728029304    2.65170746873581   -1.33334024267789
C        -3.33805827131058    2.74011706102274    0.09189544956218
C        -3.97074852962945    0.75860661212409   -2.62653013805192
C        -4.22777052733151    1.79409715931894   -1.75178033096085
C        -3.50455272409061   -1.45215547842493   -2.16002509070298
C        -3.21826159760292   -2.37033441699397   -1.10821049359097
C        -4.50411167922642   -0.47996117759105   -2.04965175876547
C        -3.43198804470266   -2.56051306329098    1.30961970305016
C        -3.58972410853448   -1.46576190664374    2.19757587911142
C        -4.01405739724704   -2.22465871028042    0.05747711187283
C        -3.88809357345392    0.87080207488321    1.65258048110393
C        -4.26223787464521    1.72550768382484    0.56274102991939
C        -4.90961612112084    1.22886728847145   -0.57363577181499
C        -5.07182337049138   -0.17284105662134   -0.77788110046548
C        -4.34245538627797   -0.46166484856409    1.54340663674180
C        -4.79148735597697   -1.02305448035784    0.28532439072918
