74
C74 Isomer 5947 Symmetry C1
C        -4.49951585171014   -1.08444447942324   -1.71475509308584
C        -4.64488230722517   -0.29606561487073   -0.51375229707345
C        -4.15159128574986    1.00507230277319   -0.78199000862320
C        -3.70258783759076   -0.32336275673409   -2.61062759774245
C        -3.54639905945080    0.98137469724960   -2.10560852009995
C        -2.50441479392959   -1.05472750599457   -2.95497777205691
C        -3.73523624244377   -2.22753010583062   -1.38165547999166
C        -2.56332705902839   -2.28255968970721   -2.22459549245832
C        -4.03078460840148   -0.98796965105949    0.55947105676061
C        -3.52453970901604   -2.24519460730199    0.02102028350054
C        -3.28982462370842   -0.31052111678637    1.56122257371165
C        -3.55706860031357    1.75308508991162    0.24804537775866
C        -3.15012559076097    1.12212629692718    1.48244975317059
C        -2.81343599112918    2.85731169435363   -0.23491067236924
C        -2.34504015686980    1.68584765726453   -2.35712270487664
C        -2.15749810598751    2.79543850117490   -1.52828127984325
C        -1.27372676773484   -0.40107055194497   -3.12340530684922
C        -1.18489632863661    1.02937388396139   -2.92106361416369
C        -0.09102634509093   -1.21435071570326   -2.99735250421232
C        -1.40955771347176   -2.88694322754720   -1.73980227761060
C        -0.16175679039429   -2.47081536586506   -2.32463418901825
C        -2.38866408167832   -2.86917445808637    0.54100256659284
C        -1.43927689698034   -3.42616744112812   -0.40009667492145
C        -2.33823539488119   -1.11055738625754    2.29807781809774
C        -1.94740400090874   -2.43226938921831    1.84431835724061
C        -1.43351225531019   -0.43044822675058    3.12785901663664
C        -2.11998496072194    1.77700613670357    2.26554598026054
C        -1.28512433624093    0.98067745798295    3.06596913488320
C        -1.98474362783094    3.58105711768770    0.62414093835969
C        -1.56128669774893    3.01914827609500    1.84687478784074
C        -0.87851367402896    3.40183665107595   -1.39728285676849
C        -0.81767002020013    3.99824756852492   -0.10762648818612
C         0.10303359730046    1.62512306682794   -2.76186541868331
C         0.26733755953435    2.82013770309304   -1.96528973701340
C         1.17666728608210   -0.58078712302812   -3.23240866178526
C         1.27353676032008    0.85664863850526   -3.11231515704427
C         2.33811317013716   -1.36360766485742   -3.02365528729459
C         1.04212326595755   -3.03024573440410   -1.77947529881019
C         2.26998723673513   -2.47228324275542   -2.13497253112723
C        -0.23338871291157   -3.91387056841934    0.12099490701336
C         1.01223266398822   -3.73300213075548   -0.56241354256097
C        -0.74554200644691   -2.99086135783833    2.32347143694406
C         0.01040861504129   -3.84357300495926    1.50396088316790
C        -0.14272217652225   -0.96383688072580    3.46098709803898
C         0.21740980497856   -2.21874024797209    3.08224867142477
C         0.11207758813430    1.29357338041145    3.28294850076551
C         0.83266203285229    0.08996423530159    3.43682387070028
C        -0.14668544927956    3.28637990364025    1.96454637928087
C         0.30380007183907    3.84076265140850    0.71298877508491
C         0.70366374203991    2.41402495034562    2.65850985002721
C         1.52104972377529    3.08241085774042   -1.28442826543747
C         1.53223785101673    3.47833416337414    0.11790076446684
C         2.53262720272132    1.42823294182001   -2.80392143716640
C         2.64282306473821    2.43036567813871   -1.77706909370172
C         3.60277392130704   -0.75214064057731   -2.79611538482691
C         3.69329454747532    0.61325659281408   -2.69206204184513
C         3.35615138155826   -2.34727199759715   -1.17085761525744
C         4.18554945456326   -1.32298983220345   -1.58146651299372
C         2.03904402053586   -3.48400533303373    0.42632473196822
C         1.41677718340129   -3.52739436978333    1.68035983372945
C         1.55841935475459   -2.46555675431412    2.58112186552771
C         3.08347494795615   -2.56313360850554    0.21330612658656
C         2.12202004710006   -0.12089732167104    2.86711726644080
C         2.47781405894660   -1.41182756306947    2.32639399397812
C         3.34304187877009   -1.51112585003845    1.16307130703524
C         2.03261882171277    2.25896818912959    2.20104409819887
C         2.47037025062951    2.87163220829298    0.97515722957179
C         2.72564962875497    1.02514782817951    2.31614459912820
C         3.74940454105560    2.06193045218881   -0.91058327160689
C         4.38133383483658    0.93222418299606   -1.43461017373883
C         4.51208546965922   -0.26269149428526   -0.67958366724732
C         4.02780766626374   -0.32252562196232    0.67557226091451
C         3.55268091884796    2.10979068958470    0.46794202745485
C         3.68688689501390    0.91802898748745    1.25169980582905
