78
C78 Isomer 13492 Symmetry C1
C         4.96896670645433    1.58093861911209    1.09737518392414
C         5.24192201985018    0.24370900930563    1.33602669384836
C         5.45256167859816   -0.42067164187792    0.05001601126675
C         4.91190518628317    1.76458518980086   -0.35828715616312
C         5.26314323224193    0.53854376511348   -0.99644477250731
C         3.70783503608361    2.40924088844262   -0.65060989502986
C         3.83323029544238    2.20384661428850    1.67928283541216
C         3.06767282417925    2.78247195548484    0.60311834384507
C         3.13502601635973    1.51844469339936    2.67443423105031
C         4.34388462099054   -0.54717394953924    2.11573444269954
C         3.37233842213226    0.10853207351038    2.86225843023863
C         4.70864559290170   -1.61173033464300    0.07409350415778
C         3.95872721865644   -1.69485259860676    1.32404465376557
C         4.10743434915781   -2.04402443645845   -1.11870845767529
C         4.52578355368313    0.16116259118997   -2.12928434808905
C         4.17159276188034   -1.21322666824736   -2.25485323593611
C         2.89238307033100    1.98708813704313   -1.75168097060630
C         3.36591749469329    0.91788144593885   -2.53100490958326
C         1.47920315396192    2.24769349157939   -1.69542809085823
C         1.68932907407030    2.91392563972933    0.67710593003998
C         0.92102149328045    2.85758306928587   -0.54639937590245
C         1.73034626213045    1.72953073402997    2.79636198350132
C         1.00967143624087    2.50410016763454    1.88224256070782
C         2.09654160143018   -0.51413981491667    3.04583632114967
C         1.10931798172216    0.50747423106873    3.20422870837215
C         2.65106656613910   -2.19701404826178    1.35551413232738
C         1.71829979984905   -1.65883214497183    2.33304131686346
C         2.79738567972718   -2.65367491790423   -1.06932789811698
C         2.08368422788765   -2.74675192667414    0.13129265987829
C         2.89268280098599   -1.30470957808577   -2.91871789525690
C         2.38238381260345   -0.01335565864113   -3.07016225173395
C         2.08296613346854   -2.25274505992641   -2.24724936124137
C         0.55360569709882    1.46734055306984   -2.48439836909708
C         0.99636197025330    0.20828644081445   -2.98013251251543
C        -0.83155071209230    1.70405471063840   -2.42084048191210
C        -0.47939737014294    3.05775539913119   -0.45371800639088
C        -1.30625540088656    2.77414319204569   -1.59207884035277
C        -0.40902791713437    2.38739150365381    1.89216561506288
C        -1.10912117982835    3.02861221708527    0.82775425621208
C        -0.24879288727249    0.27383834722058    3.04343094300335
C        -1.07882868114077    1.35235524911197    2.60077439601735
C         0.31838436441538   -1.94517408670102    2.26230659896631
C        -0.67775703034769   -1.06723748225253    2.79606614591974
C         0.67239837554271   -2.93207278158384    0.03117926421406
C        -0.12202966535367   -2.82735988216321    1.22598845606530
C         0.70037255018959   -2.09225450675643   -2.24463097764460
C         0.11112610354950   -0.91117545044432   -2.79385819368259
C        -0.02039910729749   -2.71868806508803   -1.18919332742820
C        -1.75278997318289    0.64082274282065   -2.74488869053428
C        -1.28210502231527   -0.69534982864529   -2.64828609528121
C        -3.13723544102385    0.87184492054911   -2.58835263261301
C        -2.68680104071995    3.00128975462991   -1.49821578796338
C        -3.59914278710466    2.11694861479883   -2.16509254220145
C        -2.51024400726386    3.04137190422585    0.91239550383231
C        -3.27021078622850    3.28704770935281   -0.24051083113106
C        -2.48668293952327    1.12624372493661    2.44070044655289
C        -3.21703503256246    2.11419543684801    1.76403072716104
C        -2.08233704126855   -1.31453257828056    2.63999815070211
C        -3.02968888068623   -0.21094102094022    2.57411528710252
C        -1.46223063443226   -3.11434233278021    1.13762476667647
C        -2.42576904560371   -2.54399197318474    2.03681120590745
C        -1.44623076048481   -2.67504864300370   -1.25771208525209
C        -2.12703547296880   -1.71702724266072   -2.05825023631559
C        -2.12001622567635   -3.24996775744547   -0.14885133512823
C        -4.03648124420073   -0.16895611958442   -2.11293114411456
C        -3.53574758268566   -1.45673195864667   -1.82218453783834
C        -4.75019505648715    1.87149372525471   -1.30861607605211
C        -4.51722702507415    2.54086735365912   -0.11735898096775
C        -4.47699952917092    1.82825996543570    1.12854410342338
C        -5.03371029289124    0.47302564744743   -1.30010663985903
C        -4.31853703569773   -0.44071055029609    2.02285746463204
C        -4.97020176030522    0.54014363325138    1.17681964169942
C        -5.37115288288226   -0.11794145113452   -0.06724305075659
C        -3.69233983094262   -2.71946509407848    1.42909035737767
C        -3.48083286677339   -3.08113243071378    0.02844915461810
C        -4.22657272973727   -2.18134461114169   -0.79371165010404
C        -4.62468415972181   -1.70716321929294    1.45273977740501
C        -5.09772212535368   -1.48157321636530    0.08247143823664
