70
C70 Isomer 2366 Symmetry C1
C         4.21028293334304   -2.65704385059701   -0.81864427092164
C         4.28629470500054   -2.37641923009955    0.57525238955616
C         4.61947924825363   -0.98878749468385    0.75880805140455
C         4.29405712784418   -1.42232445852400   -1.49679761350566
C         4.64676292601029   -0.39813454227255   -0.55148186619463
C         3.10463211201143   -1.23512232984134   -2.26946958089002
C         2.90472186515365   -3.21096023377101   -1.07820007215851
C         2.26571054886768   -2.39589331573139   -2.04685486249677
C         3.11398675033285   -2.90158737667808    1.18973057295351
C         2.22615746912893   -3.43436888990895    0.14402164169944
C         2.52602768876484   -2.17761525351401    2.21336960020753
C         4.02342488712975   -0.26000604905609    1.82472981966156
C         3.00194148757300   -0.88535820806949    2.59016808771089
C         3.90495582701324    1.13055739463623    1.65297343236642
C         4.23158370220822    0.92464195551901   -0.77917458202245
C         4.19705973155984    1.73564042559323    0.39362466552422
C         2.53948093230782    0.04554211217148   -2.41656980931912
C         3.24224495785387    1.17995577921746   -1.82632836115134
C         1.12957244252251    0.10946554657408   -2.70262640759463
C         0.87958495875398   -2.27583487905664   -2.02998072968813
C         0.33928797157771   -1.08797251374483   -2.63095061030266
C         0.83137945391510   -3.27391312843213    0.20414222428869
C         0.12238374018255   -2.90335904059326   -0.98619230014527
C         1.09271924542486   -2.21274589915986    2.37679556440255
C         0.22644853141478   -2.81209978737878    1.43968604186290
C         1.85726293918453   -0.13447165294112    3.02128427679306
C         0.71927832671781   -0.99249380107059    2.97689206221532
C         2.82396800695646    1.90291140224661    2.26421240646828
C         1.67816295242985    1.23931674785484    2.80447004278653
C         3.51379567893149    2.98041146663306    0.37405151109682
C         2.66034979592978    3.08851510687906    1.56108497744440
C         2.53051640327083    2.38716285879217   -1.77498625733618
C         2.75886378153296    3.33019083213329   -0.71615111648354
C         0.41115190046447    1.34104458217387   -2.55028268727463
C         1.12686879139255    2.43709567794997   -2.06204232614350
C        -1.02989235096279    1.39277795844359   -2.43185338069418
C        -1.04696372519000   -1.00413114158999   -2.65832305534377
C        -1.75905306742830    0.23337368008017   -2.72173565764974
C        -1.28520753928136   -2.67046842140010   -0.91556358414090
C        -1.88020739085207   -1.92908842960394   -1.94872749925229
C        -1.14268961378628   -2.46765267341568    1.50486392719398
C        -1.98541310717892   -2.69763983140199    0.34746755371963
C        -0.58127525822165   -0.49949480409044    2.88944537168022
C        -1.55859874004188   -1.44228912281026    2.42072573657956
C         0.34812643327624    1.75329497248652    2.54369999819994
C        -0.79600464141088    0.89706476519860    2.73116883720370
C         1.36377313483280    3.51495283812161    1.15767002682971
C         1.46017430529466    3.80312696037406   -0.23265683484896
C         0.49384097629289    3.30481906967589   -1.09374347226333
C         0.19949016396501    2.86439270970532    1.64901122070582
C        -1.64494101026675    2.29510066460172   -1.49200564955804
C        -0.79418818485615    3.01429109342759   -0.60004822649422
C        -0.97388154888269    2.88963294412525    0.80714476515369
C        -2.94746784440604    2.06317692723943   -1.04487511243701
C        -3.10379196387654    0.00872483553346   -2.29398617389213
C        -3.19135698635785   -1.35550219016073   -1.82820807635598
C        -3.77522491940168    1.00779330086269   -1.57840971923699
C        -3.32752109395341   -2.31282037027148    0.38820691717250
C        -3.99115350384091   -1.68461172394579   -0.73894950182353
C        -2.87459555490827   -0.99680314160401    2.41364034136338
C        -3.83331367834028   -1.64223210205522    1.56007131054877
C        -2.10871643309082    1.32622752018463    2.32121474852073
C        -2.18501968604117    2.30499002556856    1.27589097519642
C        -3.26009841657675    2.21990401476993    0.34912842773698
C        -3.17725083138456    0.40203776511885    2.45368927640338
C        -4.72506638466719    0.64693593837899   -0.59432135051344
C        -4.89979722823032   -0.68769322824375   -0.21308577919333
C        -4.84971108374213   -0.73748895179190    1.23151734247531
C        -4.39549264799436    1.42228064750773    0.62263902937506
C        -4.40691039944859    0.56107754773089    1.71573335282489
