76
C76 Isomer 6694 Symmetry C2
C         3.11245131626851   -4.01987194346909    0.94262229688962
C         3.12777837397178   -3.87033899146327   -0.48196922593305
C         3.69921988704261   -2.60778334550310   -0.78060654421092
C         3.61029741598902   -2.80549531467021    1.53249588453632
C         4.06034123057027   -1.96678647440621    0.48715642315598
C         2.62215043901857   -2.29425803327161    2.40375163118944
C         1.77506689438244   -4.19981714652218    1.35431821343986
C         1.44962839346570   -3.15885383062049    2.27943388958939
C         1.82083148973212   -4.19858923565967   -0.96130833521791
C         0.95241335607071   -4.38187841325952    0.19223791134360
C         1.32901106631519   -3.45212149907944   -2.02214229804199
C         3.14794261840907   -1.78622524936288   -1.80055889843238
C         2.02413419934126   -2.28241336700488   -2.48998761337284
C         3.34268706188320   -0.36244754581377   -1.75310587589289
C         3.97552758179279   -0.58595160643366    0.62902219361224
C         3.96954903601852    0.20236766897912   -0.59102017772848
C         2.47161295353016   -0.91248860840560    2.53837569224712
C         3.33508964860784   -0.03228931199979    1.78964624986804
C         1.16994848972905   -0.44520833708717    2.94863374859053
C         0.16849514736260   -2.61343103509525    2.27957337619940
C        -0.00006447154469   -1.27067608041697    2.78570327814612
C        -0.34780564763283   -3.87647366839775    0.20521145996529
C        -0.81719946529030   -3.14014421522236    1.36075439816135
C        -0.06987139051924   -3.19940527025411   -2.11197370363940
C        -0.93841292327568   -3.46479288597827   -1.04534552207996
C         1.03192809062583   -1.37290867450579   -2.97941384110660
C        -0.24522812604493   -1.96708981648236   -2.82742068667493
C         2.46555948696206    0.50240189330369   -2.50429773155416
C         1.17322042560189    0.01217582952796   -2.91685334667624
C         2.59093919978048    1.88661904136667   -2.36923898967132
C         4.02892418884134    1.58473784603229   -0.44877791970841
C         3.56791099973010    2.41551667090946   -1.49507296718197
C         3.11492681649800    1.38767503236129    1.83711687005446
C         3.65407369231588    2.21936917120361    0.81830126156448
C         1.00410414445375    0.93688260348098    3.01128264296253
C         1.98167558803310    1.86403885579330    2.52428462376725
C        -0.28265409624047    1.50851480841005    2.85609507068087
C        -1.29094763704991   -0.69488360283695    2.71885939456293
C        -1.42168366313210    0.73547553233496    2.73297387248277
C        -2.10579359489628   -2.57905826832310    1.33677848987379
C        -2.39265759097285   -1.45669058234077    2.19068800242573
C        -2.21246866798127   -2.84393633910430   -1.06259333733282
C        -2.95237138074394   -2.75638442845904    0.16881211424412
C        -1.39793869228780   -1.21414018599428   -2.70732572316716
C        -2.50307531557688   -1.86569752133346   -2.06106421951395
C        -0.01145188495429    0.81671257954199   -2.75656958965692
C        -1.29233362894155    0.21845125543930   -2.69287411589210
C         1.40364208744098    2.72962106147766   -2.24704543836218
C         0.13220868134233    2.16230375766268   -2.25003668999617
C         3.04796203415559    3.62149587535242   -0.90659659002863
C         3.06221179033583    3.47168573049420    0.51880529818959
C         1.70892803489170    3.77646856806531   -1.32053357324795
C         1.26728793283242    3.02132396026888    2.05506015002841
C        -0.12711595291546    2.74398580811787    2.14128907257440
C         1.74835447848060    3.77618793170266    0.99494943068726
C         0.87997228499552    3.94412154414421   -0.16031259557277
C        -0.86474809298228    2.67185516642875   -1.33363734418259
C        -0.99744010806920    2.99409507883780    1.07230099187539
C        -0.41103137156722    3.41609624458454   -0.17670149606424
C        -2.53666802976848    1.36794726831409    2.08413234542223
C        -2.26045995102907    2.35117952387473    1.08626659328624
C        -3.64923101608556   -0.83080239587150    2.08144913690235
C        -3.72206086701772    0.63641429715743    2.00834232498577
C        -4.22814387977724   -2.18846010988289    0.13440754709078
C        -4.65021301830411   -1.34424283719220    1.23200247733205
C        -3.70138037726491   -1.15478167494264   -1.98841481783796
C        -4.68355534351128   -1.53773383722693   -1.06456866317414
C        -2.40826813435756    0.96101080150500   -2.16749836361573
C        -2.14316799342654    2.08846294568727   -1.31275561590561
C        -2.99558682845816    2.25081761414376   -0.14697115922533
C        -3.65407639646121    0.31363082919928   -2.06126870482079
C        -4.70844827528823    1.00229108376810    1.08188964802078
C        -5.39369472055457   -0.22631496773741    0.70141591413469
C        -5.39125694855309   -0.32130487561106   -0.68607581311396
C        -4.26138606592137    1.66076808345805   -0.11573049708159
C        -4.66611500842058    0.80946956431258   -1.21477189516713
