80
C80 Isomer 25980 Symmetry C2
C         4.93889242583829   -0.99497163195107    0.11896628907477
C         4.40301895667582   -2.23046643197625   -0.16264404722556
C         3.71764235035703   -2.70645141012609    1.03045721857383
C         4.61276887981789   -0.66435989985857    1.51359085825746
C         3.75309774847947   -1.66708449009789    2.02067634261358
C         4.25513150602158    0.67712924053068    1.56831003632138
C         4.66582443075717    0.14069778320683   -0.69540564326971
C         4.46434720419106    1.22019124698626    0.23302075182482
C         3.85722881531738    0.03490707969604   -1.85495936497365
C         3.54251391782539   -2.38406216025313   -1.28656582601318
C         3.32245506035884   -1.28669048908559   -2.16714149139749
C         2.50332777948876   -3.24619588259353    0.61435253050011
C         2.43059989397941   -3.16296484998441   -0.82558783569022
C         1.33611043616387   -3.08843047870895    1.39220864625362
C         2.56949998924030   -1.29841254844428    2.68880087403406
C         1.42688417788122   -2.18633368543809    2.52686592465286
C         3.15221302703717    1.10438925811532    2.35074194324637
C         2.33852651803306    0.09993341856013    2.98186355624623
C         2.57328831778080    2.38558992955591    2.00201122760812
C         3.75707873196632    2.31345600088170   -0.16120717764273
C         2.89447198268466    2.99776270337896    0.76611589866867
C         3.11557816507279    1.21385751152770   -2.27403156079868
C         3.19087630675313    2.36819884842100   -1.47136175987448
C         1.92998348193841    1.09553768796661   -3.10486418872769
C         2.11282830169012   -1.35374780873271   -2.88377741512011
C         1.45420012122064   -0.18974499037132   -3.41407148688457
C         1.18093488620249   -3.11062628054838   -1.43769428002537
C         1.10608523178261   -2.31348439357680   -2.59771107180787
C         0.07992267453846   -3.34708152683787    0.76503461863863
C        -0.01299120464837   -3.34589880244475   -0.67769954966431
C        -1.11148742714176   -3.09969442017244    1.52520564503319
C         0.22984793772293   -1.79404142761075    3.10810303811483
C        -1.02848282210746   -2.30426310014278    2.68582270885524
C         1.03932122219509    0.49209586218238    3.47156756039270
C         0.02852110782783   -0.47542132575422    3.62449801418703
C         1.32185925465555    2.74116885944997    2.52504108662496
C         0.57120034209801    1.80828154309960    3.31759142275895
C         0.41164609991949    3.58699895153228    1.84089385148436
C         1.92417853676219    3.69472496027858    0.00354055015694
C         2.12046524890135    3.32238668791434   -1.37756080643761
C         0.63396355313456    3.98077448169276    0.50204423787972
C         0.93789861969977    2.10486661215608   -3.09710449537962
C         1.03703744311176    3.22938080519563   -2.21091626164520
C        -0.44979806017529    1.81643969981706   -3.22722274623542
C         0.06872361094614   -0.47272672963988   -3.53532329096029
C        -0.14648745488661   -1.78961193924205   -3.01963531432372
C        -0.93170025706568    0.50531978237558   -3.38188258335890
C        -1.26630833428365   -3.07329529296263   -1.30469374608974
C        -1.34762063777070   -2.16934627131676   -2.43855337797423
C        -2.36168204772714   -3.13817980069983    0.91295102936321
C        -2.43515996909708   -3.21909700846806   -0.52696693660160
C        -3.46515545587572   -2.34771114934727    1.37443480735179
C        -2.02486545278635   -1.33400976696114    2.97250385268925
C        -1.35393936117378   -0.17743477511032    3.50340572797709
C        -3.23359943232520   -1.25325788821988    2.25560183864216
C        -0.81329985587821    2.11161767345590    3.18760134418192
C        -0.90046880511642    3.23776355904798    2.30223795847175
C        -1.81603290844436    1.11296044057196    3.19475700701271
C        -1.98292813695578    3.34324223102216    1.46906544867947
C        -0.48955840384143    3.98733553467692   -0.41014509107368
C        -0.27144336985580    3.59234407416789   -1.74932889368938
C        -1.19059694793082    2.75685453989710   -2.43416326298357
C        -1.78280487997037    3.71482110484369    0.08825792648254
C        -2.44573061354337    2.41420575160232   -1.91113855732160
C        -2.76055302271720    3.02885345736124   -0.67487562034489
C        -2.23501270601134    0.12678449338349   -2.89233640482602
C        -2.48070173168206   -1.26928854649803   -2.60011870938348
C        -3.03806498889540    1.13928801047284   -2.26068632184316
C        -3.64353089451689   -2.66625516981312   -0.94299944428731
C        -4.32363999760222   -2.18362231320894    0.25045451807579
C        -3.66806218515905   -1.62571455151950   -1.93233299563966
C        -4.14525097588781    0.72294588257797   -1.47820091188863
C        -4.84712620323664   -0.94274359517514   -0.03008504555506
C        -4.51766637060780   -0.61455268027232   -1.42527943890851
C        -3.75433708465197    0.07410245571102    1.94427514854878
C        -3.00032959393324    1.24472178260730    2.36408273230198
C        -3.06350981727548    2.40056227572507    1.56233630389238
C        -3.63025765679171    2.35294312812306    0.25215093871562
C        -4.56175370953242    0.18940565462955    0.78475209485327
C        -4.34905551896622    1.26743450876584   -0.14292055337524
