80
C80 Isomer 28286 Symmetry C1
C         4.26241937750491   -1.27437680818001   -1.57457837233227
C         4.32611606893408   -1.56983956200894   -0.19172744359486
C         4.44294560221070   -0.30823517194037    0.49102968279476
C         4.24005280095218    0.15538927013668   -1.74891820775602
C         4.36722855513100    0.74882390479527   -0.49383502371711
C         3.14902810714389    0.49998845163643   -2.60355913484611
C         3.25343943229848   -1.82053254802830   -2.38577379304983
C         2.54127630815604   -0.73258131116982   -3.02551372096198
C         2.53515696939297   -2.90800762608870   -1.91663341298061
C         3.52543097366903   -2.62668902734212    0.33827110880967
C         2.70809154406653   -3.36109911486494   -0.56958285579345
C         3.00421405369344   -2.44752604524108    1.64550653031388
C         3.82888899656691   -0.11260598671481    1.73919395484873
C         3.12857116736913   -1.19523360534060    2.32189499306076
C         3.34982498872811    1.18070560929819    2.04856635552096
C         3.71693840810707    1.98633991444727   -0.24835721891771
C         3.42286668740824    2.26199563821982    1.09316568828888
C         2.40698023075562    1.66443363957480   -2.37247570679521
C         2.84189822615670    2.52409844776284   -1.28543720163863
C         1.03769306967968    1.68319318314339   -2.83044418224970
C         1.17097317531624   -0.80150372849316   -3.25593918463974
C         0.46636162839313    0.45410240331810   -3.30642778977289
C         1.15973880688332   -3.04300018827393   -2.27094878059015
C         0.45972657121515   -2.03268918765899   -2.94003336124460
C         1.45684196977301   -3.93395027166454   -0.16718279248912
C         0.52206211309488   -3.79454841870969   -1.23036421608479
C         1.76719362309080   -3.04388722495478    2.05296300683471
C         1.00075879158901   -3.83377016205629    1.16808371177836
C         1.93389291737743   -0.97472849451941    3.06619785466804
C         1.11578097471365   -2.14311541664136    2.93331098360814
C         2.16565331253297    1.37634467243832    2.79698496637092
C         1.35238838614538    0.29617434146555    3.21036855690878
C         2.41958268901644    3.20920290660515    1.43819347041651
C         1.58161040290999    2.63808340472423    2.44587843506109
C         2.00228737429161    3.57271413706979   -0.93675854678743
C         1.86695199113399    3.98961039745594    0.43286385394191
C         0.16363210619112    2.74832201802416   -2.42815453425179
C         0.70174898087261    3.73864937868465   -1.56573060304555
C        -1.27349803518086    2.59138157648500   -2.45134560635171
C        -0.92419945047198    0.36825409255290   -3.42128653386607
C        -1.78383079959968    1.43116741461155   -3.05470843112163
C        -0.97614380171865   -2.04041603686756   -2.83407612253131
C        -1.63090756560969   -0.87684544540975   -3.25293736058346
C        -0.87232187120520   -3.74147718334631   -1.02739259919451
C        -1.66536044478713   -2.93466206686710   -1.92546877945333
C        -0.38758457835207   -3.86737652810894    1.38377571001502
C        -1.31768803670156   -3.96627166327936    0.29000330705962
C        -0.27688707884483   -2.05685901351109    3.05494951590353
C        -1.00468669646451   -3.07785211729751    2.39739976595030
C        -0.09013641392326    0.44937086504770    3.23188033971351
C        -0.88452512434210   -0.75279504242419    3.25391587855220
C         0.18659412709473    2.81154038487678    2.45107903948817
C        -0.67315845609475    1.69611532927270    2.82224930071605
C         0.53857376401079    4.41897809902580    0.62534407761563
C        -0.13677639348069    4.39625219073365   -0.65276291206845
C        -0.30799332751032    3.81687200600706    1.57285118671534
C        -2.09896981110471    3.19036887386627   -1.42449088661267
C        -1.46382527912586    3.97763102709575   -0.44533949211811
C        -1.59703018057020    3.66275364904525    0.94413686964389
C        -3.24778395513045    2.51589993593274   -0.96501577145903
C        -3.06082620319001    0.86343065143982   -2.70856049364824
C        -2.96142963022845   -0.56460699246370   -2.84782617153280
C        -3.79456840702632    1.39182912301819   -1.66767185297849
C        -2.97261671460804   -2.60048471796524   -1.51906016580467
C        -3.62563546146772   -1.40872248689520   -1.97411414589478
C        -2.57453860721339   -3.45508863801402    0.72880792141775
C        -2.37647837485589   -2.88975669987666    2.03494771764806
C        -3.42014711558487   -2.83555220994643   -0.17248457680656
C        -2.25463574681065   -0.64496286090436    2.97157731928117
C        -3.01173425655698   -1.71989755202485    2.38008003213772
C        -2.04615054447815    1.73453833110015    2.38676150435310
C        -2.48476213762475    2.68254627476612    1.37671291431958
C        -3.46738226553639    2.30247392879972    0.42701305531609
C        -2.82284715624514    0.57659964675542    2.52663997239373
C        -4.44545292166471    0.52047199325695   -0.72289846769465
C        -4.40016117970297   -0.85456671009298   -0.89082530972743
C        -4.22301703824264   -1.71449444307318    0.24740819584760
C        -4.00470226854667   -1.15397251648863    1.50504008910174
C        -4.20950066613977    1.08918470528870    0.57693548654960
C        -3.93452127762894    0.26874900697010    1.65365941002195
