78
C78 Isomer 2331 Symmetry C1
C         5.81018500122988    0.92669732308895    0.80684421906772
C         4.90299774729405    1.87731709006457    1.41894079006100
C         4.47821710902194    2.74178576257608    0.40865243027159
C         5.66475639633547    1.03068924406184   -0.63282091194428
C         4.89988658627259    2.15825159463122   -0.89697782497202
C         5.22182291441022   -0.22797129322520   -1.17871256993953
C         5.35446782784064   -0.35582855814574    1.14452239732024
C         5.23839518057906   -1.14265212239571   -0.05696867446437
C         3.88969308309328    1.14672593175027    2.14812136644360
C         4.19717925002686   -0.25181305293052    1.99378171882122
C         2.54144362282216    1.55888674591395    2.13120875383508
C         3.13202034533648    3.09397086486690    0.31534258166485
C         2.18536198824338    2.66975276198040    1.29695771867585
C         3.74645220984684    2.08589708261894   -1.71177719269191
C         2.75257603714949    2.87889497638601   -1.06231952858939
C         4.12451306719180   -0.28465814532736   -2.09874365144163
C         3.30070528353498    0.88790117693827   -2.34678863127381
C         3.44548595134116   -1.53023184007903   -2.18018914999307
C         4.36055214775013   -2.20028178226648   -0.01540497206980
C         3.70199054747799   -2.53359600862798   -1.22402747760235
C         3.15762043593731   -1.20886568720643    1.90913909755996
C         3.36813958553691   -2.30813385232620    1.04406977717831
C         1.48369272881039    0.58777991389863    2.35773922510137
C         1.79952334628555   -0.79536360676232    2.21533447105925
C         0.11214491161777    1.02049742860278    2.31859101223035
C         0.82772814034374    2.88823339323864    0.97342207204436
C        -0.22551838316158    2.27216157603395    1.71528181896811
C         1.42830839351816    2.79841096463785   -1.40435973726232
C         0.52789482417178    3.23199768605000   -0.37793817944862
C         1.88691501211551    0.76824724108815   -2.65198302486815
C         0.97661888070377    1.82789254995073   -2.34784663306106
C         2.04839605783820   -1.63614595776097   -2.55299123255445
C         1.24417316336625   -0.51970899663121   -2.79725441950969
C         2.45175714394500   -3.16945888908022   -0.89882219054065
C         2.22955731832059   -2.97128795711848    0.48384638484951
C         1.47698589258306   -2.72599217515766   -1.80750117983463
C         0.71662789813284   -1.66589963585513    1.89041689596296
C         0.92883293115017   -2.69907600016735    0.92511559272301
C        -0.95510282861098    0.07456153299134    2.45751991567474
C        -0.62129135364806   -1.27111376760869    2.15521850315247
C        -2.34447450578531    0.49352663503182    2.44289297532642
C        -1.59150987942855    2.58304444024997    1.39482422530853
C        -2.68782942796813    1.79611836626577    1.91727496639479
C        -0.77764147744984    3.33096669764990   -0.75817358391821
C        -1.82299415936446    3.29672110803375    0.20333263260469
C        -0.44402115588139    1.70745834354313   -2.53640967415159
C        -1.25004546159326    2.70089315785473   -1.94892255872323
C        -0.20543130700708   -0.67781323496805   -2.70503545290750
C        -1.08383133252641    0.44721231646161   -2.77601296395627
C         0.14936567232346   -2.70026567845745   -1.39946062988396
C        -0.12667090774065   -2.90477173784085   -0.01850700212193
C        -0.75295920203523   -1.83975602225902   -2.09552087982192
C        -1.67146892962423   -2.11629080493220    1.67234746341020
C        -1.44546013761173   -2.74272460277790    0.41406613455319
C        -3.35161195442732   -0.48481196465109    2.45082941283951
C        -2.98806003008103   -1.81431501035707    2.02580912326539
C        -4.71485211528354   -0.25271249439537    2.01901625886482
C        -3.98854406121584    2.00066042533119    1.41391274118415
C        -5.03570889377136    0.99828813918651    1.47530706387381
C        -3.02188556924628    3.11483059163936   -0.53104682520534
C        -2.65715035901864    2.57540829435007   -1.82328853671812
C        -4.13968763871608    2.66532177155081    0.13424141563493
C        -2.51414248883351    0.29429220449323   -2.62792538093726
C        -3.33960864230971    1.45024947560168   -2.31186851651450
C        -2.12924150646362   -1.94894467659642   -1.76598369608507
C        -2.47550504168907   -2.68220815954611   -0.57559940708103
C        -3.05150376191416   -0.98982921659695   -2.27900638525158
C        -4.04393426670674   -2.34644726287589    1.27042058475516
C        -5.16896985260981   -1.43377279084044    1.33927088784509
C        -3.79659845856453   -2.66800458234917   -0.10182230534495
C        -4.42849277213103   -1.12749432411130   -1.88436331572068
C        -5.73136533234292   -1.36205970786146    0.05736517058938
C        -4.80332940205974   -2.04370866233216   -0.86570951805179
C        -5.78250350739089    1.04515884748053    0.24925889713677
C        -5.09723115214916    1.97615272080073   -0.62809900346562
C        -4.67229086844845    1.28930539925144   -1.81174780694595
C        -6.03105816612253   -0.11233329634652   -0.49747409816642
C        -5.26145834256602    0.01118178262242   -1.75183197321776
