48
C48 Isomer 83 Symmetry C2
C         3.74778377519703   -0.42157998685499    1.00089487025341
C         3.43710305532172    0.97335359560328    1.08410462147792
C         3.35465031441294    1.44708292626357   -0.23824610222248
C         3.68398160056953   -0.83793380978094   -0.40205626201251
C         3.51247846945097    0.31907679883080   -1.17024121617059
C         2.74549695363134   -1.90596864138725   -0.51249492235723
C         2.74819766678386   -1.12836009418107    1.69880209941501
C         2.21446717686926   -2.14458630372795    0.83471733117661
C         2.29153464009389    1.12076399783472    1.94864091817514
C         1.85848071791651   -0.20887709305593    2.34952413583130
C         1.30245790397109    2.02878839415629    1.58825275822791
C         2.25686880634386    2.22830688097430   -0.67897275451610
C         1.31219252463477    2.65028703602113    0.26544683010053
C         2.47729542047801    0.41070694579504   -2.13795265557520
C         1.77265927959567    1.66357283347176   -1.92556913452250
C         1.83215844964474   -1.89445636979576   -1.57358030136494
C         1.71319796657008   -0.73279538101212   -2.42347952612086
C         0.50445423103544   -2.43947858566104   -1.39902436938705
C         0.89301868861098   -2.47782100025046    1.00560200665591
C         0.05626616404629   -2.80861506404454   -0.13113411643042
C         0.48702464740676   -0.52452586455739    2.48064571675143
C         0.05635492834484   -1.77729389783225    1.95338139144493
C        -0.06050312108218    1.80967823630952    1.95929246533431
C        -0.49464557752014    0.55492870970699    2.47899419115602
C        -0.04556649639878    2.84857789566327   -0.12133972311280
C        -0.89031569991799    2.51375719487377    1.00812365987499
C         0.43101673599850    1.77286231401984   -2.24858437790095
C        -0.48438961742386    2.48399693407071   -1.39365845252788
C         0.32608960208318   -0.59822721004023   -2.79010234175301
C        -0.40472356180663   -1.72514925825635   -2.25790647481709
C        -0.29603168020902    0.64788221226980   -2.78992019757138
C        -1.74881080027175   -1.61696450429743   -1.94417401948511
C        -1.30428763165475   -2.61139277496594    0.24653984936795
C        -1.30384471619383   -1.99493791258463    1.57158624071263
C        -2.24201170744149   -2.18605011790881   -0.70305221716635
C        -1.86528649773903    0.23986227600746    2.33701199378580
C        -2.29557856744326   -1.08826410762927    1.92821039475337
C        -2.21049346492183    2.18149032102976    0.82664549717484
C        -2.75013231633881    1.16179658860329    1.68313512391301
C        -1.81090487345458    1.93962991293817   -1.57962516841025
C        -1.68571620427830    0.78104474108344   -2.43284604765884
C        -2.45175907005305   -0.36338686997626   -2.15685468143670
C        -2.73185720047871    1.94779242121196   -0.52524222554956
C        -3.34294278097026   -1.40645370554521   -0.26733102632546
C        -3.43513767361739   -0.93780244698309    1.05614799609624
C        -3.74458303966554    0.45767541223666    0.97547880981385
C        -3.49396367833822   -0.27508213947650   -1.19645020098425
C        -3.67074374179186    0.87908856082989   -0.42534038611362
