72
C72 Isomer 5512 Symmetry C1
C         5.01886751176857    1.15913656079422    0.53784465573122
C         5.27810019310595   -0.12772039775770    0.14560540313680
C         4.74524871400630   -0.31052616782337   -1.23588345446431
C         4.52168537519677    1.86118168056524   -0.67125200004354
C         4.10920594902160    0.87413522362923   -1.64485146646955
C         3.63804654171065    2.80262968597017   -0.24839783133264
C         4.09294699296185    1.42531832307736    1.60867093520404
C         3.40825926342269    2.59613493337567    1.20285861619609
C         3.31114634821332    0.35953910481528    2.19033993914593
C         4.78813069636995   -1.18252956532272    0.92483040019783
C         3.76689032836169   -0.95572669164457    1.90313398631063
C         4.07519442666223   -1.53569957997302   -1.28535369218697
C         4.27198902658926   -2.15916597500819   -0.00200036993155
C         2.79434820953952   -1.60897931015954   -1.93170035633615
C         2.74637563228835    0.85226616844531   -2.13039599342432
C         2.07771029292943   -0.41322358511535   -2.33550972841531
C         2.37881365977448    2.94276600282403   -0.88232439211608
C         1.91289467886993    1.98608707839611   -1.83419258413236
C         2.06226010617392    2.77534265029485    1.43017176777871
C         1.49218316676883    3.25117963132986    0.18491231734625
C         1.87403226339494    0.54204197571609    2.41823783114042
C         1.27152671379497    1.80892097878496    2.13208816464151
C         0.95279537197350   -0.57370699530479    2.47450504572211
C         2.80357544481507   -2.02300243962704    1.77658972169366
C         3.19622907404282   -2.79598808168677    0.61515481337156
C         1.44910961712450   -1.87944729757747    2.08157415589946
C         2.02230733140176   -2.71001396532901   -1.53678503817245
C         2.21352424561174   -3.27833674459142   -0.22255308201588
C         0.64033098982470   -2.79660578748377   -1.83213524717955
C         0.62617937621460   -0.46951464748710   -2.50821217181252
C        -0.09409233182323   -1.71705246331183   -2.34988283467949
C         0.49281259631582    1.91261019467688   -2.01729049886264
C        -0.16573645768917    0.72564141086859   -2.46634413099524
C         0.14832467408926    3.25138009336396   -0.00934748013965
C        -0.31178103036727    2.86338427829918   -1.30864940360773
C        -0.13729592812139    1.97798299992971    2.04832873888279
C        -0.66793211094779    2.96656738758142    1.13782317321870
C        -0.46622283382205   -0.37248736533128    2.55672197731623
C        -1.02981632017182    0.94502254272819    2.45481631351577
C        -1.37489280156434   -1.50070269203905    2.37212028924100
C         0.52326904368691   -2.82675944774443    1.48926518363536
C         0.94546141217656   -3.52500482405308    0.33843840675545
C         0.05180477790212   -3.57282407740730   -0.77792576950469
C        -0.88208909697886   -2.67460218475186    1.69188917416693
C        -1.27250168070336   -3.53178292387195   -0.54919058654647
C        -1.75849664880803   -3.31636928697527    0.78450374909223
C        -1.54424490922635   -1.77576552320068   -2.20998475797455
C        -2.12088931343109   -2.81811729818131   -1.45229614512580
C        -1.63423047433641    0.67399891871759   -2.48776782033821
C        -2.34701823082327   -0.59198314756846   -2.38823607194933
C        -1.68390009943174    2.88245855965986   -1.47479974716577
C        -2.36509087670546    1.82919103075810   -2.17247670772010
C        -2.02406290513030    3.09826200554034    0.93042532823315
C        -2.49609639823064    3.30375971070987   -0.39845476294462
C        -2.46150766607388    1.16208631648992    2.32529696072989
C        -2.97189781641983    2.27315787420723    1.62293880901180
C        -2.75829868096979   -1.29547033911783    2.37551857454023
C        -3.33281126906012    0.03572995828221    2.41699895046205
C        -3.11787142547771   -2.94984890720455    0.64243237895740
C        -3.36612800438503   -2.68877823899365   -0.76946561687597
C        -3.66673016246387   -2.10405518522748    1.59558005750932
C        -3.70131337802407   -0.61938822458518   -1.97962837823881
C        -4.22541886819944   -1.68106167000290   -1.14871829762278
C        -3.71028652624852    1.79271321107565   -1.63802024667083
C        -3.76573338140339    2.66076016399098   -0.51082883405929
C        -4.14124460228410    2.15957237289812    0.76966655630838
C        -4.39241011036879    0.58506649638363   -1.55918679759281
C        -4.58987878602965    0.02742073187658    1.79685454049826
C        -4.76534935446091   -1.28883609848070    1.20524832709610
C        -5.06663335438601   -1.10740935874326   -0.14379976809881
C        -4.92883334928548    1.01305745888086    0.81430196865905
C        -5.17584286225139    0.31298277374664   -0.40784514659956
