78
C78 Isomer 16886 Symmetry C1
C        -4.11178889603861    2.57155620553841    0.65888579731362
C        -4.60094582303927    1.70920185159723   -0.30155529601701
C        -4.91002553902607    0.44241544198098    0.34767008835726
C        -3.88229093859515    1.78222059417433    1.87468674887668
C        -4.30253125471039    0.44651912420110    1.63357126540977
C        -2.58727732975992    2.04274071637344    2.29757061975106
C        -2.95413492203505    3.32272288793950    0.38138606662514
C        -2.09532680124536    3.16008922612161    1.51287389376913
C        -2.35694651694699    3.25694057204037   -0.90942825988163
C        -3.86191082061826    1.43128664958159   -1.50189180191769
C        -2.70731644539058    2.18419103679708   -1.81716798666922
C        -4.59680426169203   -0.56643597701459   -0.56889961114199
C        -3.90267983479325    0.01222563847756   -1.70366511648912
C        -4.12975431465558   -1.75601170639111   -0.05267491562960
C        -3.44347126448751   -0.62059124389940    2.03427730030144
C        -3.61053521812179   -1.79970802894902    1.28302073434017
C        -1.67029045123028    1.00686272648897    2.67804335676413
C        -2.11881837023648   -0.35412330221071    2.58518850585547
C        -0.27684174927346    1.33707894518613    2.71703637052455
C        -0.74516531727329    3.44020454306934    1.44889091201012
C         0.16604012449083    2.63543839799659    2.22658840342687
C        -1.04787503828834    3.74229533251480   -0.94574223525897
C        -0.31114357213233    4.03429502516637    0.23997930166508
C        -0.11438611100480    3.33946339876350   -1.94484184312073
C        -1.66400783812648    1.54045141723008   -2.58167959688837
C        -0.36185065895230    2.17936009983313   -2.69275984317982
C        -2.84882506224460   -0.67565507180097   -2.31675384625469
C        -1.77924617308185    0.13381415131463   -2.85584383689110
C        -3.30699215302629   -2.59277334542462   -0.85861720214996
C        -2.62294097588419   -2.07720137345981   -1.97278333802740
C        -2.65964157460252   -2.85323316996188    1.33560846672946
C        -2.64024801829190   -3.48523433270754    0.04578235617646
C        -1.13085240229049   -1.40192056952831    2.61692256466189
C        -1.48077015525530   -2.71915752112430    2.09744280374784
C         0.68859975282461    0.29745723622961    2.89662939318338
C         0.24942147298180   -1.07512842318568    2.83110534551900
C         2.10255690785188    0.62604747812046    2.79411592213458
C         1.51621957094255    2.86830744836429    1.99270286955756
C         2.50215946255094    1.89429327022307    2.32029883821272
C         1.06927964826878    4.06225068610726   -0.09042972459412
C         1.20501221864330    3.68441772373227   -1.46971285077408
C         1.98414737220250    3.61739801151442    0.84495167793049
C         2.31649114627730    2.96803652219110   -1.85391090525772
C         0.81236545659424    1.42886321914551   -3.08444655439679
C         2.12073215479299    1.80800563979124   -2.68174336382755
C        -0.61879421345537   -0.56756373746846   -3.24750908242521
C         0.65937914053838    0.06894713853977   -3.34562150240814
C        -1.36752998595167   -2.72121851820648   -2.31090433859662
C        -0.40381271068909   -1.93427759763540   -2.97073807505555
C        -1.53495066455636   -4.19165161972427   -0.36622617370970
C        -0.86398850509939   -3.80982045707431   -1.57755125045103
C        -0.47176396628506   -3.65758599191917    1.76949045906217
C        -0.56366900561637   -4.47088544482235    0.62231297023034
C         1.25495884305349   -2.09262978841347    2.55956335486974
C         0.90898425458467   -3.31235543560596    1.95240164417736
C         3.05647281238808   -0.40588828686428    2.59337156302830
C         2.59800063236301   -1.74532364885270    2.36942270560690
C         4.19296426690675   -0.19971181166154    1.79154406710416
C         3.60965513271113    2.07185266157764    1.41526769508729
C         3.21191795001829    3.02186521726950    0.41543371482443
C         3.38541372075128    2.70698055479553   -0.93359125076240
C         4.38189988549187    0.97706240270347    1.05050159163644
C         3.11434176469636    0.85444651972921   -2.34071085006866
C         3.93385762385443    1.42311285077497   -1.29416402765924
C         4.48141923218379    0.59255918004225   -0.34945007674173
C         1.66030979085179   -0.88668750686120   -3.03145615246260
C         1.01086266074718   -2.12731238725540   -2.77462746106065
C         2.86561055198832   -0.54085880453553   -2.39998946259715
C         0.56279592562439   -3.95154037488217   -1.32444083307302
C         0.72064492055482   -4.44496662535871   -0.02191120784041
C         1.64741133618094   -3.81627072610703    0.83706393028196
C         1.52476832353372   -3.02947744028450   -1.84175092475672
C         3.35362628246871   -2.29927601713555    1.28169207852437
C         4.27233429392486   -1.32428538253423    0.87676139101122
C         4.27934191519581   -0.84909751737335   -0.43759227629600
C         3.41158659494847   -1.44104831606328   -1.40924670549663
C         2.72994673659432   -3.09338627050561    0.30229659791486
C         2.69861497342740   -2.64398397043546   -1.06732358637435
