78
C78 Isomer 3893 Symmetry C1
C         5.20949347316983    0.36255931893032    1.28007670221281
C         4.71929073329179   -0.97850330430401    1.39867805099185
C         4.71597390920752   -1.54529868827367    0.11387712596984
C         5.20400217770461    0.70873994071539   -0.13476008530247
C         4.98234102514478   -0.46112056805034   -0.86052436514371
C         4.29043330846831    1.78947329171184   -0.35328982271455
C         4.25771058033791    1.19391682355778    1.90038604912255
C         3.81596711753372    2.16377383821057    0.95894408027978
C         3.46752522466098   -0.96299752276854    2.12311182385584
C         3.21133641932776    0.40237481966839    2.49614941137566
C         2.37353625842314   -1.74727937697345    1.71244364648512
C         3.61546984339601   -2.27832953642317   -0.33693053037923
C         2.48091946803415   -2.51745922756291    0.49595567394647
C         3.99170278427764   -0.52920359020342   -1.86512730450611
C         3.34877500102545   -1.80975880592505   -1.68213180835302
C         3.33729384305180    1.77080185613084   -1.41197955099334
C         3.16399369505149    0.58209658711132   -2.20393556783442
C         2.23534544734683    2.68256096514153   -1.31493496524180
C         2.56522218347278    2.73616449770056    1.11816261452592
C         2.01469443824694    3.33198081599464   -0.06184206780159
C         1.91071694473266    0.91208524662947    2.58935548538522
C         1.65477689326114    2.23976999308879    2.10227436911315
C         1.05612014389853   -1.33648086129114    2.14377220357635
C         0.81121254284582   -0.01484202807146    2.62069883749390
C        -0.07091858093067   -2.11098432705431    1.74020056311577
C         1.27127547246579   -2.91807413502772   -0.14594619083780
C         0.03847821798957   -2.91509497222356    0.57299752192944
C         2.14035702720279   -2.04382033708296   -2.24902347565435
C         1.16642458995000   -2.82762363745423   -1.55044456440343
C         1.85350314727580    0.33031056345374   -2.78718641996481
C         1.44576883235328   -1.00121059316803   -2.94539670213915
C         1.09652412166780    2.58368047708498   -2.19923700438573
C         0.80379558375689    1.31949629982679   -2.80688160124204
C         0.04208741880284    3.50895293866036   -2.02388178265852
C         0.86683213734799    4.08625448421097    0.15810478909080
C         0.03121837498414    4.38872779056986   -0.92504496089169
C         0.33040070650751    2.75055830613096    2.13002729528318
C         0.04721234365764    3.86728999427994    1.32413683221280
C        -0.53220772147370    0.48727610227897    2.73524327928708
C        -0.75412837770484    1.91050294553577    2.59188429699683
C        -1.36847043677540   -1.76544322110269    2.25334141346541
C        -1.62636864937409   -0.42022360588004    2.69554726930951
C        -2.44070878790663   -2.57941355630679    1.85756000624389
C        -1.17043810328847   -3.23352507209473   -0.13526175178726
C        -2.34294674464968   -3.28856642073247    0.61152573621370
C        -0.08561250715880   -2.53563328055567   -2.14479935307741
C         0.07211535677906   -1.36886121631430   -2.95235462706545
C        -1.28421122725391   -2.84552594227277   -1.51205883937044
C        -0.58036440822069    0.94583022423868   -3.02243976910786
C        -0.96146591660767   -0.43533884540213   -3.03101224974770
C        -1.32998208821959    3.16698829636635   -2.28989843693701
C        -1.63671035865787    1.89249925543043   -2.75788366199514
C        -1.32207647111174    4.50640959993430   -0.43966925121858
C        -1.30442102096477    4.19748840827062    0.95146376821303
C        -2.17875121190595    3.80868975951061   -1.30074480041718
C        -2.05866263788083    2.35883299595366    2.36289961961962
C        -2.34374168602878    3.45690686952632    1.47292172882625
C        -2.98153706851356    0.07921604868276    2.56439502888801
C        -3.14320065419407    1.44713258433641    2.26896020840315
C        -3.80312351311185   -2.14355883183713    1.97904651869127
C        -4.04065503248901   -0.74885935047251    2.14422490037628
C        -3.60204832500465   -3.15712536752191   -0.04935443831301
C        -4.55286068520569   -2.60873989950732    0.87147180760300
C        -2.46510672121749   -2.18008991782513   -1.98310378426059
C        -2.28631959812288   -0.91611898092669   -2.67391484544095
C        -3.65781042929648   -2.43289398937935   -1.27466378785531
C        -2.95274269888722    1.42011938681689   -2.48268093399195
C        -3.29181942302425    0.04116205233718   -2.52639226159006
C        -3.31627319154644    3.14623299585686   -0.76658105262067
C        -3.44405416705619    3.06124996384555    0.64460981883462
C        -4.02282632784157    1.89066314495312    1.23334772937251
C        -3.79135556879262    2.03534791686899   -1.50362684950992
C        -4.93528565688313   -0.32442570411101    1.08068279376943
C        -5.14701303552589   -1.46453372419056    0.25363587606855
C        -4.66597465598194   -1.40066412150264   -1.09720358730553
C        -4.43428652999852   -0.16619404232885   -1.66813166873726
C        -4.77201182031929    0.95271209353332    0.48830388883100
C        -4.63935474752590    1.03998710903682   -0.92814404418260
