76
C76 Isomer 11235 Symmetry C1
C        -4.90493664730538    1.70666383875459   -0.24464092686594
C        -4.40428154130572    2.06163039213889    1.00652831733413
C        -4.27892344236842    0.83374208056627    1.79593714278825
C        -4.96239574777021    0.22836976889653   -0.30730861093977
C        -4.54005915609276   -0.27488440826850    0.94051302895485
C        -4.30847087765574   -0.18494138747025   -1.49291550355997
C        -4.24430620483383    2.16254126511827   -1.38373449438506
C        -3.97145862092596    0.99020298219859   -2.21415007853085
C        -3.03476690386682    2.89857626018374   -1.28064768713555
C        -3.18089914639035    2.77964874838989    1.12348360105281
C        -2.44659005619890    3.20776161383356   -0.01943761421891
C        -3.07685393942132    0.88473738399779    2.50037293766374
C        -2.43771437103933    2.12908565461926    2.16196481475790
C        -2.30934581781957   -0.29424858957461    2.72652069703356
C        -3.70729296665046   -1.42085642016421    0.99987985974350
C        -2.76715552953909   -1.50378536417852    2.09365618034881
C        -3.40291238649940   -1.28749206008844   -1.47947560669433
C        -3.34290276653983   -2.03963772473636   -0.25012901097861
C        -2.23964476157430   -1.26676673798959   -2.32751685041124
C        -2.69843705401950    1.11193005427353   -2.75984165542299
C        -2.15416874249768    2.35557276567603   -2.27308815318823
C        -1.85358187195373   -0.01861134718813   -2.92642143443656
C        -0.79010513768295    2.52496955629984   -2.22104537965155
C        -1.00270543681264    3.29889876340600    0.07638618053368
C        -0.18465121134990    3.17744591376034   -1.09351545391191
C        -1.06683922426463    2.25412420122623    2.27917650302359
C        -0.33881628485571    3.03461520837075    1.31875412974299
C        -0.94276133157198   -0.12948350507508    3.06632036229248
C        -0.39549276429981    1.19960489651813    2.99904695827908
C        -0.00973240463329   -1.23697545933179    2.97001988734548
C        -1.86968722854092   -2.58125494234199    2.10238425930263
C        -0.51165655087467   -2.45480096007287    2.53238294028020
C        -2.40790947900138   -3.08534130900036   -0.20485839443845
C        -1.87247917646669   -3.49449390035817    1.02679224652597
C        -1.21442672366123   -2.27932191536446   -2.19110606492518
C        -1.40066590038165   -3.27009642939824   -1.21980204766287
C         0.12431970311087   -2.05657295688570   -2.70591950654038
C        -0.49849022862599    0.27441252534949   -3.25444213673031
C        -0.02993674112963    1.61390514498345   -3.03895604676425
C         0.46352216972547   -0.79582462571217   -3.32606562741762
C         1.32627445080668    1.90879090774692   -3.11090895039543
C         1.24626728637451    3.21381762735879   -1.01241159701622
C         1.96507611755842    2.74186595049176   -2.13025222788315
C         1.08930744171826    3.10343408695267    1.43663988549105
C         1.91202413321718    3.30027870380468    0.26861407981523
C         0.95663362418847    1.37210394562305    3.18161657668123
C         1.65485497591345    2.46777540645134    2.57576377695119
C         1.41627794081807   -1.02709673727307    2.87269257876722
C         1.86274064294563    0.24585388288980    3.26701830703912
C         2.24409506297221   -1.78280949059265    1.96706824734320
C         0.32511073033019   -3.31526161896595    1.71536588667776
C        -0.52919146676944   -3.96945964484118    0.81612671176182
C        -0.27370447677361   -3.90662212443423   -0.57846554845822
C         1.62600368527653   -2.90256869199647    1.31496983154704
C         1.18839715615852   -2.78866647289318   -2.14775248548190
C         1.00256246163269   -3.58237368396286   -0.97229744615449
C         2.00248245691131   -3.19327414650903   -0.01147046007589
C         2.51218746242500   -2.24336093670895   -2.04257901407420
C         2.96479724727846   -2.38540344702017   -0.68879297074166
C         1.81761317490576   -0.46259318620294   -3.49776050721131
C         2.22669991281565    0.89632185398403   -3.51044046961029
C         2.86243117926730   -1.15116388388563   -2.78464743484414
C         3.30869279123012    2.22372206403233   -1.99566933493033
C         3.44858722538519    1.05819589232155   -2.80304136549799
C         3.79309668442326   -0.19961653459913   -2.23164758615451
C         3.28248186322558    2.92399566036326    0.32898378662679
C         3.89780841153337    2.21522620351974   -0.76026190176663
C         3.02724530963979    2.10726867344163    2.60017762440769
C         3.14043052995189    0.68903746364069    2.94873767938293
C         3.81495913228125    2.33033631115410    1.49919183761122
C         3.40923833240023   -1.16380755422905    1.36655344327295
C         3.69166647568013   -1.36968122822720   -0.04482160282631
C         4.19592039195201   -0.28634286245141   -0.87923020542734
C         4.47489513982270    0.96682021688311   -0.24606294159977
C         3.90525918188064    0.02808170073953    1.95373091751113
C         4.46338983420761    1.05512671803239    1.13316111706909
