72
C72 Isomer 9969 Symmetry C1
C        -2.30221757462679    3.73326636329866   -0.29856275556681
C        -3.21965549221443    3.04954853575641    0.45529500241333
C        -2.66014018280962    2.86794747165905    1.80149882275361
C        -1.20578304428589    4.12159880701569    0.58391637869218
C        -1.36516278737934    3.44404277007562    1.83573924754372
C        -0.02679435606029    3.98688551412073   -0.13088864723753
C        -1.73508455509753    3.15123188832120   -1.48990047190289
C        -0.34041398779412    3.44992998698776   -1.44088287067105
C        -2.18623761227206    1.90570616047610   -1.96793289634209
C        -3.73023407346550    1.81249232487281   -0.00090231474076
C        -3.32343052228391    1.31571531301147   -1.27839808812078
C        -2.86844902309457    1.53857053382527    2.14334443784849
C        -3.69708024001736    0.92231085985596    1.11283749432251
C        -1.84937184614909    0.77751024253113    2.76460930924003
C        -0.28764461390443    2.70797985197158    2.38302430168885
C        -0.55943318666724    1.40452447290327    2.95482648109774
C         1.15565922149454    3.59448077507274    0.54242830065436
C         1.03019107348222    2.98676096793590    1.84433002154565
C         2.20314876563629    3.20580975836292   -0.31018977317033
C         0.59580653854967    2.67620684731519   -2.12140124318002
C         1.93287557507753    2.76801223531190   -1.64663706015292
C        -1.22025831308768    1.02949149311040   -2.62228271240227
C         0.13810592013131    1.47203754715803   -2.77021158913150
C        -1.49186707436439   -0.37786437234248   -2.74191254431028
C        -3.58240655899675   -0.03796710535165   -1.45474797826363
C        -2.75909011160281   -0.85532646249273   -2.32236874531603
C        -3.78103275756298   -0.45946534205606    0.95079137405952
C        -4.04879648858009   -0.87025430357489   -0.38877810883692
C        -2.00580109712242   -0.65694266123488    2.69869467972977
C        -3.00688293567865   -1.29996774157282    1.84589888590687
C        -0.89249522571765   -1.41468474044201    3.08100766533616
C         0.56826515607005    0.56303709696692    3.25879624492025
C         0.37448001664293   -0.82586398396738    3.34760245925093
C         2.10583229745300    2.18276275225414    2.25173486466672
C         1.88762250471298    0.98819655393648    2.97644822055966
C         3.33785763648534    2.48335764781034    0.16962177930001
C         3.30087035747986    2.00338933843706    1.46505099016681
C         2.91759382090739    1.80577797339550   -2.00220909463466
C         3.84588366813261    1.65523297855971   -0.90081493275867
C         1.13108340741156    0.51781916874843   -3.06503941079699
C         2.52087756890164    0.69698237372512   -2.73386781106911
C        -0.42592769113275   -1.35292426221311   -2.77289941428136
C         0.86180551089182   -0.86882354903258   -2.98751801924594
C        -0.53501160293190   -2.63809994288004   -2.10760072498399
C        -2.94127881995434   -2.19245558526480   -1.97686095444340
C        -3.76882588947606   -2.20559210603685   -0.77437263264679
C        -1.83014623652515   -3.06569979719190   -1.76911074978856
C        -2.78488149062482   -2.63088053309858    1.42741419667208
C        -3.19603610603739   -3.06839878950915    0.12983423832224
C        -2.04640026802409   -3.70700004396233   -0.52203243270154
C        -0.62725916818693   -2.70455177482147    2.51713309385638
C        -1.51458770301782   -3.26950237634395    1.65256707756434
C        -1.01471783599415   -3.82076084205307    0.39970282972416
C         1.40685958335279   -1.74684414044823    2.95182949691128
C         0.78347169193450   -2.84275931631057    2.30675941308543
C         2.96104931551328    0.06879541154051    2.67952999115857
C         3.85203565121717    0.71044753226582    1.76236451964645
C         2.70172638586071   -1.31639248998423    2.58953972119124
C         4.41921425716273    0.43530559627659   -0.62717242666135
C         4.48214456098871   -0.02843254543249    0.75196961379214
C         3.09041077383539   -0.58739120023338   -2.44996177157358
C         2.03824620298762   -1.55639933458377   -2.53748952595814
C         4.07764441447209   -0.71007443929261   -1.46675524490869
C         0.58070352060152   -3.10162720154413   -1.30904714248714
C         0.33174871166907   -3.61911610228213    0.00702288741879
C         1.27626479378117   -3.33566163372084    1.06827008712398
C         1.90090990990099   -2.60728269054185   -1.60841393541897
C         3.35152870367850   -2.06421232704657    1.56640368345485
C         4.28004432179261   -1.42448204136161    0.72849058394432
C         4.02828034785014   -1.84367685408817   -0.63896332530530
C         2.57739820471169   -2.95702934209086    0.73586150229915
C         2.93219608196961   -2.73075717046225   -0.63706254885257
