66
C66 Isomer 2311 Symmetry C1
C         0.95121659003850   -4.29144501975292   -0.87750425823643
C        -0.38521546433292   -4.16204305496832   -0.40153337247395
C        -0.35159841466395   -3.71136167391593    0.96716211970753
C         1.79434446985915   -3.80263176310526    0.13089927603629
C         1.02229085405971   -3.40829621057667    1.27934219565659
C         2.70407941532100   -2.84522866992483   -0.42355250681228
C         1.12223243938886   -3.37194014368259   -1.99259118491113
C         2.25300637791485   -2.55584062073403   -1.77244553967825
C        -1.06141415984277   -3.29453089032566   -1.28787699380480
C        -0.10706896342149   -2.72500098030822   -2.23167950151945
C        -2.16193699688078   -2.54690910144154   -0.85998734991853
C        -1.40715790548804   -2.91291106587016    1.44315642055945
C        -2.48114781766257   -2.55585628809074    0.54183015248596
C        -1.06678048388737   -1.94952207390599    2.41821775547658
C         1.35740282489338   -2.22049224932252    1.96811685666596
C         0.28602773721700   -1.55792122987327    2.60451448252832
C         3.18336228137348   -1.80857045585514    0.36925909629182
C         2.50546715688432   -1.41529985670281    1.58871617082432
C         3.81219198386073   -0.79653217813386   -0.40905168007250
C         2.24752655108451   -1.21719856802939   -2.23913197786377
C         3.28025885807678   -0.44535512725959   -1.70003146323359
C        -0.18968524612354   -1.34496954075519   -2.56110496912024
C         1.01781851356425   -0.56135613828855   -2.63872952749330
C        -2.52480321151065   -1.43612832813448   -1.69574872856516
C        -1.47602630135898   -0.72739644248836   -2.41099528030614
C        -3.69706401522477   -0.75260752127913   -1.31829562338894
C        -3.42027735541770   -1.59848252950727    0.97525297755110
C        -4.15917698239292   -0.88837541013868    0.03329333519921
C        -1.88843019855361   -0.78581813605900    2.64283629068695
C        -3.10381486985969   -0.65693295012680    2.03383769858772
C         0.30240787723970   -0.14311058215651    2.81946824014397
C        -1.03641569890051    0.35337181825690    2.81792007362532
C         2.58526895302641   -0.04421202484800    1.98995783000713
C         1.40371641295206    0.64806500484882    2.48914401988002
C         4.24285597798911    0.36480178761921    0.20350652564344
C         3.60597306240457    0.78301630566026    1.41032995293829
C         3.33744628747533    0.97588313006113   -1.84075701083465
C         4.15681595385918    1.45054271731680   -0.76830924980941
C         0.95166284076270    0.87299544261780   -2.57597118799306
C         2.15113429129687    1.65850826309346   -2.23368506934504
C        -1.56554851965572    0.69082020728740   -2.56442252007119
C        -0.35226341132648    1.47902389987944   -2.51497724168660
C        -3.89564129638884    0.58283982354647   -1.71264010078399
C        -2.82749007717716    1.31958161678460   -2.26475141532410
C        -4.43781285813016    0.45143459056506    0.54512861030626
C        -3.59746210190027    0.65933250802898    1.67418415518457
C        -4.42032123271769    1.31996874698722   -0.54380941571451
C        -1.37344986574744    1.61159009246528    2.30211221503539
C        -2.71889454742868    1.78817950937677    1.73975004190485
C         1.10910706331416    2.02994603023082    2.18691215509523
C        -0.24862834177412    2.44721942570650    1.94711128968323
C         3.41927888302174    2.17770332208197    1.31532016759884
C         3.81125242697784    2.58967025140455   -0.05905270981403
C         2.18132100665052    2.79086520081891    1.60523651681683
C         1.99164119852449    2.94902720124884   -1.64689907363460
C         2.80781175642016    3.40029205844964   -0.56858639694811
C         1.90461129803324    3.70101625354998    0.54121206128087
C        -0.45216709142891    2.78255182513073   -1.89976061251290
C        -0.47665345800605    3.37913376451417    0.86791535048086
C         0.66400256890201    3.37773561267702   -1.33995983732335
C         0.61720155458409    3.77995724030814    0.04785144594757
C        -2.84994640359527    2.59559984542240   -1.61551095940438
C        -3.70029570220750    2.50264355138328   -0.42997386906262
C        -2.87109854544929    2.74642890668996    0.69721670701202
C        -1.65821389011193    3.17847321656364   -1.25238667282015
C        -1.68083403840294    3.36805765498527    0.18700111363863
