76
C76 Isomer 15633 Symmetry C1
C         4.37441387581100   -0.65412914409842   -1.51881490050141
C         3.71350045331035   -0.09615642569945   -2.57905536302576
C         3.49638409974177    1.32940739999739   -2.29371053223017
C         4.53751285763736    0.38200662366085   -0.50499762094073
C         3.89078414068954    1.59048677840802   -0.96188996622042
C         4.19639568861062   -0.18893992218878    0.70671191355732
C         3.85671102510251   -1.83824872616363   -0.90862641027330
C         3.89386119149711   -1.60294188973968    0.49616275837807
C         2.74145775692912   -2.50390160663171   -1.49176456374940
C         2.49602528867606   -0.65097458200379   -3.07788346598080
C         1.98763741429104   -1.87233431053692   -2.57723977474922
C         2.21776444093188    1.64461575323395   -2.72801135358775
C         1.61962921824120    0.44339054266032   -3.29964578823970
C         1.43100989045205    2.55724944335232   -2.00522873997592
C         3.02572497880745    2.30551248029711   -0.10907182388472
C         1.87660690656432    2.95960983595737   -0.70319060448758
C         3.47692619149490    0.57738069900458    1.67364843153037
C         2.95786475005342    1.88115465050282    1.28243945148795
C         2.80956065448830   -0.16909861680701    2.65265011398912
C         3.03480479693368   -2.28557962035888    1.37352420500000
C         2.56208975208826   -1.58876179126802    2.50968826177015
C         2.02146493909059   -3.32422913761678   -0.60928586182444
C         2.18995296234189   -3.26771459086697    0.80735152479595
C         0.68390017993774   -3.73134685102455   -0.88288930813336
C         0.57764595815533   -2.09723389787242   -2.72621705713477
C        -0.03332810405419   -3.18629840916778   -1.97668785527711
C         0.24521515153638    0.28376101943508   -3.34172520499406
C        -0.28178103446227   -1.05242755838136   -3.21428329197018
C         0.04119745545566    2.60190422509695   -2.39182582814490
C        -0.54527757612428    1.46984079916994   -3.09608265953057
C        -0.78875359948624    3.46507887683500   -1.68225144117000
C         0.90416138698107    3.58865214284693    0.15046034804914
C        -0.35706518305317    3.96220763982102   -0.39042219019842
C         1.92256789912749    2.41047187842658    2.05928402477225
C         0.94975560076185    3.31993936699343    1.52936183892137
C         1.68697590726550    0.36518630809901    3.34338175144187
C         1.27403713944925    1.64801306030589    3.08390364105397
C         1.28377861445283   -1.87732378277715    3.05247753337541
C         0.70920744387820   -0.65661215448291    3.54434511475793
C         0.94443980311137   -3.61464652388206    1.40312799098409
C         0.04457936706205   -4.00523977799366    0.35340529028180
C         0.45577738549598   -2.89884264400844    2.51376623069133
C        -1.35806765959212   -3.91585038491791    0.49334075958399
C        -1.41992507890243   -3.32214085522063   -1.91679942967778
C        -2.08834217198481   -3.76526037596235   -0.71790864316726
C        -1.71295189572659   -1.18786002642518   -3.13699607384649
C        -2.27526880348800   -2.36949966366498   -2.58065532348620
C        -1.92433312214701    1.29025812544236   -3.04159182542569
C        -2.50376995703786   -0.02487949181118   -3.06083013898363
C        -2.20357477370366    3.23593868962639   -1.61284755506125
C        -2.75284426672452    2.13677535373325   -2.24106393186770
C        -1.49517422191236    4.02365383340396    0.43400540895514
C        -2.62872948178266    3.50756170082124   -0.28900372924454
C        -0.26508830321093    3.13138077234498    2.27246167658526
C        -0.12483595361136    1.96985648240625    3.09043614207342
C        -1.49241233817699    3.41017178785723    1.70803829741134
C        -0.66091354836390   -0.37167077208879    3.41236460371188
C        -1.11387141896925    0.97318620767924    3.12965599420782
C        -0.94551087386241   -2.69276924850293    2.60169574284579
C        -1.85688344590171   -3.28044099301231    1.65480171380402
C        -1.47920596536164   -1.44820753859812    3.01004320867643
C        -2.99489859627095   -2.42025522307679    1.57497703396610
C        -2.71855724542311   -1.22902619754436    2.31197186122765
C        -3.34942277735009   -3.13748671504434   -0.69365668074892
C        -3.49010164596880   -2.32785004068974   -1.88117196449326
C        -3.74300292181710   -2.34383516592628    0.40557943807056
C        -3.65524626513439    0.02955431351637   -2.20571992450790
C        -3.68701749970154    1.29866356613932   -1.54795481004850
C        -4.07142869585056   -1.09066102133872   -1.51450712025770
C        -4.16808893525584   -1.04496527828774   -0.06993384702931
C        -3.25217437212865    2.51118394968720    0.48227264655438
C        -2.53607126704278    2.41380363025292    1.74098984840252
C        -2.34308260923250    1.17973042506264    2.36877232971590
C        -3.10375955225343    0.04391073977678    1.87056170023172
C        -3.80501897814190    1.36538003418195   -0.14047964889579
C        -3.86154242724309    0.13476181964612    0.62726342210462
