76
C76 Isomer 18156 Symmetry C1
C         3.88642668963853   -1.28925906543484    1.90428518503281
C         3.24922269942612   -2.39793205137070    1.35233842104073
C         2.00174761734819   -2.59178843953251    2.08116455239479
C         2.97814659590392   -0.69900080703546    2.86517534991266
C         1.79222853581873   -1.46505153217195    2.92390480191580
C         2.94344001551716    0.67708122545479    2.67063647640788
C         4.42937208817380   -0.24408872992268    1.10497387541616
C         3.93279621254368    1.00286702331222    1.65118982517235
C         4.46275043755142   -0.40596896139449   -0.28030085532804
C         3.25418900363384   -2.57090978892225   -0.06388318964853
C         3.83207163220646   -1.56243416274334   -0.87127054486822
C         2.15638199700761   -3.25772046605028   -0.60389844763182
C         0.90993906956650   -3.25110651185150    1.52745342988390
C         1.10197349601171   -3.78680882074937    0.23019246839138
C        -0.42453947987446   -2.86576250889131    1.97397696416227
C         0.52484575959126   -0.83651812488093    3.02903916016404
C        -0.63303952923785   -1.59522945253717    2.65246904280500
C         1.70484660358591    1.35615424529881    2.77394585863859
C         0.50305083980217    0.60770710364777    3.05145391800109
C         1.62610093422306    2.59889411445258    2.05664408137299
C         3.70851327312293    2.07435095371912    0.81972644468411
C         2.57152747572748    2.92130912923385    1.05405036193702
C         4.21038474193950    0.71972405766352   -1.14017301166899
C         3.90105076343087    1.96288310863450   -0.60353091024291
C         3.17470291440122   -1.14612534772808   -2.07531629926858
C         3.45198093589937    0.24097482567693   -2.26586673753235
C         1.55492919806098   -2.87427356529015   -1.82716937479929
C         1.93686735265782   -1.70313337913124   -2.49444841190611
C        -0.02035498429927   -4.00669812775840   -0.59373027361122
C         0.18592532960424   -3.30374398488204   -1.82608935515754
C        -1.48832401427122   -3.45293707752916    1.28829291543562
C        -1.27970747753748   -4.04155926134406   -0.01479303751440
C        -2.79118327164246   -2.84304500228321    1.28934231027600
C        -1.92528707524762   -0.95232763795212    2.61713281455284
C        -3.03002425095902   -1.62902927517043    1.97827152966897
C        -0.77355568355591    1.24886638564879    2.92682530874379
C        -1.98892297546341    0.47546463894245    2.82441990213939
C         0.36598514922057    3.18502290759498    1.91327688020455
C        -0.78907645285752    2.59351483188725    2.49357426197637
C        -0.01773956959732    3.90133991324398    0.73912655644807
C         2.13225961918819    3.43928645387126   -0.19451978359460
C         2.90931985648723    2.79733571031166   -1.22568715217180
C         0.79322809572572    3.83649701558319   -0.41035056988834
C         2.48898719834687    1.03709652166735   -2.85605136170867
C         2.24958158741799    2.36228695372790   -2.36424594802889
C         0.88334077842899   -0.85800392736796   -3.03440308485464
C         1.22126383853746    0.48173051547689   -3.24275921962695
C        -0.83602710632344   -2.51521030435320   -2.38234221668184
C        -0.52334718732498   -1.19737109767755   -2.87968959325702
C        -2.35740318357084   -3.65372820181060   -0.82445113160489
C        -3.37068559760453   -3.06494309714524    0.02356981639741
C        -2.15464481476675   -2.78210774247867   -1.91477481644707
C        -3.96735448073500   -2.00387967493066   -0.68910713828978
C        -3.15020102242253   -1.74325001125239   -1.86098478313030
C        -4.11084188816383   -0.86794753817224    1.45165392437563
C        -4.47236239355879   -0.97142209737613    0.05636423998151
C        -3.16883303162195    1.17184330242433    2.42501477758574
C        -4.19796064591254    0.49260249722381    1.76422409794544
C        -1.92434556006033    3.16993719116662    1.83407946792873
C        -1.44639969618764    3.88015460632271    0.66922258562757
C        -3.10691511183950    2.49061332593235    1.81449227338047
C        -2.07550482386691    3.66660427968374   -0.54403937264778
C         0.14622544675005    3.47803140213510   -1.65630952176303
C         0.85567600354682    2.65771458053782   -2.54855402709079
C         0.23870662562977    1.50636679873731   -3.11602014262472
C        -1.25696150539285    3.32647057077941   -1.67875934147391
C        -1.52912838849320   -0.17625609527147   -2.81286768141975
C        -2.84753320538410   -0.43606546613864   -2.23917810435014
C        -1.11777380853369    1.19660702870705   -2.90888077275606
C        -1.88233156278485    2.22675746239835   -2.31957078604672
C        -4.48522280268489    0.35049527195697   -0.51573633265587
C        -4.56345071692226    1.24452596992400    0.56681277547780
C        -3.88721904491910    2.46891379142874    0.59068492356333
C        -3.27945628918532    2.88635761669496   -0.59673447304698
C        -3.63579694962545    0.64201000053575   -1.63063532202037
C        -3.13853082924539    1.95424400489357   -1.67587845268386
