62
C62 Isomer 669 Symmetry C1
C         4.36653127419481   -1.56839187010012   -0.52969780131395
C         3.59121163787653   -2.48885679956369    0.25863953296190
C         3.33715933685720   -1.90199702897724    1.51477468258666
C         4.41717059220145   -0.33118217780622    0.19446209424315
C         3.84527329272069   -0.52214689395959    1.46902324953311
C         3.84654867044285    0.71078941797643   -0.60840672381426
C         3.59232612427479   -1.30602538682768   -1.69296145490432
C         3.32443000253256    0.08587054137937   -1.80571368782005
C         2.45131994906927   -2.92122192604746   -0.50121688075868
C         2.45063193662197   -2.16717192658479   -1.72320695944045
C         1.21366627413305   -3.15346145445446    0.13101305976212
C         2.03445455443738   -1.86614266929495    2.02869071037815
C         0.99128050873071   -2.63142126210382    1.44532847084425
C         2.82671595995755    0.32513660439100    1.94263510631912
C         1.73744754648508   -0.50005317040653    2.40689744976222
C         3.08989492511597    1.73209373714374   -0.00960910323231
C         2.50448662916319    1.55100557694393    1.30195129592226
C         2.32174522091672    2.47869806642191   -0.94462278892462
C         2.10663789298386    0.52580238992555   -2.39387986197087
C         1.75663116798312    1.84303148125075   -2.11424082235261
C         1.22334554495482   -1.75801967479246   -2.30773969686733
C         1.03142687554400   -0.39733804959441   -2.70021370399491
C         0.08442605731900   -3.29732759779242   -0.74624397872133
C         0.09743489298181   -2.59185218693163   -2.00231136194316
C        -1.14575172591948   -3.53619969144772   -0.11321319660500
C        -0.34300188460518   -2.30957572079828    1.85509024070586
C        -1.37661678725535   -2.99400843372579    1.20267696760560
C         0.43701644781258   -0.02699190108186    2.51989885289513
C        -0.62000761847136   -1.02679507452032    2.48270019880127
C         1.23017097579134    2.14718827161975    1.61512227075368
C         0.18438135383240    1.37332722187382    2.25430163805500
C         1.40889652981065    3.40616789687089   -0.48073773499412
C         0.83582813591490    3.27470451449046    0.82578200277564
C         0.42927415716182    2.37811864204434   -2.32391044202383
C         0.31295059064377    3.49002876681022   -1.44834606663840
C        -0.31445689500537    0.12245353479403   -2.81908916853592
C        -0.65930060542933    1.51202689323342   -2.53897790001052
C        -1.13439768912593   -2.18712681693758   -2.54731341624305
C        -1.35512500110664   -0.80664835556653   -2.82814744932327
C        -2.36198724900051   -3.38404336569649   -0.83307621814222
C        -2.35202069364803   -2.70889943991117   -2.03372708964208
C        -2.74749067356702   -2.53296688202405    1.26637668555828
C        -3.37596139272476   -2.76635169479381    0.03056400233248
C        -1.93675341322649   -0.58917566278813    2.53860583493893
C        -3.01655078193494   -1.33946583543911    1.95775597978576
C        -1.19020760590184    1.78098539710658    2.15797854852489
C        -2.21837757717510    0.82822527937739    2.36712643290480
C        -0.52749319109087    3.61384712839189    0.68970233177722
C        -0.84864634041752    3.68796513483687   -0.74389147626359
C        -1.53651436454252    2.87037448963062    1.29228010925577
C        -1.94866256961382    1.82678897948337   -1.92577969519769
C        -1.99348985418051    2.89718216659770   -0.99754337783904
C        -2.58377947103444    2.66944897222060    0.29895460466893
C        -2.71089136413979   -0.46680157695718   -2.38735253831303
C        -3.34082112899901   -1.63063613111686   -1.95936462914891
C        -3.99303874964516   -1.69842540127187   -0.68672581849267
C        -2.95130720709455    0.79025981267305   -1.75531073441983
C        -3.90340484755882   -0.41103485781896    1.36272187058523
C        -3.43919028353725    0.91653323641658    1.67208310528228
C        -3.49654006432590    1.66855583724409    0.46900520792304
C        -4.21943089400888   -0.48439123191704   -0.02288836527485
C        -3.80049713417945    0.76753815790187   -0.62368239427587
