78
C78 Isomer 13645 Symmetry C1
C         4.74989872761215    1.70156932089931    1.06083402789079
C         5.16315883704573    1.00087331774971   -0.07038146168915
C         5.16855608338471   -0.41104860635562    0.23790823797998
C         4.31925290195980    0.71111074372566    2.03803588925943
C         4.55158035547333   -0.58625206094975    1.51768895191963
C         3.03741300126237    1.06978717772479    2.48075912825778
C         3.74752313266410    2.69941644359851    0.96735114426311
C         2.72843864550166    2.36785721409563    1.94092141078949
C         3.32778368167713    3.08931830326288   -0.30924909288157
C         4.47629861818366    1.17797272707527   -1.32445600949022
C         3.62025945758862    2.25734991337301   -1.45050818491305
C         4.60623447681934   -1.07216565789906   -0.87591852123574
C         4.04504817638798   -0.10304990915709   -1.80561195338558
C         3.94001053046868   -2.24546944201908   -0.64449350263326
C         3.57529320806570   -1.59226802822811    1.72398897958541
C         3.58241484643741   -2.60385729419620    0.71863756341734
C         2.00064402069244    0.11001068750067    2.65738657189555
C         2.30571439719160   -1.26638027134282    2.35159811538151
C         0.64807748486914    0.59516229756871    2.70513108768244
C         1.40592429386255    2.77351095505735    1.80064318118485
C         0.35501617758022    1.96007563232538    2.35771380750662
C         1.99332049540428    3.54966459426262   -0.45386161736554
C         1.11916209597918    3.59699027262837    0.65154715293895
C         2.39464825128555    2.09331212317482   -2.17897775497923
C         1.46407709323230    3.05885012697438   -1.68485555058728
C         2.75849058621513   -0.31461398046063   -2.36393633115086
C         1.90541547721758    0.84164685124002   -2.58379271480434
C         2.84695849057938   -2.61528994959182   -1.49804729507121
C         2.15323956145415   -1.62771462722561   -2.24951157735577
C         2.50622433074827   -3.47766091410971    0.62202499420256
C         2.11300062402671   -3.57812599550662   -0.77617977191783
C         1.18605552181602   -2.15294757304947    2.19420838999678
C         1.33657121188504   -3.30436468943884    1.37802721797950
C        -0.44330099017026   -0.34402116633953    2.75696595921972
C        -0.15705334588117   -1.70667461225945    2.44962532200071
C        -1.81475849324869    0.12948907733014    2.79321150974563
C        -1.00920096231170    2.38156800633576    2.15421921988247
C        -2.11959080576993    1.51438745231363    2.49099770842378
C        -0.21220712205653    3.80002580151490    0.33200233513984
C        -1.24387308581701    3.42056527537746    1.23951320563566
C         0.09385997534062    2.95163441515786   -1.91676627032327
C        -0.72156234964864    3.62597988466233   -0.98285848437381
C         0.47446660267357    0.69171604532803   -2.77885601869244
C        -0.43564688613665    1.78602574468717   -2.56558094749401
C         0.72929625124274   -1.77909468577235   -2.41818730563853
C        -0.05689059978996   -0.63747849516434   -2.81217405326570
C         0.73140831856997   -3.65194530655067   -0.84674612487690
C         0.24630776364514   -3.67016981444926    0.50921754900850
C         0.02450343163172   -2.85119467773891   -1.77120859081050
C        -1.24675984283838   -2.52433910519208    1.97942048996086
C        -1.04737834142743   -3.33158129697026    0.80810833450730
C        -2.85644253287656   -0.80317997631710    2.69031838775038
C        -2.55390756514592   -2.12043368046584    2.21532858443886
C        -4.17329638681238   -0.46082606561980    2.18932646238788
C        -3.41167933847223    1.85254704493716    2.04632710911908
C        -4.43730940545004    0.85303197190405    1.83328316616919
C        -2.46237460025396    3.46624797147110    0.49428846368229
C        -2.12143670281265    3.40165137593289   -0.89566670885082
C        -3.56542059043541    2.80674926805466    0.97304285264997
C        -1.86875949369508    1.60462602505569   -2.52367670930275
C        -2.74776582934894    2.47140937535734   -1.74592479067728
C        -1.45467809225940   -0.78131268564908   -2.85221155919366
C        -2.35267804812685    0.32159496447961   -2.79466263566288
C        -1.39205981552203   -2.82969715789237   -1.55876485632307
C        -1.96482522115903   -3.24646443612188   -0.30187897648035
C        -2.13156830308504   -1.91811552951362   -2.30911376278358
C        -3.58659391832905   -2.52042341509135    1.33124078341898
C        -4.59237221613581   -1.49300049797208    1.30776200267189
C        -3.28484108546414   -2.90659899717981    0.00243532330158
C        -3.63336982717386   -0.15586860706972   -2.32095771788950
C        -3.47626898330043   -1.55046445936342   -1.97982377174864
C        -4.93579123034141   -1.22848432304440   -0.04292950735864
C        -4.09642839262387   -2.08330912907529   -0.86594592342451
C        -5.06994762320033    1.09796619187134    0.58016716638438
C        -4.45443256931591    2.27325652853290    0.01234862320438
C        -4.01455472037170    1.99371770251939   -1.29827302783461
C        -5.15016376299211    0.10444139787558   -0.42085797709977
C        -4.47135805787518    0.64977689740697   -1.59070935126919
