70
C70 Isomer 7112 Symmetry C1
C         4.50224145752745    0.05462125849301   -1.02744010195663
C         4.25604506790230    1.40579586650173   -0.95355968350836
C         4.14545561771239    1.77962823553824    0.47377682693003
C         4.56444852787716   -0.48031869122257    0.34811784294779
C         4.28052748526761    0.59068303870517    1.24259622886179
C         3.85385454449357   -1.67470930214700    0.37833723719887
C         3.67951387480771   -0.77978662079996   -1.81799879592221
C         3.51974550857063   -1.96699166203422   -1.00714358857348
C         2.56744879721126   -0.27308275682978   -2.54744575398054
C         3.16792865115096    1.95276388778525   -1.66513866832484
C         2.31449227155648    1.14440112515862   -2.47531679216093
C         3.04511974276891    2.62211453010058    0.61137558094106
C         2.58302422545286    2.89221375164999   -0.73757285961401
C         2.05734978592669    2.43266700870379    1.63965812671433
C         3.31429949193599    0.35651121011437    2.22247785946888
C         2.29648675376307    1.33181941249122    2.47792073359544
C         2.87237814047103   -1.95761382246578    1.39459340111233
C         2.69902444644974   -0.93925719927384    2.34369257700615
C         1.75442821433845   -2.84778078005989    1.09677107791700
C         2.51792201817488   -2.81955506252419   -1.27555502231808
C         1.76911664237363   -3.44118442836153   -0.19287473837068
C         1.46434408066202   -1.18619252759885   -2.83332970249616
C         1.61252421624955   -2.51972627042345   -2.36751542776009
C         0.12626496183114   -0.72053761171521   -3.10062252400270
C         0.97205447752658    1.61882334367079   -2.71466724697174
C        -0.09173029199027    0.71756201700025   -3.13163956555596
C         1.30658986650615    3.28290720860912   -0.92430414354105
C         0.58635666435277    2.81310924755243   -2.07026268518758
C         0.67552370775943    2.85662224258449    1.41783768140869
C         0.37687060755356    3.43431472557808    0.17331071848017
C        -0.43939026466321    2.27844841115075    2.13873509811171
C         1.17295699077222    0.64045891317702    3.03368428290700
C         1.40972047121120   -0.75493990073567    2.93348502917190
C        -0.12585527734241    1.16741595271513    3.00668011643911
C         0.47565761242981   -2.72589393729223    1.75641173954475
C         0.35072537135923   -1.66954542448041    2.74274194353751
C        -0.74979300017146   -3.19225678841897    1.14110410481216
C         0.58604319378250   -3.87493993820430   -0.77458830304110
C         0.49391514011966   -3.31617239408898   -2.12986013167082
C        -0.65926715553816   -3.74969872253994   -0.15803603249627
C        -1.01990926561687   -1.57912496278779   -2.88240215550864
C        -0.80228300847959   -2.87080220594149   -2.33914806194693
C        -1.57605756280836   -3.33890617468230   -1.20175469761155
C        -2.34811153481800   -1.04480065478443   -2.66081206556342
C        -1.40946256857438    1.19406111846635   -3.12125704286383
C        -2.54955426073023    0.32556707405434   -2.91526388817319
C        -0.76754710345803    3.12542404747147   -1.80146209743186
C        -0.92150552274308    3.42000330515897   -0.39379027577850
C        -1.74793877777217    2.44509808253944   -2.48396132613678
C        -1.78931465604755    2.40849836317107    1.63936831568913
C        -2.04096456435517    2.96685402540252    0.33059727523430
C        -2.79283914028020    1.51907981652378    2.13873589654360
C        -1.11263452746855    0.21693038703537    3.33880164001185
C        -0.90229173439646   -1.18705583639797    3.12628767109985
C        -2.44963600045637    0.49815345879463    3.02366470535434
C        -2.05020774468390   -2.63970288125305    1.50062010793372
C        -2.12386500105363   -1.74115011554116    2.59181439335945
C        -3.10309066117347   -0.73654273182762    2.63311810147537
C        -2.72847621947650   -2.70581679728023   -0.87223219456410
C        -3.21497300536770   -1.63823275339221   -1.69972106293582
C        -3.05618513840390   -2.46886620333110    0.51029754370439
C        -3.85112357859324    0.97729645578772    1.28784200995184
C        -3.96024092161607   -0.45385359700704    1.55439999799440
C        -4.07254655111739   -0.86621257448763   -0.85854963995345
C        -3.96486871577689   -1.36440262478538    0.50142722915058
C        -3.54171753714843    1.03226186354814   -2.20455722704162
C        -2.99287960848696    2.31527718619603   -1.83614673021084
C        -3.14862743137317    2.51196184253021   -0.45322449487819
C        -4.20723279524562    0.49767281759818   -1.08361365316391
C        -4.00827750062118    1.44163272315789    0.01348528660636
