70
C70 Isomer 3322 Symmetry C1
C         3.61255893083798   -3.21722417276821   -0.24526932347367
C         4.14746129200093   -2.20825237853120    0.63529506592798
C         3.21462548402679   -1.98714797025766    1.69095016791910
C         2.40660834947050   -3.67133266838874    0.28132515421035
C         2.15536466677614   -2.95068268475081    1.51544211870831
C         1.39702437513286   -3.59007402902156   -0.74773957910012
C         3.30484600137282   -2.56204148576624   -1.49874882916835
C         1.91689288282107   -2.76149290339823   -1.80288967805796
C         4.48940314365972   -1.10049522176980   -0.17351910727448
C         3.81701015350851   -1.26147794826164   -1.47670461851009
C         4.46962354099187    0.13331798797926    0.43674900094396
C         2.88201365420043   -0.67280268933906    2.14137432948318
C         3.71412887321103    0.35508219764209    1.64513421205618
C         1.51523755310083   -0.34619068852082    2.52588933793274
C         0.85707861833119   -2.64048092612625    1.85422462083835
C         0.51820429169737   -1.37248716873138    2.48541306029983
C         0.08903657470752   -3.48939838298726   -0.35608105221373
C        -0.16782070717431   -3.28906919986580    1.05193897850204
C        -0.84930663554869   -2.89211113932939   -1.26628671985609
C         1.10339450991244   -1.71455332542094   -2.27189580609746
C        -0.32428455685247   -1.90400945646086   -2.13987400812529
C         3.03964989251871   -0.18458325616896   -2.00878421276253
C         1.66657722136098   -0.38604853286532   -2.41414590986859
C         4.23341834308525    1.25167954604159   -0.40041157559307
C         3.41915140412998    1.10759153099586   -1.56680473497129
C         3.24084968066642    1.70764745868376    1.60971131987162
C         3.69095733332219    2.29649567141205    0.38887395883512
C         1.06898159738350    1.02937070757717    2.57703953182357
C         1.98257093322324    2.06256440765453    2.13600131140506
C        -0.35085567988803    1.31575417051773    2.61664258844555
C        -0.86551618592609   -1.07182412331046    2.66187865285636
C        -1.34513846946600    0.28077951742601    2.63186600262552
C        -1.46287152705372   -3.10934992176901    1.41573805913902
C        -1.80956905997415   -2.10239331665776    2.38781875945103
C        -2.23617618108153   -2.95098806675299   -0.90010332563604
C        -2.54949236084550   -3.24592922833513    0.46497167083129
C        -3.12941886088504   -2.13404588163843   -1.62662415524734
C        -1.19765869269239   -0.84686123322988   -2.56527967632306
C        -2.57570592608663   -1.04444430102566   -2.40266461647818
C         0.76714814571808    0.73492673708722   -2.49740627314010
C        -0.64183935184164    0.49294961880688   -2.67586137846753
C         2.51354085107299    2.20685932494170   -1.60936791113340
C         2.77846408441108    3.01790937515223   -0.42244703590381
C         1.20357378335377    2.05866277824428   -2.07493090276743
C         1.44466995723157    3.27388837868327    1.59437063652272
C         1.76418142998589    3.65370355980348    0.22118553703813
C        -0.81518382278628    2.60296470078944    2.23667828212702
C         0.09902952452964    3.55421042214151    1.74668983727124
C        -2.03781968665946    2.75205164807162    1.48703950354345
C        -2.70065470174569    0.55303256506858    2.19768343104474
C        -2.96308308978826    1.72528879873875    1.39162965038564
C        -3.16089091633249   -1.84303600189590    2.21016889994390
C        -3.66232287495214   -2.65199011265145    1.08469755841301
C        -3.62672465310884   -0.51418669933443    2.04414798586587
C        -4.33226951681844   -1.67174554680539   -1.01635439538752
C        -4.54321857293991   -1.85351901186600    0.35935198563238
C        -4.58138380312325   -0.52279862884172    0.98676036237475
C        -3.44926368469581    0.08587410755946   -2.20460295994700
C        -3.74458876935331    1.61459763864018    0.16084626701172
C        -4.45731865287458   -0.25622246568812   -1.29091602481825
C        -4.51926930000652    0.44049238591307   -0.03961668673585
C        -1.53501939111140    1.56947951746927   -2.48870158322061
C        -2.88675384953113    1.35124931117716   -2.12781431403469
C        -3.18324235705595    2.19479923098928   -0.99507424266159
C         0.24013358740574    3.05991403001650   -1.62999631266016
C         0.53235302790614    3.87749542246554   -0.49052332392683
C        -0.44751021320962    4.08270884176994    0.49030399938443
C        -1.75275461132810    3.60928317792285    0.35232153959188
C        -1.10952016958633    2.79425923726383   -1.84861557883400
C        -2.12831686074144    3.14240676388642   -0.90709752586092
