74
C74 Isomer 8747 Symmetry C1
C         4.94023746682041    0.19615727332489    0.43068325219833
C         4.74355495360688   -1.15333514165552    0.64221729746893
C         4.38655361767362   -1.76217453204755   -0.63576026276505
C         4.61777202005017    0.46617387118607   -0.97281660779702
C         4.16075763105948   -0.72749952678728   -1.59361786074985
C         3.83022368136506    1.60854631945338   -1.02459869573065
C         4.25864725255179    1.16986099175290    1.22062328527300
C         3.69025981013810    2.13554129153344    0.32208635332386
C         3.45388412033720    0.74073640390856    2.27136599510538
C         3.80883806741763   -1.61899950538866    1.62781888795094
C         3.21611528276718   -0.67275622847839    2.45984199233758
C         3.39248748653432   -2.70728461677036   -0.36609956332961
C         2.97140096395555   -2.62429782274786    1.02208262166167
C         2.41980598407215   -2.89163896834925   -1.33665391059914
C         2.94730974127227   -0.70689297372680   -2.36754210488508
C         2.21909397749068   -1.90999080571683   -2.36211743824068
C         2.72696207949030    1.68504244013508   -1.93863585187928
C         2.18872416844764    0.50649362970099   -2.56330265068278
C         1.89607855467567    2.77254186958293   -1.71422792825799
C         2.56649622104555    2.89863333357759    0.65834645818637
C         1.91128275881689    3.46381224217553   -0.45705062114466
C         2.21420198070788    1.42715632238468    2.53350981729729
C         1.75595543318240    2.53873687232064    1.81009117932946
C         1.84008041835190   -0.84120252358358    2.81892937183108
C         1.27114588988531    0.46393920632111    2.97469365257453
C         1.61344424540934   -2.78241752068122    1.35636175057719
C         1.04275860754915   -1.89410256840273    2.34164293682456
C         1.15471195738237   -3.40880056241741   -0.95481284189536
C         0.70322895770980   -3.34386838646692    0.37679960547341
C         0.84129105641080   -1.94705187195907   -2.72474534070795
C         0.26169223970205   -3.03429458255505   -2.00396731221086
C         0.75824889932833    0.47419910188915   -2.87574729325991
C         0.07891690688444   -0.79578029515497   -2.98002579488953
C         0.55409600984096    2.81893599893499   -2.23595705918454
C        -0.07327726263603    1.63441781349401   -2.71555533876809
C         0.63682051366610    4.02272045484089   -0.28222074084597
C        -0.14295361371523    3.75944881289785   -1.46695973897364
C         0.33110113616584    2.81971970425119    1.82836206147464
C        -0.16863655224847    3.68704387791830    0.82040903094654
C        -0.10434378734695    0.67166143775348    2.92679198984083
C        -0.60963394497516    1.91390547865628    2.42854738434493
C        -0.38164865758860   -1.76353465545405    2.49294428001029
C        -0.90974447808816   -0.51550829195336    2.96365509708909
C        -0.71924359928770   -3.31718949782325    0.61108787271103
C        -1.25327939260551   -2.65644712405182    1.78137463534242
C        -1.07934741152381   -3.08005489032888   -1.79273691615549
C        -1.58804555340977   -3.41822906994951   -0.49486395093276
C        -1.36579390340590   -0.89805699950579   -2.87334113928501
C        -1.92422832590603   -2.11261174449155   -2.40179355751973
C        -1.52372463120103    1.54601864638845   -2.58116831253673
C        -2.18044328030320    0.27822644854157   -2.74350373771152
C        -1.46681456525846    3.50807534449097   -1.08528051268625
C        -1.52999782627692    3.55278593070821    0.33951242805611
C        -2.21082847453309    2.54790632414652   -1.80246241547221
C        -2.03495829493681    2.00169092152833    2.14208860230868
C        -2.48911756138597    2.81391636122343    1.02878919083848
C        -2.29281694282239   -0.30299668856169    2.96145689792093
C        -2.86238039328697    0.95365333405822    2.53854677653062
C        -2.64964684160059   -2.43462742975911    1.84333070136541
C        -3.14785050266434   -1.33088302534930    2.55632189435391
C        -2.94547898330968   -2.96618049339249   -0.48242769011552
C        -3.16726187899540   -2.18850576249441   -1.69001520994666
C        -3.53079554588562   -2.58045583511318    0.69888889955271
C        -3.52810956848984    0.11847324736497   -2.28458775272913
C        -4.01365235358429   -1.11748729464989   -1.68519208113763
C        -3.43354351108108    2.26197631360160   -1.16232178675008
C        -3.59999487675236    2.40348290239404    0.25685108156594
C        -4.17044542102066    1.13809804786409   -1.57309851558420
C        -4.12405525351938    0.64641697356314    1.86566354813962
C        -4.29365183096449   -0.75422028860190    1.87551062286086
C        -4.51692155038812   -1.51133136243689    0.70062058755713
C        -4.78659111948678   -0.81366945005592   -0.49164605318466
C        -4.46502830531700    1.34070213156737    0.69859521427161
C        -4.87989409596341    0.59253066142761   -0.43458866595010
