68
C68 Isomer 2083 Symmetry C1
C         3.83391675121366   -2.64794588638329   -0.45015855277993
C         4.17636252895955   -1.83578737767553    0.65468006643708
C         4.36675084133457   -0.48631213316538    0.21495439762828
C         3.58082299197086   -1.77508445300165   -1.54904701239521
C         3.95613738546898   -0.44548778953938   -1.16722392376492
C         2.24965469231868   -1.98993512473007   -1.99901725609278
C         2.59418492563693   -3.29668894547982   -0.12358742724823
C         1.66398741400202   -3.00403544651521   -1.14871503124468
C         3.24321637350104   -2.09973472806254    1.72358991099618
C         2.21756645647464   -2.99991451872612    1.21850101471835
C         2.85687715822505   -1.04340255845274    2.51425721419858
C         4.04872788725634    0.58537009652760    1.07995508569999
C         3.36115230886714    0.28840302033911    2.29139287650811
C         3.73348881695210    1.82301974800686    0.44242727751397
C         3.23269259876295    0.65391548865705   -1.68359645275530
C         3.33720265746965    1.85225795010973   -0.94782984245125
C         1.44573663800002   -0.92646510218462   -2.48597887559898
C         2.01736092795235    0.40113332198415   -2.45834892336566
C         0.02568457734034   -1.12892438676091   -2.51300587436135
C         0.30875338908038   -2.96559343591262   -0.85124314635945
C        -0.51958605200313   -2.25008212542267   -1.78594470092503
C         0.85816743627428   -2.81492352337977    1.53099174693368
C        -0.12071338403669   -3.05587849323727    0.51078395010722
C         1.48357181055077   -0.95020163788381    2.96672707728602
C         0.48408910389396   -1.82599845570865    2.52195275356628
C         2.35845459950211    1.18190929459617    2.78379776255890
C         1.20361753374535    0.42839359047853    3.17638669724344
C         2.96314695539112    2.79074871703757    1.11380072800096
C         2.16331393355680    2.44297680230930    2.23215267711244
C         2.35872599673678    2.90150738094350   -1.09875208658104
C         2.12083977648170    3.48622278985562    0.17526018590328
C         1.11083189897907    1.45286481722871   -2.61781440121063
C         1.26911743995422    2.70442651401192   -1.91863580477372
C        -0.87511244620140   -0.03874406519644   -2.77461039669515
C        -0.28461644900393    1.23409364999364   -2.80877830267264
C        -2.29866430801449   -0.12511641562117   -2.48796169023802
C        -1.87548539437583   -2.34834957101594   -1.55700428106442
C        -2.81688653624060   -1.37198567839664   -2.04729674548149
C        -1.50341490987415   -2.86898891959194    0.80303195556861
C        -2.37484181361416   -2.87550412563336   -0.30893082437074
C        -0.88016552173492   -1.40472838575843    2.65783183632757
C        -1.91812829024278   -2.16940673175555    2.00291148053585
C        -0.09553677961085    0.92699182176325    3.04151208200962
C        -1.14105014779219   -0.04532638273529    3.02105245572002
C         0.82664230289148    2.92803749078490    1.99753489494062
C         0.82321557881629    3.58043867621197    0.69738170607237
C        -0.29590119635101    2.21650062611434    2.41253983469416
C        -0.03537926905022    3.14451877436949   -1.50668080131705
C        -0.98016267608907    2.35018238093151   -2.22658632545409
C        -0.30399065106909    3.46734259644870   -0.15899521842529
C        -3.00568154965188    1.01388722493452   -2.03012674181818
C        -2.25901375490328    2.20772906269058   -1.75948335912049
C        -4.05388733350752    0.93294843943099   -1.04693139360655
C        -3.97326020434767   -1.45475485538988   -1.26403316133580
C        -3.70368072418444   -2.40967729169980   -0.18406950526354
C        -4.59555690433223   -0.30900829270060   -0.69871887107359
C        -3.25526032714262   -1.71843598909492    2.09728315031331
C        -4.17239859094343   -1.89785081019509    1.00786818539558
C        -4.81384438649664   -0.60698741689764    0.69762338556282
C        -2.44766281471886    0.46603986949015    2.85128048297625
C        -3.49699507303723   -0.39432743518564    2.57548659645518
C        -4.41031554521869    0.28865369031300    1.66177016287324
C        -1.55900426494853    2.48424202931302    1.74663196015309
C        -1.56434185320598    3.06725483632323    0.42351326207222
C        -2.60054558672571    2.67136437693554   -0.44152036379151
C        -3.73266580142037    1.91016169083906   -0.01658419589222
C        -2.65479043846772    1.72392436058827    2.14356192526127
C        -3.82447070900387    1.55412735952839    1.32678471018437
