74
C74 Isomer 6930 Symmetry C1
C         4.85053864506704    1.32847209289960    1.06298509924801
C         4.96316249922711   -0.02948265188536    0.99652691963572
C         4.99376579878475   -0.44049412268128   -0.42328674030984
C         4.77716618160479    1.80757728630429   -0.33697186773512
C         4.62189916049148    0.67682850935379   -1.21089813935660
C         3.85581404900467    2.80983526996662   -0.36431884303029
C         3.77224141104050    1.91063813621495    1.80959385309345
C         3.34316202393682    3.00268767389461    1.00274837003183
C         2.78834748794342    1.08525755452184    2.43516689671303
C         4.07150285797014   -0.89055438601265    1.69834963340776
C         2.95380797397014   -0.35911320138448    2.40753931150191
C         4.35093245082955   -1.66958695238176   -0.51130626896592
C         3.91593975852406   -2.03129513359729    0.83514368528930
C         3.44323277211088   -1.86184040459676   -1.56484160010018
C         3.45724400737257    0.58569237531375   -2.05464143908040
C         2.96842139820173   -0.71687336991373   -2.28682313500302
C         2.72824070177805    2.78326188326722   -1.24911112460810
C         2.46061892268977    1.65437196544821   -2.06766693840533
C         2.01239676281435    3.33162852008798    0.90265498084781
C         1.65886037877519    3.35110259707398   -0.51292278406908
C         1.44174525220702    1.59676675303773    2.53041063534185
C         1.07976159631557    2.77030153073742    1.80364956981699
C         0.34795618082160    0.73727968096293    2.93068312746378
C         1.79071608182599   -1.21474567267370    2.56574008263609
C         0.47549839701618   -0.68620544547943    2.89735486865152
C         2.82122809049703   -2.82692508593036    0.98501032414578
C         1.83657690562440   -2.48660005338341    1.97035747745063
C         2.35553553263527   -2.77061161453591   -1.40439659407974
C         2.12042445925440   -3.35026803411283   -0.16383631686639
C         1.59119586973490   -0.96390435773161   -2.61096103980401
C         1.22435909592249   -2.25752210193987   -2.14151163538765
C         1.07163028179767    1.38652704976693   -2.37596036226064
C         0.62857781097950    0.04832168453573   -2.68499579747956
C         0.34780732794518    3.18479562857176   -0.88799831721395
C         0.04246070057308    2.28464185272068   -1.95186241053350
C        -0.27449536483742    3.09477926324245    1.49359968178431
C        -0.62676099006295    3.45303361649055    0.13974012421490
C        -0.94835972561582    1.28892726587206    2.93571659606200
C        -1.26362795013474    2.52668250702508    2.28264341754165
C        -2.12976931482730    0.50729935435187    2.90817824998097
C        -0.72060407874461   -1.48892209231826    2.78012203351764
C        -2.03812559394837   -0.88656593504655    2.81948306318137
C         0.63181475798746   -3.12759651689312    1.57412062112874
C         0.78292594387696   -3.58940548544496    0.23312612958818
C        -0.61140575417539   -2.74614532930965    2.08745352369018
C        -0.09474170130405   -2.57203628031549   -1.82496565536371
C        -0.30192803791660   -3.41697409157879   -0.66483960413278
C        -0.76228646570850   -0.33496274860096   -2.62384298061872
C        -1.13126109841639   -1.65980431795261   -2.22376661442596
C        -1.34165574334774    2.02528107619132   -2.21393242644760
C        -1.75665899861677    0.70566406783228   -2.62449491234555
C        -1.93917241360542    3.42174532091879   -0.25813469174780
C        -2.27865865287728    2.86225081789423   -1.54740811625236
C        -2.63330311603923    2.50958034263948    1.89508373070169
C        -3.19687110756845    1.26710445962043    2.28044141483241
C        -3.01102162925145    3.10379688929189    0.67282306959338
C        -4.21999301349126    0.65078597768901    1.50335823641479
C        -3.17048171782014   -1.51615573797296    2.20715541283660
C        -4.18965752916754   -0.75776486060920    1.47707156786298
C        -1.69950786402776   -3.25126169947642    1.34463788404298
C        -1.54827205952993   -3.45155810400314   -0.06435904828555
C        -2.98991460995386   -2.72198288350532    1.53461227144098
C        -2.48273505837669   -1.93494659005669   -1.78197239612039
C        -4.45816027175849   -1.47121497265587    0.25678107841254
C        -2.69922944957973   -2.87438794047284   -0.72365863581384
C        -3.67032477035720   -2.63726819619719    0.25650568899945
C        -3.11251663405850    0.33670023625751   -2.46637221368416
C        -3.46418668865201   -0.95126740498546   -1.94164492770172
C        -4.52886102117404   -0.76181438619039   -0.95243560913690
C        -3.63459911054102    2.48353454182619   -1.44903851125654
C        -4.07608869917047    2.57422941812655   -0.04745528161994
C        -4.68451486082267    1.33788097973025    0.31983315614288
C        -4.05124961672957    1.26491780425139   -1.93671586370530
C        -4.82650881494234    0.59787617789493   -0.89005294429796
