80
C80 Isomer 31086 Symmetry C1
C        -4.58106745521069    1.20809957117537    0.51371111458548
C        -3.94549671074111    0.66943137502993    1.64763913147869
C        -3.98964113247292   -0.76886491474238    1.54681799691174
C        -4.77590013772922    0.11912520047069   -0.41654043625173
C        -4.61957679896156   -1.09227290314192    0.28658092041473
C        -4.01006187566279    0.39063633716341   -1.56164490852855
C        -3.99644935821480    2.27394191029406   -0.19301961235163
C        -3.55320024182616    1.76764364224235   -1.46550956903377
C        -3.15440323776354    3.08786682643826    0.52671885656508
C        -2.82426622042246    1.32000051389015    2.22523003163323
C        -2.63156914049407    2.64335792805356    1.78699339124357
C        -1.67049396153040    0.54779832897491    2.66942040814296
C        -2.92590761099165   -1.53570727856616    2.04567482536306
C        -1.71504178200761   -0.88519233777170    2.57312381323659
C        -2.83599848138948   -2.83765644078668    1.47392567761833
C        -4.16453700119053   -2.16842727737476   -0.46051360122839
C        -3.49545631947037   -3.16170509179689    0.27451630088385
C        -3.18075765061484   -0.63264532306277   -2.11881134010696
C        -3.40416082085127   -1.93979666614916   -1.66651450602885
C        -1.87794940803907   -0.27576271531426   -2.62991299530024
C        -2.32157124548497    2.14866874537761   -1.97972098670002
C        -1.54865093031294    1.12131714149492   -2.66649979200803
C        -2.10862860195498    3.76992074632152   -0.15633364862707
C        -1.63983754775838    3.30251404881493   -1.39241720409628
C        -1.39272048743393    3.31126127342889    1.98469248377174
C        -1.17782925207648    4.17748216707253    0.85973094965624
C        -0.41071283646622    1.21661848095287    2.85445055729934
C        -0.31620637851511    2.65255539849446    2.61319357263077
C         0.80285478226072    0.45136309474587    2.93491846540095
C        -0.49355638834536   -1.63247924462288    2.66416034624490
C         0.77060594781104   -0.97640646719123    2.85305657454742
C        -1.57309700530042   -3.51944936022835    1.46636545874516
C        -0.47378623729915   -2.99913953750923    2.15984780413287
C        -2.51076582486188   -3.76889367603786   -0.59362298596823
C        -2.33166915539002   -2.91549026896070   -1.69386266996917
C        -1.39604893552137   -4.11294028720970    0.17624417538221
C        -0.82579879766605   -1.27544276094169   -2.69447097610034
C        -1.02331950706671   -2.58732102100340   -2.14561676220561
C         0.52682897635108   -0.87973209946665   -2.97091252140611
C        -0.24023433542593    1.46688961189942   -3.00355611074802
C         0.75298130454111    0.47648359396643   -3.23796987622132
C        -0.24827477231331    3.56918112863269   -1.70274749371589
C         0.40067737285680    2.67114436955182   -2.57337582589944
C         0.09089562867574    4.56766455016187    0.51147433287558
C         0.58788306469169    4.27412111462420   -0.81513473939749
C         0.93881171510427    3.27454420528679    2.40158986196854
C         1.10660543523441    4.29466337639848    1.44709510319096
C         2.07327806372400    1.12683292500162    2.71362075043717
C         2.13596015056181    2.47976429315648    2.38693650715007
C         3.20424880297883    0.39842921942484    2.28660243056044
C         2.02411127134917   -1.71568928910534    2.63416359319755
C         3.21147786583724   -1.01355971147930    2.31013162031555
C         0.73267015200205   -3.61989118872162    1.81211114825810
C         1.99704066544557   -3.04538237317655    2.16054685201373
C        -0.13522511109786   -4.12323672929392   -0.43593408903381
C         0.09631069916289   -3.34769501938064   -1.62261266499123
C         0.87845644172214   -4.24776988082397    0.53195623141602
C         1.66539136227476   -1.69697350740573   -2.59637455489580
C         1.45068841053607   -2.93358546239865   -1.89200054540619
C         2.92391682211689   -1.06584292038551   -2.46530289429084
C         2.01179298043219    1.10360540663495   -3.01144002640575
C         1.80286218855931    2.42403092647584   -2.50945146304537
C         3.07070187677072    0.35221707319254   -2.57642633630988
C         1.98561054434587    3.92900865321833   -0.67296604459546
C         2.30683933421112    4.00153418124907    0.70060534891893
C         2.99138124038608    2.95177187971208    1.33193005301754
C         2.60826123702687    2.93053070114496   -1.46808994402238
C         4.04783047630737    0.86063279513886    1.22622817838479
C         3.92033242799594    0.84996171550992   -1.52932780945302
C         3.76331234525670    2.06104210336229    0.55970901050110
C         3.62026387047551    2.06597007763153   -0.88011355009445
C         4.13475254522488   -1.45329219360814    1.29519103229828
C         3.89583081029467   -1.48637529759761   -1.49539630953819
C         4.51430774930652   -0.29560829336822    0.53644746466997
C         4.42902805319538   -0.30264331920093   -0.84853729335559
C         2.95274316003452   -3.50543327625948    1.21480475430856
C         2.20524316963764   -4.09228613476888    0.13431216971747
C         2.50915327556075   -3.43014226831300   -1.07753064525137
C         3.91203007542914   -2.65498719135063    0.64662900557996
C         3.69189640018613   -2.64690690329481   -0.79688557208676
