80
C80 Isomer 19230 Symmetry C1
C        -4.94068455594017    1.13408451769186    0.72167514780092
C        -5.05743688583287    1.01758134274655   -0.66057476073073
C        -4.22633867391266    2.06235397542611   -1.25284352176139
C        -4.09291555249895    2.27660384700550    1.02051807670691
C        -3.67632766241243    2.85609563054590   -0.20891013837996
C        -3.11951341428842    1.84365413547844    1.94936306405965
C        -4.48524369305040    0.03186547724615    1.50767750129032
C        -3.32250215533140    0.45398607230715    2.25712897308138
C        -4.45657597921319   -1.21593523437365    0.91197936243185
C        -4.73922436248090   -0.20776305632983   -1.30615675621326
C        -4.60764720065687   -1.35167200388808   -0.52405885283130
C        -3.36025753431245    1.47069038103492   -2.17650390877556
C        -3.69761550321231    0.05880007564356   -2.26601733189111
C        -2.02528342979337    1.93552125310747   -2.32669331789006
C        -2.36986734774600    3.31925518975366   -0.32748153943965
C        -1.60361801830901    3.03555600513078   -1.51002765792680
C        -1.83323118625131    2.38143359823501    1.91640898377758
C        -1.61063847425557    3.36474289392328    0.89621649657617
C        -0.70691416519139    1.61846127989460    2.39723660481917
C        -2.21304494258372   -0.37125386030374    2.48826194397753
C        -0.88253373760701    0.21266653750012    2.62273905861180
C        -3.46163630149337   -2.14220313081500    1.34301414479791
C        -2.35483468313415   -1.76442947836663    2.13511111265272
C        -3.71727893877307   -2.37483742263086   -0.95180903387425
C        -3.24726736237130   -3.03177712449272    0.24181237224340
C        -2.70720007183694   -0.86830547663295   -2.57262228107698
C        -2.79286434170762   -2.19962340800262   -1.99669917942955
C        -1.03903397334892    1.03965740098414   -2.84321311436888
C        -1.42072814305046   -0.34914486121306   -3.00305359854674
C         0.34872575235034    1.41864003555889   -2.82186022794349
C        -0.25102164759470    3.47117410947991   -1.56762006661547
C         0.72058813828074    2.72013241499699   -2.32393088858738
C        -0.36106010596437    3.90219511952121    0.80167539559795
C         0.19792437819803    4.25357211224561   -0.46720743118254
C         0.60306070324682    2.18400780539017    2.27567814175403
C         0.70662485098394    3.48392416018855    1.67783093373263
C         1.77206988516137    1.36495927368079    2.30864705522725
C         0.27993810241111   -0.62478266969774    2.66749731645696
C         1.59796263561631   -0.05117737611324    2.52637033439987
C        -1.19409139780055   -2.60316704491268    2.13330316388525
C         0.09400211011039   -2.06723341346244    2.53181021896991
C        -2.14143021886523   -3.81423336528659    0.22511189811721
C        -1.21767583244399   -3.74885249346497    1.31274971059380
C        -1.64520705609141   -3.08333330452678   -2.03579322610300
C        -1.39838135174788   -4.00705901956447   -0.98937967635773
C        -0.40271853962869   -1.27737799925705   -3.16785613597029
C        -0.50399519682019   -2.64785093554368   -2.72622977775196
C         1.37086827554278    0.41395064808115   -2.94704124019928
C         0.96369311408422   -0.91246678205800   -3.13744634913977
C         2.71076252840373    0.59830388010438   -2.44693380673307
C         2.09545561444921    2.97211639071037   -2.09168234516716
C         3.05449733544257    1.89949778994945   -2.07585903472003
C         1.56715662791201    4.45954107481300   -0.22469748844303
C         1.88233151643561    3.97699853290438    1.12627173759620
C         2.49746046871969    3.89787241923887   -1.07767907977484
C         3.00124166709776    1.88017083504016    1.70888935828721
C         3.95252894908385    2.13011239915043   -0.96140056180471
C         3.03496506199443    3.15359795562417    1.05923508949951
C         3.53565016114763    3.26992654368519   -0.26895574943140
C         3.89227620452889    0.94187041135772    1.15973249144072
C         4.33548487343424    1.04214066830081   -0.20430589323181
C         2.71623000821486   -0.92450480656279    2.25003851958433
C         3.79438819402173   -0.43546410429104    1.48000734838405
C         1.20588067046016   -2.89072669688946    2.33189885721850
C         2.51914769790487   -2.32406945728122    2.17764288402466
C        -0.02498959035992   -4.34873030833423    0.82484532889012
C        -0.08846628587154   -4.41577719061779   -0.62000413086209
C         1.15036056205150   -4.04889507334004    1.46616792747551
C         0.80181017386724   -3.11166363283812   -2.42903366550294
C         1.71943333825451   -2.03942578861286   -2.69766133668780
C         1.04691676467920   -4.02722311281853   -1.37483505569416
C         3.44563455110075   -0.52758342743834   -1.87773159191936
C         4.26394141414670   -0.26078003718124   -0.76873049390570
C         4.25956454634474   -1.17238932946640    0.34070017238792
C         2.93289007288449   -1.88177315324387   -2.00431326122696
C         3.23643497711358   -3.10821657579898    1.24782634325986
C         2.34315417115527   -4.08426702094965    0.70037730986953
C         2.29479493877704   -3.91381576736029   -0.70346684331686
C         3.89879676661865   -2.48449342107146    0.16349002739910
C         3.25164771155371   -2.88243582864436   -1.05462005547039
