78
C78 Isomer 5370 Symmetry C1
C         5.48118238102760    0.27127954774517    0.69851401875293
C         5.17917816072056    0.91622899534281   -0.53938452745165
C         4.65390849992458   -0.03981192391950   -1.46876634822788
C         5.13089542707647   -1.08368764707722    0.59158010268347
C         4.74791580379144   -1.31362115872888   -0.78445114258844
C         4.16523726737693   -1.36909707211727    1.61004293995958
C         4.64039705682256    0.87627577955920    1.71521445481256
C         3.80275465453104   -0.12818818726462    2.26878398455322
C         4.43826516574648    2.09193744013659   -0.23585605433807
C         4.05340614105825    2.03606069782910    1.18693289186649
C         3.49232195474132    2.47951689871041   -1.15227333619313
C         3.48579529084676    0.25605621888398   -2.22903263753823
C         3.02340255922804    1.59126575376387   -2.18221833206640
C         2.45991842839881   -0.74453676129471   -2.48067951655194
C         3.77409468743229   -2.24336392912645   -1.00743945727771
C         2.72010677894527   -2.02901357607733   -1.97582468546403
C         3.17923250942333   -2.33189214914753    1.38672129472417
C         3.17194208127390   -2.94164048216177    0.09927252656513
C         1.92544647245422   -2.20821320363299    2.10488185007247
C         2.45161717708979    0.15212935969729    2.58456602478727
C         1.50790435955090   -0.93884124858928    2.64429604372273
C         2.75183133720584    2.38725521198948    1.57661375233119
C         1.95771512983056    1.48367604473482    2.37470886665939
C         2.37858279914423    3.25309877976069   -0.69866090062156
C         2.05720782087072    3.27529712922763    0.67908688708806
C         1.66472745883659    1.91948056524531   -2.42469895142357
C         1.33357496010080    3.07387892790185   -1.63088884345878
C         1.06868491919161   -0.40594350760900   -2.73169802992874
C         0.65729698538247    0.97426694398049   -2.72192005785025
C         0.03441758662710   -1.38994537518452   -2.61089696012391
C         1.66566956664740   -2.92358362633788   -1.67449876637746
C         1.97973236892990   -3.51864562504264   -0.39384234963762
C         0.34551546429394   -2.67289609435146   -2.02857420237460
C         0.93980528119351   -3.14205123742403    1.76260589834451
C         0.96606080952568   -3.80127043442172    0.48598575428228
C        -0.41977535062000   -2.95172877348961    2.08407049866089
C         0.10619133733039   -0.67377644186732    2.84571108516115
C        -0.84130840100089   -1.74870063823163    2.67305264687879
C         0.54855832545627    1.72987271478595    2.54642424238622
C        -0.38982566926077    0.67630877684171    2.84507387957787
C         0.74618181442710    3.59873538384769    0.98104871875142
C         0.02521307277393    2.93112282620893    2.03365052733304
C         0.01493353703587    3.40028267701928   -1.32918473509279
C        -0.19575872244949    3.91501624186857   -0.03178023968229
C        -0.72471964949723    1.37181629227263   -2.58708207601470
C        -1.03586261478998    2.66279991346738   -1.99253845771158
C        -1.34850234512506   -1.00046706014172   -2.71503876608683
C        -1.75653853535867    0.38647143822883   -2.69022347090428
C        -2.32077264168182   -1.98413009912651   -2.39382580904749
C        -0.66863711175007   -3.41562376719895   -1.30088726069486
C        -0.36578193613787   -3.90579383098351   -0.00030937857247
C        -1.23396156113332   -3.57667332275471    1.07182487533132
C        -1.98962196198950   -3.09945184791289   -1.54775839190339
C        -2.56889655592218   -3.21007249061075    0.84540718335077
C        -3.00047907582246   -3.20047262201555   -0.51602013048294
C        -2.21977376716562   -1.47397908509254    2.56046178181505
C        -3.11402023759040   -2.24459176254286    1.72157278812660
C        -1.81456630833521    0.93969721947308    2.73987057800420
C        -2.70131862464810   -0.15708494686928    2.66057018447645
C        -1.36190225055087    3.14054653759849    1.81870154769229
C        -1.48559285209427    3.81888763151322    0.55824267235463
C        -2.32112673802766    2.19103574943692    2.22153493293239
C        -2.32980985646559    2.93441391978437   -1.55769614881823
C        -2.55714907194829    3.57595496209893   -0.27079735190425
C        -3.12517905560811    0.73068708361011   -2.33150493772377
C        -3.39089917353700    1.99746342558176   -1.76205566260736
C        -3.63704166648036   -1.62132039130513   -2.06243436139381
C        -4.05652382680506   -2.36462323426230   -0.88971447802781
C        -4.04086243467478   -0.28759271734929   -1.94452726593998
C        -4.18263004374960   -1.39305702880789    1.32030576572899
C        -3.96638837856651   -0.11056133064816    1.95458538882749
C        -4.65965493871718   -1.44767977281621    0.00137853612587
C        -4.82409748072726   -0.20146864923336   -0.72319965708221
C        -3.57040629335318    2.23384253473691    1.52666173377349
C        -3.67341932152176    2.95518233301139    0.31551112902181
C        -4.29900599972287    2.11773279313697   -0.67738027770730
C        -4.37817857746760    1.04860589345408    1.35479248940765
C        -4.84083440196792    0.99191241028308   -0.02969652003149
