74
C74 Isomer 6921 Symmetry C1
C         4.78358725806021   -1.40836543652253   -0.78359397771549
C         4.84633271379409   -0.06879765251787   -1.04324328580734
C         4.84513693941684    0.67780425061954    0.22305764480833
C         4.72628649183177   -1.52590158763409    0.69582763682056
C         4.55347513247075   -0.22119363286317    1.27799687781001
C         3.81707891245379   -2.49620604867219    0.98163334709502
C         3.73364770430572   -2.22064346581289   -1.35544123725709
C         3.29900469037437   -3.04184695879101   -0.28986097720969
C         2.75843287285237   -1.65083275989969   -2.22792416746290
C         3.92030683595715    0.55651593597667   -1.93362024353635
C         2.94581660044825   -0.25383022508832   -2.58176576001640
C         4.09253526504227    1.83137098286140   -0.00061626350772
C         3.54599318583666    1.80705780634877   -1.34856959366410
C         3.25009094970483    2.25314667538767    1.01698672475021
C         3.42905428689173    0.03769983258134    2.13773235846118
C         2.92504486955536    1.35355636358961    2.08646219906101
C         2.69823736042683   -2.26595785289527    1.84793014989459
C         2.43520865748207   -0.99471898679288    2.41805242266050
C         1.96122989273219   -3.32521899529661   -0.10633212463853
C         1.62316162591127   -2.97061752875320    1.26154824836932
C         1.39796181842298   -2.16560001405957   -2.18334834341328
C         1.02231568230340   -3.03644321788125   -1.12404396999113
C         0.28916986258434   -1.45502806172910   -2.79922861197900
C         1.82089765315955    0.45829016989668   -3.01752796072691
C         0.56017617392041   -0.17113210865959   -3.26769740861299
C         2.30754497790571    2.42371780814808   -1.62248492013304
C         1.55530943401055    1.79577615762078   -2.63002135507752
C         2.09677386953813    3.03887363654700    0.70770226898944
C         1.57974553788201    3.15228331790646   -0.59728709421279
C         1.60037565251279    1.67452599257287    2.52277987127612
C         1.20479916986055    2.84984163681615    1.80140283066752
C         1.04409527139412   -0.66949305998853    2.70490136692431
C         0.63533930822007    0.71237961564407    2.84854398016992
C         0.31213404500518   -2.70315021623351    1.58000862717665
C        -0.00461526922971   -1.60165579452490    2.43053576619477
C        -0.33933352139857   -3.21148229915228   -0.74365301546229
C        -0.64297968701691   -3.22301363901676    0.64654586199328
C        -1.10255065837751   -1.80797988724378   -2.57867856309832
C        -1.39202695492715   -2.87366790715468   -1.65661341107262
C        -2.14738214636713   -0.85188533465465   -2.85031776657886
C        -0.44602942217777    0.84007351692528   -3.25406053799195
C         0.14921981421924    2.03079975948111   -2.76778527710226
C        -1.79415440858414    0.53111003317052   -3.05287226105899
C         0.16017260572277    3.41002375301912   -0.75374893348182
C        -0.54937416910617    2.89335023477956   -1.90949296216448
C        -0.11175459078187    3.16830143283837    1.66680024007679
C        -0.62130014261068    3.60143427166967    0.40118899293103
C        -0.76830191458796    1.09583418130250    2.80343887388472
C        -1.09833817874491    2.38332719514402    2.33628665276928
C        -1.41027054814841   -1.27013707929566    2.56188772283105
C        -1.81064715208994    0.10023757950127    2.75530830714750
C        -1.96719285615266   -3.16770977500482    1.07663733074444
C        -2.35881566527003   -2.17880588068622    2.06622512299895
C        -2.71506853943936   -3.11088680126986   -1.22607691252529
C        -2.98763510653809   -3.36978214703920    0.15514033183849
C        -3.46235287901542   -1.09102510944863   -2.35883068802119
C        -3.76098547522541   -2.26480233990569   -1.67144617233570
C        -4.25681939629989   -0.02011763401905   -1.75824497798388
C        -2.57298368613931    1.57236972933944   -2.49884216772415
C        -1.95151312966509    2.68745669739317   -1.86929543817579
C        -3.78772311272024    1.26844963732085   -1.78933934843541
C        -2.03430707624929    3.35981875877161    0.44493786603978
C        -2.33327951430061    2.66037884051602    1.67226590896237
C        -2.72419896501856    2.99874745294117   -0.69536787597775
C        -3.84786137997955    2.10683788020248   -0.61979896494303
C        -3.11545879367585    0.47364542559820    2.35476046995983
C        -3.35343522591471    1.74167827606970    1.72694427234205
C        -4.21701608945815    1.53243972791705    0.59279649364629
C        -3.70531418589924   -1.80085703695589    1.72543501800774
C        -4.11687475205906   -2.56527157141668    0.58170958177237
C        -4.63123657655173   -1.93351633624023   -0.53852616090719
C        -4.86747272198388   -0.53409566802328   -0.54737202162331
C        -4.04582383298213   -0.45549198457980    1.77463381598183
C        -4.69626539752326    0.18200746930509    0.64492556656929
