80
C80 Isomer 11924 Symmetry C1
C         4.22831456565333    1.80775121774613   -1.89539749971153
C         3.30494253561465    2.76580689981992   -1.41301230292035
C         3.28398859871547    2.71885829429974    0.01255184684109
C         4.64532651399203    1.02521835438755   -0.77563804116456
C         4.13997910917413    1.63331991844300    0.42101552483562
C         4.27552402228672   -0.32681135851929   -1.01109886614706
C         3.48781767125416    0.95233908898834   -2.77124372447249
C         3.56544187437641   -0.37383766533719   -2.27762106567045
C         2.05721741032907    2.65225091275240   -2.11835668491639
C         2.19309124759322    1.52978109167395   -3.00690946506974
C         0.83577850541682    2.87360088936940   -1.47521427479464
C         2.07184252414313    2.97126237003703    0.67780357203601
C         0.84602510513330    3.17551759306790   -0.06398994937285
C         1.98209835005377    2.40513983982563    1.96589580551102
C         3.80566400767104    0.81488414236591    1.51408799353701
C         2.83605783152393    1.35528004511749    2.39259217027201
C         3.89202017174215   -1.18351897158081    0.03576008716451
C         3.85926290029895   -0.62750322721169    1.37406744707499
C         3.06309300621268   -2.32343041362536   -0.31686679602275
C         2.48656125563018   -1.24575565995234   -2.46797549404741
C         2.30637884964646   -2.34167730564726   -1.55544143327176
C         1.10972181787625    0.69530914754476   -3.24389742052539
C         1.35372439762321   -0.72176773221596   -3.18812492965915
C        -0.35269293061017    2.28651867654761   -2.06295275381635
C        -0.21736747199705    1.19836689547460   -2.96121919628327
C        -1.62369628090927    2.56981230930412   -1.46922287519087
C        -0.39170958533088    3.12718124948629    0.61039304510265
C        -1.61431221672791    3.13078682279267   -0.14954629243057
C         0.70648099773522    2.21741240894643    2.57409372498813
C        -0.45576237530375    2.65068229484903    1.96246729167527
C         2.05750034227635    0.52880621015950    3.27626093428637
C         0.71565811010278    1.03061128716922    3.35692221880454
C         3.22561401155097   -1.39043855391568    2.37524835971669
C         2.26494610002373   -0.81751785824169    3.31763118124945
C         2.58324083817921   -3.11351453248515    0.74145800335817
C         2.75395187962710   -2.66429568668884    2.07629460416361
C         1.30894452767282   -3.76305445617260    0.68502511800632
C         1.11604856336626   -3.13137422180645   -1.65625281204985
C         0.58972939821498   -3.82794352886293   -0.50615539700201
C         0.24359866246216   -1.53721021977113   -3.29937664144851
C         0.16640225517642   -2.79427664838509   -2.65113062851455
C        -1.34674142848957    0.34568095977625   -3.20259231649011
C        -1.07590182163371   -1.00388225656018   -3.49374852649890
C        -2.81089863991833    1.90845754300335   -1.93325871635412
C        -2.65315976503199    0.70820768435219   -2.72359634002088
C        -4.02017043326910    2.09317224726285   -1.21068434149962
C        -2.80508943611744    3.18166822834616    0.59000993288495
C        -4.03983693661741    2.86079053014077   -0.01981402676942
C        -1.66515569479701    2.07176093464659    2.46695442380906
C        -2.83584262396025    2.60041843651553    1.92513898085711
C        -0.40926278749122    0.18666018868568    3.39363204037719
C        -1.65876912196646    0.75342185933299    3.01818190485416
C         1.12609505711507   -1.70421406599258    3.44858339574086
C         1.50899375583831   -2.88701787258594    2.78470870772332
C         0.62550609975263   -3.54811634269276    1.94030774742730
C        -0.21090946954631   -1.24190627668444    3.36182258531579
C        -0.75045326959955   -3.21275527800238    1.98029215473585
C        -1.20692422366212   -2.04646678310242    2.68860839311586
C        -0.80756609576831   -4.01085345078786   -0.35520021530711
C        -1.46727972257656   -3.65730585479428    0.86378935642477
C        -1.22501555526655   -3.12076336640258   -2.55233033490614
C        -1.98339680614599   -2.03912508885936   -3.14425494884537
C        -1.71855936203810   -3.72992290879582   -1.41235653229985
C        -3.60396137062419   -0.32563609634194   -2.57055031794706
C        -3.22699978187262   -1.69545823152707   -2.65918697207971
C        -4.90651170601544    0.96129059798018   -0.97158584292845
C        -4.60441085119209   -0.24236354502455   -1.53928373108418
C        -4.86779328131196    2.19019336379748    0.96131752733136
C        -4.04570931101945    1.90809240872198    2.09142695388992
C        -5.26892687904689    0.95624709819688    0.41755392610338
C        -2.77511636066468   -0.11475113530292    2.71368766817576
C        -2.48449872544247   -1.48089080047002    2.34195528915849
C        -3.97368614215679    0.47935853440077    2.28781007053660
C        -4.77165190204066   -0.11125565101004    1.24713915933659
C        -2.76025512741784   -3.14764756256847    0.57249338605909
C        -2.96683543422500   -3.28972782771557   -0.83564763018154
C        -3.75782436812335   -2.36763589904515   -1.48976222750744
C        -4.52853995645379   -1.44583182336987   -0.74088429124656
C        -3.30583031839175   -2.08133235483538    1.31446884361825
C        -4.36555730028107   -1.32713006243724    0.66993048036982
