78
C78 Isomer 21524 Symmetry C1
C        -4.70523720003995   -0.56087234206471   -1.13900553097702
C        -4.71610990835961    0.68629321359195   -0.50509473135597
C        -4.59607277234810    0.40702557987122    0.92756301907454
C        -4.53479246446366   -1.59910784611660   -0.14365668736398
C        -4.31876229845635   -0.99213126523853    1.11336296775835
C        -3.64996538980390   -2.55855051228655   -0.66249263772404
C        -3.82058222140704   -0.86348596809576   -2.21131565070670
C        -3.12122199065655   -2.09497102659082   -1.92684487267694
C        -3.11144840369210    0.18511740863554   -2.76812587401610
C        -4.00510209269849    1.78808539676022   -1.08427916308860
C        -3.23106907281926    1.51653421498575   -2.24078116351034
C        -3.49196974547927    2.77229679407264   -0.19741697462346
C        -3.96327655853975    1.30560865830219    1.74343363692678
C        -3.61523141768324    2.57909954677614    1.20294285102510
C        -2.87433874375583    0.87761075249046    2.61590050604639
C        -3.23998577166289   -1.41882084781124    1.94484755565116
C        -2.41542124226651   -0.44923944616262    2.64513463906323
C        -2.78558128686876   -3.15887608177615    0.23304645382858
C        -2.60293251238049   -2.60859339366878    1.56075750745203
C        -1.54320904515527   -3.63960409961538   -0.23619290434454
C        -1.75771927408143   -2.27356365464065   -2.23837134449208
C        -0.96639256613575   -3.18204970650167   -1.44080797287474
C        -1.76207593231952   -0.03307641031947   -3.18998463166158
C        -1.05252627600362   -1.21984918711960   -2.93124573373965
C        -1.96516425085996    2.15435475776666   -2.44729796638132
C        -1.10901780112277    1.23058366785579   -3.10283565031409
C        -2.20995146934219    3.39705641132590   -0.42155249972812
C        -1.40524693635328    3.06080009426418   -1.51665351785567
C        -2.41328189424921    3.00433297533285    1.83038881993963
C        -1.94191039922837    1.94995592673945    2.67025472115608
C        -1.56151050418929    3.55630011186753    0.84965738063225
C        -0.57233245920492    1.73784182621941    2.80183911155576
C        -1.00348398637559   -0.68655087896720    2.90425967548134
C        -0.08985943706347    0.40610505274872    3.04181010494211
C        -1.27601611146330   -2.89768186257168    1.96855497042954
C        -0.72768160268299   -3.74568429046656    0.93768725649965
C        -0.43030770639388   -1.98033710208484    2.62350754420879
C         0.59810739649310   -3.91529154947010    0.81317226784200
C         0.47068026484490   -3.19974703650364   -1.56156658929646
C         1.19295777472225   -3.83894116438747   -0.51232709944299
C         0.39008340855610   -1.15824107221506   -2.94531427352638
C         1.17059407757824   -2.20729980091009   -2.33972710236688
C         0.27116859595934    1.33556639559994   -3.07353891012291
C         1.01092370169924    0.11000570743005   -3.22204497434644
C         0.03561849550197    3.16152478328829   -1.41559420794408
C         0.83336447120833    2.47467804836499   -2.38280179241036
C        -0.18208320120143    3.44979331628503    0.99798451987503
C         0.28404636364368    2.71700676322677    2.16592486341242
C         0.65416726109585    3.49121902167743   -0.16300014765769
C         1.63040030022720    2.54132034566227    2.31294339484016
C         1.33939061342652    0.18973200468578    3.04170592843976
C         2.15616686498568    1.33071449245835    2.90344991432399
C         1.00610039713744   -2.18579588954705    2.53858641219684
C         1.47430209314675   -3.29310574821152    1.77698926750137
C         1.92263345672911   -1.09869140556774    2.74308308624672
C         2.53837919051849   -3.57440226782862   -0.27774419054777
C         2.71962958569173   -3.26444469719715    1.14508403981792
C         2.59376015095784   -1.98722873708530   -2.10281869911536
C         3.25584020332074   -2.63419637488086   -1.01365632575040
C         2.40612814659528    0.22977691622247   -3.10662219153597
C         3.19058710289352   -0.78652611435323   -2.49669393928924
C         2.23020053422424    2.51198717281804   -2.25287775710545
C         2.99823544996621    1.47709603736799   -2.80736954782581
C         2.07624229527737    3.35317590126359    0.02283232587425
C         2.56219966495003    3.03217710708421    1.32947180517276
C         2.88727119649383    2.97672689269164   -1.05608483564503
C         3.48278013816747    1.23904235940856    2.44688372075435
C         3.73930820486654    2.29779013800368    1.49068980226791
C         3.25569648761096   -1.14610545529914    2.16616042830153
C         3.58056368344371   -2.18113414172515    1.25096364236595
C         4.05614851215928   -1.87412264641771   -0.08065258195656
C         3.98434798730167    0.04488885486934    1.93097173201190
C         4.23515283915455   -0.13131203807347   -1.71726996592927
C         4.13456166624145    1.24685965645573   -1.95110560224394
C         4.08884903754312    2.18096583149234   -0.88170249389650
C         4.45496116059312    1.74606954078397    0.39888989496352
C         4.53166269707516   -0.59714543721453   -0.39924274402267
C         4.62966047480601    0.34065782223956    0.65897571153338
