80
C80 Isomer 24156 Symmetry C1
C        -4.44403720546768    2.43050031900050   -0.08164084607426
C        -4.80462574688133    1.31248106497922   -0.78240232695073
C        -4.93221999081109    0.21160114792628    0.17815361245878
C        -4.21846915274862    2.02964425046519    1.31542980482360
C        -4.35071404705497    0.61746056225551    1.41833653200635
C        -3.06759695597429    2.67565816654230    1.72857056058237
C        -3.34647730482359    3.21096740504196   -0.51913016590921
C        -2.61848563759870    3.56159952899245    0.66232602570478
C        -2.61063265465716    2.81026867262835   -1.67836006581999
C        -4.01136812149713    0.84157159618453   -1.88539893597389
C        -2.84489486116162    1.52195125083771   -2.30482366166091
C        -4.48062572013508   -0.92847540585997   -0.44558020271914
C        -3.98823811928056   -0.56797944708867   -1.76778046228005
C        -3.78910789735353   -1.90744490993109    0.31835823534422
C        -3.30518996711969   -0.17088641048423    2.01006393741094
C        -3.13370556098882   -1.52158209097248    1.54577427244069
C        -2.09850502514074    1.96034685694348    2.48792828977592
C        -2.18448518362037    0.52446836002134    2.61016042438232
C        -0.85067238541940    2.58563360890899    2.55686488784916
C        -1.29271720109807    3.99942885263804    0.59865219701821
C        -0.45233972880598    3.65923575044636    1.68719798817800
C        -1.31291414145475    3.32683414840350   -1.75201008367866
C        -0.70707742495642    4.05989954660267   -0.69088210628244
C        -0.26929883099638    2.66375239935765   -2.46768882019728
C        -1.71583211967140    0.73139326577115   -2.79104999718661
C        -0.40091884687094    1.32617150007594   -2.87814578626062
C        -2.99317818890771   -1.33576130849695   -2.35986604919738
C        -1.80243606475278   -0.69572983688611   -2.86262912912523
C        -3.26635680800689   -2.91813364311547   -0.47468305849706
C        -2.94558383090083   -2.65691794042199   -1.85629827012012
C        -2.30790907276569   -3.83980473913177    0.05321913863689
C        -2.00916193116217   -2.30468296914653    1.97839848215974
C        -1.69572225740885   -3.55567349431837    1.30478644946531
C        -0.99096187733996   -0.20985740876595    2.90771581127534
C        -0.98877995564506   -1.63369833826845    2.73892378672911
C         0.31464133441244    1.85427190352724    2.88142986061152
C         0.28244604106169    0.47645268178632    3.04431869127925
C         0.95440837201150    3.60663052182637    1.53665791335349
C         1.45578655891046    2.53059482185329    2.33324623605866
C         0.70553387177484    3.98233112285253   -0.84945672975911
C         0.97254888844240    3.18621889047155   -2.00307888212559
C         1.56068335973288    3.87209069362771    0.27320320914290
C         2.18184459290339    2.50909171487884   -2.19092570798505
C         0.81530306090906    0.54525089948462   -2.96164370937227
C         2.10671972687664    1.17376818035881   -2.75049317220236
C        -0.59685018093993   -1.48811395662438   -2.93601582410115
C         0.69560279713128   -0.87837868685244   -2.90064367453008
C        -1.85012468095934   -3.45782708435444   -2.16256558488202
C        -1.55176660944590   -4.31708908810487   -1.03377333100519
C        -0.65283538669750   -2.87673245936547   -2.62262013559669
C        -0.15417882268050   -4.44411541518733   -0.95069062292402
C         0.42796481584762   -3.56764420142476   -1.94875312476328
C        -0.40429256523246   -4.12297366815069    1.45538465231975
C         0.40113196984525   -4.50109764403499    0.31137522099741
C         0.25319852912997   -2.28966340767304    2.93815747918647
C         0.48584927948872   -3.54624240453499    2.37923776553524
C         1.55702769182456   -0.19096625412691    2.87175465624282
C         1.51582273578001   -1.56977083330612    2.91386077157320
C         2.65420613283898    1.86753030999925    2.04607095993783
C         2.72685680359224    0.45037820295486    2.29098291361811
C         2.82381310730278    3.32354622353452    0.04311025134811
C         3.20696380878807    2.85100150037080   -1.26052593911603
C         3.45646720646786    2.46148020064800    1.02601520604841
C         4.28781163720556    1.96603015156732   -1.06101166508896
C         4.41795707641762    1.69494192769350    0.37430970505861
C         3.22348208912399    0.33595275348706   -2.52788747502589
C         4.32816165380094    0.76043581178518   -1.72640504612167
C         1.80617546997447   -1.66606156360014   -2.41845446033850
C         1.62804387800473   -2.92338103743389   -1.72091170094536
C         3.02016148153276   -1.04194430866780   -2.22103466602819
C         1.73036321793753   -3.97530291582790    0.49481230821451
C         1.82811061033127   -3.54888574951727    1.82919263376139
C         2.46486915198026   -2.34906535378655    2.17743262083394
C         2.36849915370534   -3.19939400650714   -0.50144835881655
C         3.64976278349187   -0.34101981997776    1.52556939927612
C         4.48986801845750    0.29733853922328    0.56828984834316
C         4.60054200377683   -0.28359765609709   -0.73745095795668
C         3.84081328490272   -1.38975595038294   -1.07495925215260
C         3.34149967512054   -1.73009974391266    1.27512928792843
C         3.33634619359728   -2.24545415361453   -0.06828203814026
