76
C76 Isomer 16846 Symmetry C1
C         4.51195613033028    0.24848969271331   -1.22307923934027
C         4.47295431716713    1.41431284693663   -0.49232425516294
C         3.68085661694036    2.40656274423885   -1.24035778172892
C         3.65002046709019    0.42879744459770   -2.38571877096517
C         3.07274782254491    1.72929088058090   -2.32504828045545
C         2.83557740474618   -0.69731623239101   -2.46745803358280
C         4.18022129345683   -0.97892195395425   -0.59272150262370
C         3.27699734756964   -1.65051971632566   -1.47730758527943
C         3.88040830304900   -0.99186750660878    0.80178706688910
C         4.04587689853434    1.43971779006805    0.87041334661013
C         3.66416596609496    0.24545215363757    1.52568274457045
C         2.92828634071016    3.14089963430314   -0.32382032046371
C         3.25300128833864    2.62999779060113    0.99392778823481
C         1.60589196956960    3.53590233896244   -0.63962843982082
C         1.68699790995227    1.88222636522243   -2.54572605915251
C         1.04872437581607    2.97402412758694   -1.84061147096271
C         1.45305662387136   -0.60246896411528   -2.77572255063809
C         0.90374355091776    0.72858899742179   -2.92505511244033
C         0.62548948285752   -1.73223613991206   -2.47692297639189
C         2.43679171222470   -2.67044965687524   -1.04550310687507
C         1.12989098335535   -2.81470285516675   -1.63945182505019
C         3.17950737955804   -2.12014254434418    1.22724751133561
C         2.67378142744150   -3.08785908018311    0.29651634600663
C         2.25828593759844   -2.08009086485024    2.34414435955585
C         2.55277769550000    0.30212307015567    2.47064529750404
C         1.73854992328864   -0.84689662918985    2.78922517057451
C         2.28202681828035    2.70307544955464    1.95213543463906
C         1.95194158095016    1.53563493772849    2.72313427345260
C         0.71373592574835    3.88506369341605    0.44101993954350
C         1.10334141448301    3.47638609920516    1.73472118695136
C        -0.69845574841748    4.07697061208238    0.20095499847723
C        -0.32687958830671    3.11049802898618   -2.02388075013454
C        -1.18748152769544    3.78698494349609   -1.09262651120090
C        -0.51346718917984    0.86565239675096   -3.01565252477936
C        -1.07071928773564    2.13318744754710   -2.73302176323426
C        -0.79178130590953   -1.60186521104085   -2.70362802266630
C        -1.36486395278021   -0.29433915422273   -2.98526600376476
C        -1.63920778900051   -2.62191997378557   -2.24462604589933
C         0.20826741118271   -3.70066230984066   -0.99261166854799
C        -1.15277045854600   -3.63194507899133   -1.34071267857617
C         1.68025339429298   -3.82661684676816    0.95798569953884
C         1.41508564467950   -3.18079505169240    2.24271625891731
C         0.47544234894377   -4.13958899339381    0.35452964112625
C         0.02738995197518   -3.08992322901883    2.41462404469122
C        -0.54535008778933   -3.92003567140083    1.37942297136970
C         0.31403826016088   -0.75264039966251    3.03956074359614
C        -0.57084852820015   -1.85924275614625    2.77342170146955
C         0.58330363484931    1.64811292412373    3.10086049440323
C         0.12898183497584    2.92941587386281    2.62725236539189
C        -0.28681403739988    0.54667747140040    3.15368448253262
C        -1.62421739765512    3.90075661483306    1.27258272237189
C        -1.19864005556512    3.15867130695028    2.44128206269398
C        -2.94178459622971    3.49119149922451    1.02371291515404
C        -2.51954404532327    3.32079201507028   -1.32833751023583
C        -2.43931495341866    2.30516297537162   -2.35081324600432
C        -3.40486268080383    3.14498079376727   -0.26278011521970
C        -2.73195982730461   -0.07994597038832   -2.71071085984449
C        -3.24890245565776    1.19875384420724   -2.31506902147019
C        -2.99427831205807   -2.33335110877034   -1.85802267078424
C        -3.48930321203427   -1.06006070105438   -1.99741488229832
C        -2.16116459543540   -3.87103912977912   -0.37048466834688
C        -1.83722495595863   -3.72541950697402    1.01420070418011
C        -3.25205115835666   -3.00378139577241   -0.63248082223761
C        -1.94427475183034   -1.62502083835608    2.34258709407834
C        -2.58181905006311   -2.60163790055197    1.55083124915481
C        -3.51286840962604   -2.22696181139841    0.52889798378891
C        -1.69811728780146    0.76177685486686    2.89752480243215
C        -2.13364011043036    2.09866631310674    2.71081010774034
C        -3.25359475996062    2.38257882581189    1.91345449184828
C        -2.50181042708288   -0.29271653997777    2.34110549782938
C        -4.12979100477235    1.89088386129506   -0.14104736266664
C        -4.12346262146825    0.99191157900382   -1.18024953758852
C        -4.16563635856590   -0.40677069532422   -0.90580874193171
C        -3.96257698311993   -0.89533875016661    0.40712621818473
C        -3.91923480156764    1.38305829162802    1.20308706165381
C        -3.59765307599513    0.02586063807675    1.45288593987363
