76
C76 Isomer 3716 Symmetry C1
C         5.42655057166444    0.03983503445409   -0.42954087061107
C         5.03229012524575    0.03986503472170    0.97751469220206
C         4.49236576569627    1.28878243940350    1.26223030671440
C         4.84137631191603    1.20663711400694   -1.03393592954570
C         4.44147627939260    2.06312682962303   -0.00376208581106
C         3.83973595092632    0.79131899027688   -2.01709425514898
C         4.79313769155417   -1.06498157350265   -1.01249777838152
C         3.87436314828754   -0.63178771665410   -2.05003628013595
C         4.19895011272888   -1.09937053699876    1.23850940976940
C         4.21656657262431   -1.86439942335713    0.02390316714485
C         2.94224967734907   -1.00348088831057    1.91466817908582
C         3.22609619900332    1.40771316629455    1.88017036906767
C         2.41889424135488    0.29401565516512    2.25327932605613
C         3.19233339487885    2.67451478904765   -0.07982189618646
C         2.54369015123911    2.45179960984179    1.18839245367013
C         2.58938323970774    1.42367466878191   -2.11925232992804
C         2.34577381154736    2.52272717706467   -1.22519737663563
C         1.41470565349021    0.67392035731015   -2.56502961508521
C         2.72999606029398   -1.38416876377380   -2.30954248142993
C         1.49593568181988   -0.74172197212836   -2.68837607895098
C         3.18771705344323   -2.72459824219801   -0.29880547581102
C         2.64579856115423   -2.65193203756379   -1.63240820929690
C         2.01208478913587   -2.08120313835515    1.75239036975660
C         2.29717134296260   -3.08691234175279    0.76754104911502
C         0.65444788525946   -1.96056131043049    2.21467360344526
C         0.99272138781893    0.47863339614742    2.38038065712664
C         0.12075134991820   -0.65430321628298    2.47554138793743
C         1.19201216895353    2.64847602587021    1.31976026254996
C         0.39158257872538    1.74989768423230    2.07802787229309
C         1.04295773339571    3.00502981646064   -1.08095240025913
C         0.59852466801421    3.36669582975871    0.22731411766293
C         0.12055367534213    1.29593735639208   -2.56207095326112
C         0.00719234173199    2.62331645518918   -2.01635480550986
C        -1.09433361729726    0.52630290252392   -2.73325600644790
C         0.27815673435560   -1.52580919653597   -2.76521976508790
C        -1.02518905976348   -0.90417233946358   -2.74215251785883
C         1.53771338894544   -3.43197531957141   -1.89095426664155
C         0.35993249204114   -2.90465185632513   -2.52337306270518
C         1.33718829246058   -4.04636655592778    0.44203994752541
C         1.11837766828440   -4.36037597523501   -0.91507776499376
C        -0.25300672354844   -3.07772984219576    2.01230140576977
C         0.08711608755966   -4.12876919206590    1.13733704198373
C        -1.63970758349526   -2.86069117438686    2.21729274807751
C        -1.32373780031659   -0.42591009084319    2.48524328270417
C        -2.16132855975801   -1.53802365864495    2.43489485359556
C        -1.02839429829779    1.97751722169478    2.05571694517182
C        -1.91966065216928    0.86979871382462    2.21016742073866
C        -0.68695528844825    3.80193111423729    0.42390992277704
C        -1.49811661047367    3.17535179630765    1.45303888352527
C        -1.22974288440966    3.25150689177133   -1.86551503558875
C        -1.48437681526491    4.08698372691290   -0.71617980702943
C        -2.37052683481389    1.17710373195439   -2.51205502811343
C        -2.44655959154523    2.54100509199948   -2.14925648175841
C        -3.45443752578759    0.36786839129756   -2.08416043431164
C        -2.17628945119735   -1.70881611285497   -2.37939758120455
C        -3.34773963773992   -1.03595874246728   -2.00905085199717
C        -0.76433543304364   -3.67412092709773   -2.03923538592503
C        -0.29140981688909   -4.59946644216474   -1.08606304034499
C        -0.88678426711995   -4.64057962202266    0.19474089838176
C        -2.03456806203782   -3.07221932542599   -1.88820193190570
C        -2.59548096220214   -3.56907255496835    1.46161357423733
C        -2.21230005847761   -4.24397794456850    0.28211932416462
C        -2.83818182681744   -3.55232901761970   -0.82545239998152
C        -3.46997854767647   -1.45417120804453    1.81409978421863
C        -4.13439261593924   -1.49397690588915   -0.87669677206758
C        -3.68616726911396   -2.67173236862636    1.15225391393258
C        -3.84442751421125   -2.68876819663545   -0.25471056606497
C        -3.23984449914187    0.96107107637303    1.64061615195718
C        -4.25837535292082    0.78471764170051   -0.96164281183474
C        -3.90651955107614   -0.25391147111522    1.23237725908835
C        -4.41020315545516   -0.34226554798667   -0.08950375097338
C        -2.83177128297376    3.28631771313463    0.99347760638915
C        -2.82965304269301    3.91482164986628   -0.32444929036206
C        -3.43959127135508    3.00061205093869   -1.21363516031160
C        -3.63852908986048    2.13734172006312    0.95950318065750
C        -4.12625428689155    2.03009388534871   -0.42112283299480
