78
C78 Isomer 15145 Symmetry C1
C         4.68604279994575   -0.64799881609171    0.59326638809781
C         4.75361367145109    0.66888004969262    0.94481155708878
C         4.69745808126286    1.44581126809206   -0.32579110549176
C         4.52509660507952   -0.72606909693156   -0.87340598856433
C         4.27945058010374    0.56745943163508   -1.38352027295849
C         3.66769549358284   -1.77415339755872   -1.13459508653704
C         3.73171744666801   -1.51521949603556    1.18028272541075
C         3.33125751649145   -2.40037966435034    0.12417681908106
C         2.71873645784484   -1.01088973078373    2.04423840837942
C         3.78987131796198    1.21164758135318    1.85438426637375
C         2.70159238935793    0.40994764410913    2.33083955320756
C         3.97885571145831    2.56990570034606   -0.06020121475587
C         3.50637519690807    2.50305650610352    1.33481399259393
C         2.87686312696255    2.94322627016319   -0.88313767595616
C         3.06030513825845    0.82093415719583   -2.12118784587373
C         2.38915457728148    2.08047850064788   -1.90740157650219
C         2.64184590415481   -1.62215580502446   -2.11513386924003
C         2.25874684694513   -0.29805799840188   -2.54823290273736
C         1.72341799763256   -2.66726610950024   -2.09034466627359
C         2.21715428504771   -3.19454228256445    0.24267965854260
C         1.60783473478481   -3.56049611780005   -0.98641007251537
C         1.51731724188568   -1.79446080350629    2.16546723270921
C         1.39563761198232   -3.03272255660698    1.41882006221469
C         0.32684661652581   -1.19818628679187    2.69840604454211
C         1.41035593159330    1.03936706438899    2.52115165553387
C         0.25028583002389    0.24094202294803    2.79134550478638
C         2.23347481514073    3.03015773997017    1.35717201936140
C         1.93026949988057    3.49600299717440    0.01533226175370
C         1.18535605537751    2.38528521792509    2.06069584898690
C         0.63736332069298    3.73126679583496   -0.36075042250615
C         1.01107128947911    2.24603297032300   -2.28324111261968
C         0.25003941867818    3.29929666145650   -1.66972368429796
C         0.89174613630350   -0.11656116727975   -2.98931766167785
C         0.28876948152291    1.17717483915079   -2.91969577245384
C         0.43222451402176   -2.55466796780483   -2.69824350982075
C         0.02205340462637   -1.28232193692737   -3.13727186967798
C         0.30544092662638   -4.10490655457337   -1.01016806909616
C        -0.44084709553380   -3.49916066822047   -2.09588662916411
C         0.19942302771169   -3.74401494675062    1.41166472623084
C        -0.31849850563539   -4.37826902933573    0.19658010755483
C        -0.87918261410501   -1.99034154466005    2.73994337439046
C        -0.91550141997877   -3.28046976744654    2.16028154674616
C        -2.12197749551448   -1.31957154680445    2.80401250850202
C        -1.03585084656578    0.89954087446655    2.84840535728467
C        -2.18315847160957    0.08392178151552    2.89158443774888
C        -0.11291100076930    2.93291358522468    1.83283164925249
C        -0.32103936771338    3.82802543566669    0.71523350566065
C        -1.22933073844662    2.26198439353007    2.40642463074926
C        -1.60640856301574    4.20454806178912    0.33210243449354
C        -1.11301263309796    3.48334865199220   -1.96671988069876
C        -1.95992755102727    4.13184987270052   -1.06023444926887
C        -1.15505976757087    1.30960569899659   -3.06038023103142
C        -1.84468216310004    2.45236152438808   -2.64376896420537
C        -1.37783658985084   -1.12893300497030   -3.16291342608448
C        -1.96099553674884    0.15768388373048   -3.11233413457152
C        -1.82420331151786   -3.24324661835292   -1.95611415102681
C        -2.28100122685775   -2.05329141072190   -2.55097879051144
C        -1.72679456536156   -4.31797465337123    0.24749205988318
C        -2.09070437496493   -3.74654804551443    1.49501629454996
C        -2.49721275895779   -3.67328020926769   -0.77592401152515
C        -3.25751940042367   -1.75166446718620    2.02099468287121
C        -3.20166861074726   -2.89919223207995    1.27141282922675
C        -3.46526067850657   -2.82148727667891   -0.14795473938278
C        -3.41411206001517    0.49822994250701    2.25871388217727
C        -3.92469562726883   -0.59675559568268    1.49929868360104
C        -2.52696462399035    2.71981828141404    2.03387390751598
C        -2.70706119686459    3.71257393503785    1.06741910808081
C        -3.58896941626650    1.76377934510487    1.81353237778836
C        -3.25498123495895    3.48834279812117   -1.15825024609135
C        -3.16664484346371    2.39883375049666   -2.07146406405061
C        -3.73403095271616    3.25906985016642    0.12141612722366
C        -4.19527030722925    1.98000319380193    0.52167809141492
C        -3.19735580169094    0.06102012578840   -2.41838261796950
C        -3.35523741843690   -1.29464396795630   -1.99315592112649
C        -3.87509544253844   -1.58954165420767   -0.72034740660491
C        -4.21516771939424   -0.45024845914784    0.13326787900242
C        -3.75289940584251    1.15511880442981   -1.73047560191740
C        -4.27168966295901    0.90224367750988   -0.39700455582600
