70
C70 Isomer 5941 Symmetry C1
C         4.62175181253793   -0.28695277084551    1.17277799993713
C         4.65277462460941   -1.09517230161467    0.03894618550006
C         3.78916182506356   -2.24301005022897    0.26575240108804
C         3.66786775041996   -0.89013522356137    2.10730822560591
C         3.13602558318487   -2.06294702726207    1.52837814759703
C         2.81944025563162    0.09839373952313    2.62005007733832
C         4.32995504633159    1.09257798876835    1.08641429594996
C         3.32262637611545    1.35546329322202    2.10396003882097
C         4.15671217572567    1.66887815851878   -0.18607538815855
C         4.35496387988877   -0.55364044282547   -1.24780367875755
C         4.14501955552648    0.82401044634978   -1.35904273739709
C         3.02789705911974   -2.46265208982203   -0.89433800227074
C         3.41122714165771   -1.46333861729378   -1.87070321918432
C         1.69722701581625   -2.91100839490566   -0.78324205644169
C         1.76656498505384   -2.32337474381375    1.65465771837869
C         1.17393532404464   -3.04540760365300    0.55277970149520
C         1.42263547290558   -0.14169604557436    2.77126756503446
C         0.91428759008477   -1.42606009143419    2.39680794091949
C         0.50746791680441    0.97372198136004    2.74718325087649
C         2.42519418172486    2.36893967064206    1.93926686958354
C         1.06287760701311    2.22059445749346    2.38418838494509
C         3.15473694967280    2.68121458626058   -0.36764080681291
C         2.40651532025473    3.12714671193139    0.71392232796345
C         3.08946540801183    1.30989144463917   -2.21679587931624
C         2.47741849499933    2.46401700026709   -1.62995271874906
C         2.42468077251189   -0.98789492244365   -2.70781431020143
C         2.27792161066936    0.42815613121778   -2.91077140881301
C         0.73761726787838   -2.57347035138389   -1.80135313450424
C         1.11184222459477   -1.56463484308390   -2.70748396717401
C        -0.66759738150106   -2.80178344149304   -1.62092125549753
C        -0.14970446360857   -3.36531413417200    0.68101001477381
C        -1.01455198009834   -3.53201309407620   -0.45421403785745
C        -0.50833326802946   -1.62021006928649    2.37499011936616
C        -0.95486046087457   -2.82168019876428    1.75461300678005
C        -0.92177928815049    0.79738234866003    2.61493513225137
C        -1.44903549930415   -0.54151574591056    2.53892173013500
C        -1.74026974054547    1.92360344441685    2.22364477039617
C         0.28465963938212    3.14099999902043    1.63729255828545
C         1.07405628002798    3.56472904793376    0.51567532163990
C        -1.10490628515147    3.06967081330494    1.59986152868118
C         1.11855704273657    2.75982654339368   -1.80849181549093
C         0.46795338215457    3.50880804208788   -0.76121245723865
C         0.88452231656937    0.69776658324260   -3.06210998161588
C         0.16921878420112   -0.54297630841373   -3.02424576212951
C         0.27678373103585    1.85912508434549   -2.57803358090356
C        -1.65017603477290   -1.89204744592647   -2.17521520237312
C        -1.19057779563943   -0.62683203881001   -2.70004318533254
C        -2.97324323549464   -1.93027513290026   -1.67801141494691
C        -2.32787492551029   -3.52229629356179    0.04707276149853
C        -2.29103075986341   -3.03662563941870    1.42156123201694
C        -3.31345254656438   -2.79947884716589   -0.61121450794268
C        -2.83866374628676   -0.75400735587567    2.15465279918353
C        -3.24976444817873   -2.00125374876884    1.57174662989712
C        -4.02549889346579   -2.00452993787779    0.37804474385197
C        -3.09207396983199    1.69370983261723    1.87800573887226
C        -3.60809412742449    0.36095992346671    1.77694406308733
C        -3.72963630979319    2.48157173253249    0.87107267017321
C        -1.67872853491697    3.67436149529176    0.44368326856140
C        -0.91492101011141    3.61700105736326   -0.76986956799617
C        -3.00770197452312    3.38008829621263    0.09865929211159
C        -1.15814947546050    1.83116652046801   -2.44484659723206
C        -1.91723882687820    0.60677515064330   -2.52778545149033
C        -1.74001895105189    2.93186157655981   -1.75426425443847
C        -3.04408697610721    2.89745232683202   -1.27702463685536
C        -3.72241909366287   -0.70483810744513   -1.50369408801332
C        -4.40835027026128   -0.80354766585147   -0.22946785139856
C        -4.46525540722942    0.31540078010700    0.60042384743876
C        -4.41020738909955    1.56424181519006   -0.02693999248281
C        -3.25167321446997    0.54178992032799   -1.95881878922822
C        -3.80968612009894    1.69532278125300   -1.30803062179066
