58
C58 Isomer 1065 Symmetry C1
C         4.05435355457281   -0.08032601510586    0.03211528319239
C         3.73376234565469   -1.27669710373972    0.64734375531370
C         3.15913323263213   -2.16146283805564   -0.36148786198365
C         3.56995682132622   -0.15964043314478   -1.35128658684376
C         2.94045077091477   -1.41323096293991   -1.55267812270289
C         2.90255918698443    1.02459270947007   -1.65253375342614
C         3.63968527276858    1.16901093526243    0.56991915088604
C         3.12091828073636    1.93718370501398   -0.53170227501896
C         2.91579014468516    1.16199856371650    1.77312392312613
C         2.87365163354634   -1.31058961875926    1.78567783002401
C         2.50367338265314   -0.08908583257277    2.34694592100285
C         2.11534786300137   -2.88366196302597    0.24402079317064
C         1.86106921272098   -2.32950756600596    1.55806950175064
C         1.06061631232647   -3.26344664115721   -0.56513983167836
C         1.67116599045918   -1.48646047124712   -2.20980051601132
C         0.90558514163360   -2.61969350788714   -1.84702404277229
C         1.63616937324060    0.98616842743172   -2.34971421509901
C         0.97779834749576   -0.26937518401142   -2.60378797061166
C         0.85335228392065    2.16283859136443   -2.22779795536007
C         2.18431752780236    2.92127004341058   -0.29163813100538
C         1.20835524028874    3.14849679208260   -1.28744146003132
C         1.81354711883294    2.08077778311394    1.94733577273292
C         1.50634727450931    3.01702219196238    0.98641305185880
C         1.15348508993408    0.05748544066357    2.82674846448137
C         0.73497357924760    1.40040453787658    2.63329275385429
C         0.54214388034579   -2.21472964845666    2.02913324931642
C         0.22478780188454   -1.00945269389775    2.77883191023852
C        -0.23846025108375   -3.43906559842653    0.01810587177547
C        -0.52360873582528   -2.90170130335624    1.29418524664619
C        -0.47715360007840   -2.62648109041838   -2.11115936827048
C        -1.18115907847439   -3.24811211740494   -1.03328374607288
C        -0.48126171329969   -0.27644746316142   -2.74671611209188
C        -1.17925786552161   -1.48512113504652   -2.54454046959640
C        -0.59409499459207    2.14047420827863   -2.32042089209356
C        -1.26738806135742    0.93681237467066   -2.56824889563203
C        -0.00835130594779    3.59087871374955   -0.64366411822405
C         0.11169193979945    3.36935397795540    0.73634560750924
C        -1.10553189181578    3.09593373275435   -1.37361865838588
C        -0.62609975639311    1.74975620347861    2.44163846125543
C        -0.96911943108309    2.77031979288736    1.45700345860228
C        -1.12021715433068   -0.61465599827592    2.91311072643036
C        -1.55284780228699    0.73543601347801    2.74561953633507
C        -1.87886791290376   -2.49084781458643    1.50248867255355
C        -2.14629296696776   -1.45814636866339    2.40177641573385
C        -2.42046895727012   -2.59796900883026   -0.87240114915413
C        -2.48673173788258   -1.55306746483575   -1.89207597146990
C        -2.85215172648797   -2.33808814562875    0.41766198158015
C        -2.61353990124701    0.85175052189853   -2.06499242468066
C        -3.19177411583940   -0.41413388849676   -1.64342156725197
C        -2.26524995378643    2.82465811924149   -0.65054774910576
C        -2.20549303671579    2.66438332911357    0.77910696861879
C        -3.09867923821911    1.81217811055020   -1.16780713393774
C        -2.87251423789807    0.70434548285213    2.12250630581927
C        -3.24176990574040   -0.64223828539865    1.93046007056159
C        -3.64626720536549   -1.15624098299966    0.67006720638501
C        -3.87155553776253   -0.23343694558797   -0.36325945801839
C        -3.17556533452278    1.63222008203771    1.12328639570407
C        -3.76921519321887    1.14236370680978   -0.06514384992854
