72
C72 Isomer 3535 Symmetry C1
C         4.88159349971835    0.06844995323194   -1.43906936141770
C         4.86105314744709    0.61974354776480   -0.12814519714429
C         4.38963880272438   -0.39623330121800    0.75082515849092
C         4.50146235634122   -1.31504320243871   -1.39138909089862
C         4.19120728682087   -1.60986902331445   -0.04324989510470
C         3.50074947122614   -1.50760185312923   -2.38761111692248
C         3.94254723280608    0.76309515363335   -2.24669160096727
C         3.05645266213520   -0.19099184821454   -2.84007200679531
C         4.13448631439450    1.85122373311106   -0.22155214194503
C         3.44958334723835    1.88522977950897   -1.52024653369547
C         3.45350437733147    2.24685101447991    0.88955035452259
C         3.49286416125109   -0.07559611548247    1.80160210871931
C         3.28140653953442    1.32349303576993    2.00261538257020
C         2.43429054913192   -0.99162041529917    2.18287217086504
C         3.12945212018539   -2.48429626596436    0.26818014846379
C         2.33652452703081   -2.24389188679371    1.46454370038658
C         2.55167520472834   -2.46180158858686   -2.12614154215030
C         2.48677300209156   -3.09379099444816   -0.84172135733731
C         1.19799144637308   -2.27994440251459   -2.57626943286974
C         1.69107057675518    0.09676541477981   -2.91413812482078
C         0.73790704626781   -1.00592893038614   -2.93005853355911
C         2.08891465342084    2.20572810649369   -1.58928265874655
C         1.22266182930897    1.37666578390291   -2.42063542839819
C         2.22586222830314    2.99131871895158    0.73792558980065
C         1.48920421654178    2.91582965307327   -0.47281603267667
C         2.14291354996922    1.75671501892750    2.68401092545326
C         1.53875474754223    2.86654022353269    1.95372494001958
C         1.24588880550091   -0.50045906820147    2.84370887888273
C         1.11321810335274    0.89377977938257    3.06640052939584
C         0.00148194200607   -1.22252347550074    2.86702444412232
C         1.15580504382579   -2.97777551358392    1.60313835251539
C         0.04025346529366   -2.53306959248670    2.38186469073956
C         1.16410569228670   -3.61819759631170   -0.72790711643738
C         0.35562227941765   -3.13493296266662   -1.81690612066517
C         0.58686586950152   -3.72384607446081    0.51142833766604
C        -1.01666609593334   -2.90889804494899   -1.68429357506564
C        -0.66515176811248   -0.77529669379391   -2.85172111793564
C        -1.56947812127904   -1.77000830910494   -2.36846065927126
C        -0.15680557311077    1.61733437912685   -2.42387031442611
C        -1.09065495704355    0.60459231372181   -2.90988967484752
C         0.07591645640587    3.01169979217315   -0.39179032106037
C        -0.69410540528101    2.62707647341508   -1.54760878496075
C         0.15771139912005    2.72964797736975    2.01060110821801
C        -0.14828122755759    1.56089539754977    2.80321584531055
C        -0.60959070434393    2.96452709992026    0.86084216494002
C        -1.29513451442039   -0.54032250585501    2.88263947111250
C        -1.34079946357133    0.88778889806351    2.63435985295465
C        -2.45540899646208   -1.24686707265299    2.60029344486160
C        -1.14471178984389   -3.17147474029940    1.89674970145481
C        -0.84050715122935   -3.73540820151183    0.61682036222410
C        -1.65834693441701   -3.42804930576450   -0.49644036720335
C        -2.37958170423196   -2.59782896891894    2.12116105416529
C        -2.97281813106090   -2.98084344774489   -0.21482211016141
C        -3.36223184077430   -2.73904868717885    1.11282598676883
C        -2.95899144642761   -1.41713864617241   -2.14093449406584
C        -3.65430229667588   -2.03894989613558   -1.07332283417730
C        -2.44504273721604    0.88214319263650   -2.93124477367607
C        -3.41640043320626   -0.14771795890238   -2.56362874607644
C        -2.06469115324458    2.82448468668418   -1.48869340809960
C        -2.91202150203599    2.13535861653204   -2.40625825730666
C        -1.98568203494996    2.55958363659603    0.94144710699267
C        -2.38546845011715    1.50798023675409    1.83732366059348
C        -2.75575766662907    2.84559511606895   -0.19398416632873
C        -3.59508489878347   -0.60851444764928    1.94092848453174
C        -4.19707178393068   -1.56279077478568    1.11689800038190
C        -4.52428146219650   -1.24987108805901   -0.23475688636551
C        -3.57098116740574    0.76244990190100    1.53527225917787
C        -4.45917527077403    0.50695260226248   -1.85183550810370
C        -4.14242326551716    1.89861248307002   -1.76997304870998
C        -4.01345109795670    2.24218801180659   -0.37104531106610
C        -4.79189605491457    0.06995001073909   -0.53879392932386
C        -4.36941685267612    1.11215315754583    0.40647736448206
