66
C66 Isomer 2955 Symmetry C2
C         4.90108608006854    0.99878550617682   -1.08089707867031
C         4.88884223889487   -0.39598529392676   -1.15427836448489
C         3.87011465956273   -0.77179872956432   -2.13513267260074
C         3.79888385885071    1.49744297431207   -1.91358443102330
C         3.15125836681554    0.39806442808893   -2.52535521572102
C         3.01872266805726    2.38063062972096   -1.12328981472435
C         4.80423358542488    1.62662238123343    0.17987751102178
C         3.64904805162121    2.53243120359584    0.13759799646909
C         4.68729386773723    0.84468556629714    1.33245075098723
C         4.69155059077433   -1.20616255442745    0.00457616014948
C         4.58357026784418   -0.57583060635767    1.26575182560134
C         3.16259641954555   -1.87836046329116   -1.67351816895555
C         3.70233288712142   -2.20655281802299   -0.35750795223567
C         1.78356332981134   -2.01982033722321   -1.97336596703345
C         1.73957317187362    0.34895327151608   -2.63787012113610
C         1.08062405583576   -0.92680096405556   -2.58779172813320
C         1.60433251662724    2.34380084448601   -1.21155999491239
C         0.97650598625765    1.46675771329249   -2.15553601502216
C         0.84693283842855    2.58898608609796   -0.02260774592180
C         2.87422349827318    2.33415300870051    1.30884836801625
C         3.52849743654958    1.33786732255076    2.08386102637152
C         1.46754915171275    2.33928562020757    1.24390600944421
C         3.47716655893877   -0.94429361869791    2.13732478647618
C         2.79090886277930    0.25871112628321    2.58000506285089
C         2.81788183838835   -2.69416166843139    0.57749816332821
C         2.68631184365003   -2.03102385471324    1.85562626973874
C         1.01668078529825   -2.88243633651664   -1.11635862240961
C         1.51050728182841   -3.12583311127172    0.18724300482786
C        -0.37384740626504   -2.91973804287657   -1.26932117928360
C        -0.35126801764113   -0.95182770316475   -2.68040371120447
C        -1.04306796979456   -2.08437688357614   -2.21859910436715
C        -0.44351084864627    1.43461221309712   -2.21392055965851
C        -1.10637752205475    0.27715847016031   -2.72811710532539
C        -0.56089687653201    2.59381804665602   -0.09824098124209
C        -1.18381700625568    2.32070070530593   -1.35884885175231
C        -1.32004315275754    2.38142785888068    1.09581750031023
C         0.72038640272431    1.47858740396014    2.11863906097007
C         1.37387141835039    0.32768879763903    2.65873369991922
C        -0.69932273663445    1.52084525422954    2.05943039044227
C         1.29168469927347   -2.04418081636421    2.20261965277224
C         0.61570033654736   -2.89519719504941    1.27217650799221
C         0.60904851186533   -0.89598734808792    2.63855452644013
C        -1.27031482416962   -3.11890172861058   -0.17961789776537
C        -0.77450202552313   -2.85035341067296    1.11831549162250
C        -2.43741590366353   -2.05230653168611   -1.87224235895425
C        -2.57417023118751   -2.68556770221971   -0.57967168994562
C        -2.52392496133908    0.22132379927541   -2.64800417228430
C        -3.21965809292735   -0.96589776247854   -2.17839108051695
C        -2.59048421699587    2.32527030485174   -1.42372922959330
C        -3.25295675069700    1.31722273234540   -2.17622174247053
C        -2.73414974000960    2.42730101885019    1.00655538326715
C        -3.36357539039778    2.55607656443177   -0.25721827678117
C        -3.52125803550360    1.56865446832064    1.81654392313151
C        -1.47129262729268    0.42026164372303    2.56671192667345
C        -0.82264537872261   -0.86160770721603    2.54530974513971
C        -1.53433859919959   -1.96250127364137    1.95561495069381
C        -2.88250129303977    0.47801669372951    2.45298353760111
C        -3.45472556215296   -2.17000952081576    0.34407343784682
C        -2.91228435924521   -1.81673328670412    1.65256717413782
C        -3.61094093488284   -0.69449431292955    2.08930967642221
C        -4.32312924050993   -0.56914459692916   -1.31531826468134
C        -4.41542205200186    0.85025382545562   -1.41382947275255
C        -4.52636967085818    1.65901393202805   -0.27923765890094
C        -4.62757284882026    1.06022617911270    0.99526452862454
C        -4.43587710537265   -1.17017755534359   -0.04033546403558
C        -4.62682268623809   -0.33257385974610    1.10013464521013
