68
C68 Isomer 5738 Symmetry C1
C         3.96790536559572   -1.88146692255606    0.61346884021136
C         3.76169647518956   -1.20714234198826    1.80952342817202
C         4.09039429072786    0.19740976712772    1.61421933471186
C         4.33312031086006   -0.90200882481250   -0.40702768216035
C         4.45361029695094    0.36543213386904    0.23571638980908
C         3.43843595391570   -1.08457756609704   -1.47295073519593
C         2.95669555828955   -2.72547923176260    0.12107838179246
C         2.67587784225103   -2.27658891220839   -1.21432096829605
C         1.86394115398097   -3.07763673902492    0.96576033338019
C         2.51362003490592   -1.31200083464488    2.49976840411134
C         1.54834579432561   -2.28104892721811    2.13148219334294
C         3.04678983907131    0.95019103418482    2.16115124529819
C         2.12207521942175    0.02294565773019    2.79313360248134
C         2.54746052574570    2.12568188431222    1.52464780235890
C         3.94888132433596    1.45610516145496   -0.43772006264642
C         3.18205363087700    2.45233442165390    0.29032133798996
C         2.79387912674882    0.00171349864662   -2.13237498513910
C         3.29336176359566    1.27233775056092   -1.72080542243801
C         1.42142640593852   -0.12732122510930   -2.59659314374163
C         1.42865558518996   -2.46663875260102   -1.80147720851874
C         0.73817482869465   -1.40147259757232   -2.49025131799448
C         0.80361253970048   -3.65628031280045    0.28710881185095
C         0.67900295216647   -3.49241482391367   -1.15301017038403
C        -0.50537489690144   -3.72008439847756    0.83918161392022
C         0.17213890272725   -2.02711132856156    2.46009495004584
C        -0.89276444173775   -2.81976675276634    1.85330134336126
C         0.79567543585598    0.35542999071797    2.99274824020513
C        -0.14942011674341   -0.74890765827855    3.03004201604351
C         1.18274210099136    2.51843889921959    1.75889942669840
C         0.38411653626102    1.70754479718472    2.65537483609539
C         0.47526170924195    3.34251864797791    0.80554291863883
C         2.42957884122424    3.15377166277552   -0.65930082117925
C         2.47140289193878    2.38725381708053   -1.90608648902717
C         1.12866911177222    3.58165371835072   -0.43511695409205
C         0.60568090544248    1.04653167465571   -2.77004320124219
C         1.18602215180354    2.30482026052466   -2.42598349615295
C         0.41696251832244    3.27867557478997   -1.66939069377083
C        -0.83839979011476    0.96995988357742   -2.76550685437958
C        -0.69665272251097   -1.49576149510402   -2.62734361110242
C        -1.51058767410051   -0.29463298692845   -2.64054707014293
C        -0.63087788600321   -3.70763105215989   -1.51291216902560
C        -1.37354375645822   -3.99249036263893   -0.27644600239413
C        -1.34140625026202   -2.71948051128934   -2.24810214867791
C        -2.60443053879434   -3.42147801728813   -0.38388747457679
C        -2.64379614130458   -2.69911191218044   -1.66279810648912
C        -2.26134887314818   -2.30991352861825    1.80092768391998
C        -3.08304779293040   -2.55745850475843    0.64653597155366
C        -1.50050982645684   -0.39319642178124    3.15501638193532
C        -2.54724294881282   -1.11797069454610    2.47403402080275
C        -0.97739054955097    1.98774636107039    2.77545587250725
C        -1.86041661469632    0.96182270729378    3.18839369245935
C        -0.97086694972087    3.41634402543909    0.79454844063868
C        -1.68951770274392    2.83141603969154    1.84259286078842
C        -0.92390909840318    3.21398097239625   -1.68576705848573
C        -1.56810640843312    2.13909823080558   -2.40561040688257
C        -1.66653759354306    3.50042694112794   -0.46736280090473
C        -2.84448265651581    2.06526790664268   -1.83057137015841
C        -2.91368353643383    2.91949765300078   -0.64541655265365
C        -2.83253456373631   -0.32424364767866   -2.05351520893197
C        -3.28696001409820   -1.50718212757717   -1.41462574781710
C        -3.71005066697504   -1.46835883947274   -0.01414946611965
C        -3.43031011817172    0.84299293445483   -1.52803536719566
C        -3.49469905817490   -0.15112557117614    1.98293115760051
C        -3.09958393861425    1.11452628464983    2.47703438572664
C        -3.01318484029183    2.25806120562496    1.66017703552265
C        -3.57574805834547    2.18963564479500    0.37172928773116
C        -3.95081685151975   -0.24441543589605    0.63634991738312
C        -3.96006504781246    0.91783211609976   -0.16724139117156
