68
C68 Isomer 5454 Symmetry C1
C         3.31825086273523   -2.57656035803309    1.31627245195992
C         3.87586217565192   -1.35237990232732    1.59421668270371
C         4.42035455735749   -0.81325215510158    0.34621519180991
C         3.35501727766631   -2.75409128069291   -0.15855755114048
C         3.86921037843713   -1.56497165031405   -0.73096958410107
C         2.14281454335073   -3.28039308947343   -0.54450124025585
C         2.03609402225206   -2.89382079259662    1.77864420875934
C         1.45788479359134   -3.65169892285390    0.69092681705737
C         1.21801419816806   -1.92345611273975    2.43333740962078
C         3.09941461004499   -0.33765561874188    2.21691724242918
C         1.74752650209735   -0.58488640174294    2.59051513618262
C         4.28156157979628    0.56644085656532    0.39638035921886
C         3.48523203258560    0.89333266593349    1.57143737340369
C         3.98288662131669    1.21363873458993   -0.81465538878735
C         3.06587128253641   -0.89716479393814   -1.72608898685279
C         3.25938550649799    0.48717736736883   -1.83283789518579
C         1.33714846772726   -2.69606168989248   -1.58691255051078
C         1.76822129905827   -1.43493789331375   -2.10924805073070
C        -0.04410129213144   -3.10942601550561   -1.62524078351650
C         0.14476386316597   -3.90269405072250    0.69403337030192
C        -0.58787722028805   -3.89639008988229   -0.55593967707451
C        -0.20724086992256   -2.13382478146124    2.39592166042239
C        -0.68063513667985   -3.31380620696366    1.73474649021982
C        -1.12615248320529   -1.04649984823846    2.56312163866691
C         0.82924888557539    0.53160118941878    2.62701456796195
C        -0.58687560690466    0.30050630971556    2.69840266635193
C         2.63701682803080    1.99246838388413    1.58105652379925
C         1.34544623533168    1.84986763018606    2.24819691296546
C         3.41077183436065    2.48289678937767   -0.70502326417427
C         2.78434516887654    2.90497058483872    0.48087502420874
C         2.22540465505986    1.38080370998584   -2.33041266808189
C         2.42302372368917    2.64322221167042   -1.76257455441792
C         0.74881878499665   -0.51253110056115   -2.58929727217305
C         0.91177991093988    0.92155419888905   -2.58048626306294
C        -0.97309173274617   -2.28160111108165   -2.28854127343830
C        -0.56583379293302   -0.96978545890583   -2.69479627546529
C        -2.36462132489258   -2.22894401865024   -1.95966844843116
C        -1.92254496558444   -3.77239517180856   -0.18360680419076
C        -1.97428912646356   -3.40535663647325    1.23957543414573
C        -2.84515424614768   -2.94896007942478   -0.85786157495560
C        -2.51400428068187   -1.23415152521629    2.17042405487986
C        -2.90785336877843   -2.38132125263108    1.41183328969927
C        -3.61245605131325   -2.24651384967111    0.14797942392059
C        -3.33697660332563   -0.10616740011242    1.94985886869653
C        -1.49501277909314    1.42586591311909    2.54725060249521
C        -2.83239093164956    1.22694978394541    2.16072544617035
C         0.44958684809400    2.89905512911145    2.06628967329930
C        -0.95863105594841    2.71398385165354    2.24060219854856
C         1.65791276462170    3.70516371023779    0.08467109665598
C         1.35005632304646    3.41768213049525   -1.30023315132755
C         0.62821570879088    3.84681243615641    0.97379078079363
C        -0.20329813268798    1.81544162427696   -2.34252162163131
C         0.02776361011437    3.08431336776041   -1.69262482364224
C        -1.68595990483480   -0.08465791581520   -2.60821729677218
C        -2.81368269936559   -0.87680014973094   -2.17110509591757
C        -1.54333249410986    1.27363187493151   -2.30916061777191
C        -4.17834608366205   -1.03092910619355   -0.16460607805659
C        -4.24406851180890   -0.07533410418799    0.87075371278098
C        -3.78241766256983   -0.31561441160078   -1.36985392285421
C        -3.45075268082817    2.07697541979460    1.17191425171556
C        -2.61600468326698    1.90745454912024   -1.54417267163769
C        -4.13611106882077    1.23983868868510    0.27575843966506
C        -3.69225906323498    1.09030470302406   -1.05267064333206
C        -1.62991554306373    3.57695945897428    1.34353982096443
C        -0.64909509918308    4.10006584986872    0.42502474187469
C        -0.98713921151240    3.62813165478969   -0.85708595505480
C        -2.72972022344460    3.11879868981727    0.60458941153913
C        -2.30505992448181    3.03312547841487   -0.77434099134353
