78
C78 Isomer 7741 Symmetry C1
C         4.50893061140920   -2.01664623642989    1.08002456742353
C         3.97474424649975   -2.73476622351391   -0.00588667178870
C         2.74762935417140   -3.35006777665036    0.41058490129859
C         3.56085297511334   -2.06446956128133    2.15835647700545
C         2.47392301652938   -2.90291339574854    1.76132010979288
C         3.27122394953637   -0.73568490317453    2.50672506844324
C         4.70080190119173   -0.64977648750589    0.68421623811401
C         4.00755469595359    0.15695637275997    1.60750133606404
C         3.98975705899615   -1.86994704725784   -1.15607229722256
C         4.39530923886530   -0.54260313555547   -0.72128564579958
C         2.93953737831985   -1.97323171394340   -2.03611841851859
C         1.67923030764272   -3.44813933791133   -0.48941908539984
C         1.84888616357653   -2.88001520092103   -1.78016089598339
C         0.33747170670569   -3.50801547889783    0.02820295690265
C         1.16762116790547   -2.57813664324012    2.14706975838768
C         0.07342452019491   -3.10729898196347    1.36888285945937
C         1.98158899246851   -0.37122174081553    2.91459619247945
C         0.94260462376840   -1.36425352717030    2.89736212386978
C         1.66527987970877    1.03647820887231    2.84835029408695
C         3.43254734314040    1.36297812916639    1.18766295276407
C         2.36438313834352    1.93578663837246    1.95651230629315
C         3.73062493809209    0.59163533559090   -1.18197109964331
C         3.51194374535008    1.65456135327417   -0.22244932764160
C         2.38660926087047   -0.80287621597689   -2.66035822755252
C         2.75114230843202    0.47861470406439   -2.25885860840979
C         0.72614750454587   -2.36967711740018   -2.46468310591336
C         1.02478924657417   -1.07399780039415   -2.98751423761803
C        -0.74085618368483   -3.45945434582975   -0.91332215364328
C        -0.58067358325928   -2.73207151685337   -2.13553607894862
C        -2.04183150118072   -3.57769358647461   -0.40481121008616
C        -1.27518421715585   -2.82362093475527    1.78800232862716
C        -2.32530210813665   -3.26850807933674    0.97570474777245
C        -0.40005407465707   -0.96423983398271    3.17231829374073
C        -1.52638045443180   -1.75258975658505    2.72330648735150
C         0.39071616945106    1.38445380432286    3.25938071834908
C        -0.60441437922567    0.38158303259969    3.50441660687897
C        -0.25463826386836    2.57900412885149    2.81620012958339
C         1.72866923357435    3.13738247351528    1.50610793920187
C         0.38562740118384    3.47620406534863    1.94328586494326
C         2.83584870208880    2.77122969985275   -0.65876511331698
C         2.15010888925696    3.63728526281893    0.23780160249051
C         1.80735026318409    1.52768119475886   -2.52731649379616
C         2.11761043679452    2.77388858639946   -1.93079586097024
C         0.03039005397230   -0.09228984332031   -3.04985944753850
C         0.43882620364685    1.27402298604353   -2.89090541419368
C        -1.63752564344180   -1.89815953399639   -2.63879762188708
C        -1.34160182824921   -0.50976718368473   -2.91329191795960
C        -3.12972916701852   -3.19947057191139   -1.19742054747140
C        -2.94621988921707   -2.26792122565950   -2.26121045461671
C        -3.65032314838295   -2.70336912742930    1.02273572780334
C        -4.17732677039899   -2.70755171391910   -0.30794035544051
C        -2.80449363233681   -1.16106953065744    2.70969362424574
C        -3.84818062331432   -1.57747530351160    1.80997068518972
C        -1.86491016135803    1.00346469031545    3.28400151906372
C        -1.65404505265111    2.31841981955756    2.76572091106044
C        -2.93748007360210    0.25455907432651    2.87125838461930
C        -2.42744893136331    2.75155144013170    1.66884374563124
C        -0.50204910284400    4.19563720954882    1.08865795332851
C        -1.81876684335720    3.70348012565706    0.84678855735494
C         1.26519242911812    4.41250722569879   -0.56481582992265
C         1.19579140060465    3.79953976913526   -1.90065367690911
C        -0.01731345411448    4.68416920341771   -0.16221966367934
C        -0.57686664902407    2.26575241331082   -2.62113456640298
C        -2.00549013458377    3.63076632443928   -0.59801883374106
C        -0.17265027123517    3.55641399346066   -2.21355747267884
C        -0.92487623496800    4.24261547173462   -1.21610626695697
C        -2.30207717213916    0.48201604729182   -2.55154685461650
C        -1.89295350892159    1.81554581867428   -2.22997240492404
C        -2.59300464180446    2.48766330655893   -1.17149002575146
C        -3.94409913070893   -1.27411816215346   -2.09295499510236
C        -4.69690536149581   -1.55397593538665   -0.86530633149777
C        -3.57772988144505    0.06786764957322   -2.07525643825149
C        -4.45176886782884   -0.38927149972644    1.25018511495107
C        -3.81961930729491    0.74828617862081    1.84306188250142
C        -3.43852706440542    1.88052179635120    1.10699587056136
C        -3.53796113748497    1.78621470742559   -0.33462420794220
C        -4.76849183555466   -0.34876768778984   -0.10948083035081
C        -4.16692017063626    0.68738565687348   -0.89891814754679
