80
C80 Isomer 490 Symmetry C1
C         6.20203564927975    0.23314373687275    0.77886196061762
C         6.09305453337102   -1.13950363285807    0.84788849587028
C         5.71558029353122   -1.66066324455611   -0.45364595210513
C         5.80635632902363    0.63143203316711   -0.57203731628922
C         5.47490857790995   -0.55366978628449   -1.33726836680361
C         4.81210670290897    1.59484754352967   -0.43945072269610
C         5.23505224012384    0.79272338108960    1.71320601651626
C         4.49399479135707    1.72893015394692    0.99850028032305
C         5.04061620186590   -1.49619900152235    1.80049983264038
C         4.49157580859814   -0.28778445607401    2.33441231103517
C         4.66701712361677   -2.57172201437455   -0.21234552801558
C         4.17786918126788   -2.40628558033508    1.17258094124214
C         3.71859940305302   -2.71756946379494   -1.19800859673894
C         4.31925658306720   -0.54167051575235   -2.16730904281004
C         3.59232516980436   -1.75813207375332   -2.25346915263434
C         3.73637195930245    1.70256420323183   -1.36143836270892
C         3.49834847610726    0.65101415754687   -2.29520844862162
C         2.67080146999684    2.58171360467690   -0.96559934961525
C         3.17351249853551    2.00415726556192    1.37455335724474
C         2.41297168158047    2.78332018080287    0.44185106811420
C         3.09665613592432   -0.17587452622408    2.48576439352076
C         2.49637194368223    1.11189929963193    2.25217345617484
C         2.78272891843199   -2.37319791230095    1.42443956620476
C         2.23685009992191   -1.30480734992616    2.20351982423373
C         2.40143069909631   -3.15359031598511   -0.84567031189284
C         1.89791721977384   -2.97547567395522    0.45226789446070
C         2.23616149330852   -1.81346828810988   -2.69896545050495
C         1.55613618388615   -2.80306499845041   -1.92484867695372
C         2.17862122704714    0.57382701925106   -2.89212887608305
C         1.51459351017547   -0.68634080694623   -3.11538618003279
C         1.58270750205108    2.70841753097221   -1.82593780301757
C         1.32525311384598    1.67602029085894   -2.77944780120543
C         0.31643540016339    3.23315508053181   -1.40967522224450
C         1.14120239451176    3.14426414779798    0.85017786522980
C         0.10389757436758    3.50026336659212   -0.07176830570241
C         1.09261571503799    1.26166306483760    2.41586859749894
C         0.50746304066891    2.43411895554019    1.92313834327215
C         0.81233432413610   -1.15151087456986    2.27943580113572
C         0.24426184808843    0.11819731651469    2.59241281297826
C         0.48504070430313   -2.89333581759392    0.60628150695261
C        -0.06531104424660   -2.12384157725064    1.68169755601197
C         0.18350974878889   -2.81742945263391   -1.79737559930876
C        -0.37087648410813   -3.09523292258971   -0.51294381681807
C         0.07830797071133   -0.79245551875735   -3.18368280088166
C        -0.54970736518590   -1.97778887127197   -2.68839131598656
C        -0.09825884047828    1.58958720638213   -2.95149308065810
C        -0.72872787141337    2.58867721489382   -2.14861824312986
C        -0.75453483189357    0.37449865655633   -3.19471775565571
C        -2.02160470844448    2.41645022606558   -1.63386464961490
C        -1.16239820449937    3.18306471169967    0.50458927103496
C        -0.89607528821977    2.52133709492623    1.74019711218537
C        -2.26574095217148    2.77802431170677   -0.26138922632972
C        -1.17094426901994    0.28157438201612    2.59035575549205
C        -1.75913609390004    1.52530544774558    2.20536100213108
C        -1.46829339602941   -2.02715360235618    1.82894928598645
C        -2.00888844368434   -0.87567690130955    2.49158727571855
C        -1.78191624742466   -3.04550724307643   -0.35833738488573
C        -2.34623035987924   -2.74134753150014    0.92405781872291
C        -1.93088377251343   -2.03837854697513   -2.55825586214852
C        -2.55491111566545   -2.77728987943930   -1.50315032473227
C        -2.17719671931879    0.32252833619381   -2.93976112154600
C        -2.83474953687225    1.38359225138323   -2.21738575095891
C        -2.78719260657571   -0.94428686579650   -2.86384694735042
C        -4.09188837027813    1.15309115502497   -1.63290824381319
C        -3.35997719357659    2.20489862278010    0.45667209552304
C        -3.11823735658484    1.60631874044105    1.74233626954535
C        -4.41880289876239    1.67734343418870   -0.32629939315743
C        -3.39566060935103   -0.67479264352781    2.51849569307864
C        -3.98334188067073    0.60020824181393    2.20770492677148
C        -3.73636548580173   -2.57053479448724    1.00483245039687
C        -4.27842769198515   -1.67345261518430    1.98220567435662
C        -3.91762356650726   -2.35017139761716   -1.40568219574908
C        -4.05427454476690   -1.18263205047180   -2.24783721850559
C        -4.79717510627012   -0.10015600192081   -1.77158514936629
C        -4.56375743802739   -2.42613845395768   -0.17784269398214
C        -5.40290264965164    0.85578317949057    0.25836018473106
C        -5.23961828724188    0.35267615657104    1.55952564283054
C        -5.46316555337882   -1.07184537866521    1.51051223701714
C        -5.64028540015808   -0.28069192428342   -0.64453535182260
C        -5.58976925766676   -1.45196119639528    0.12423901627728
