80
C80 Isomer 31243 Symmetry C1
C         4.07833468018789   -0.77661179733443    2.11036928919189
C         2.93452676531177   -0.74212446055952    2.95132097641849
C         2.54910607546321    0.63105179854477    3.07360557168106
C         4.31041455259782    0.54246641889364    1.61262554310384
C         3.39286149366783    1.42025834779564    2.20836332533540
C         4.45278910435323    0.49077382396853    0.19242863015455
C         4.15285398894934   -1.65716393239444    1.01353211007410
C         4.38820303536302   -0.88485335602892   -0.19865444920820
C         3.26732713646644   -2.71412608056755    0.99258236667225
C         1.94169484202614   -1.74257487187589    2.86560630417317
C         2.22685086444906   -2.81355357578498    1.97537754407801
C         0.55571874480466   -1.40942199524362    3.13797008610851
C         1.21135461169230    0.97898130814504    3.29725193086628
C         0.19177673293015   -0.04651475645455    3.39837010484307
C         0.86217728302167    2.27944958084245    2.87968870793739
C         2.88465716316538    2.51554456216919    1.47381567248861
C         1.67390651999885    3.02935833600445    1.97575533901464
C         3.89363686821704    1.52872330506280   -0.59059041538290
C         3.17344349055345    2.61254939881575    0.05783604594091
C         3.52969371895759    1.13957152631516   -1.90153953620471
C         3.79139714662086   -1.27774140260789   -1.41368759793674
C         3.48032055215089   -0.22216583240054   -2.29991769194641
C         2.76067058371913   -3.20605121854887   -0.25812937218155
C         2.98977343669688   -2.49875023299385   -1.46621299586724
C         1.17816873419651   -3.55879290647523    1.37961916146015
C         1.51916803395997   -3.83734955710119    0.01300903516706
C        -0.46075862186799   -2.34854877591310    2.73363622425352
C        -0.15220109280156   -3.41142197359754    1.79860150517330
C        -1.80357195987207   -1.95078011783472    2.81970654699099
C        -1.18384358948982    0.37262482124803    3.31038171566587
C        -2.16301172556542   -0.61075628803648    3.12014463627889
C        -0.50459887299211    2.63681263703830    2.65445638030125
C        -1.53443994243966    1.72357057332527    2.91633891416761
C         0.78446909468323    3.79314476234569    1.16060581221877
C        -0.56790825237105    3.57315093825718    1.59186061408000
C         2.25676616138993    3.34578001081928   -0.72263692812975
C         1.06910367728216    3.93595608806781   -0.17785586122935
C         2.49907632008486    1.84277326290620   -2.62141208482814
C         1.90540729038059    2.93684270341518   -2.04791351268608
C         2.38854691592755   -0.34145896725272   -3.23795025447570
C         1.72755191658750    0.91336206323270   -3.38930826764990
C         1.96692799818069   -2.60264568719427   -2.43324883495737
C         1.64972399047110   -1.49246684275759   -3.29884730803273
C         0.50435489980893   -3.92375808938106   -0.96030692551530
C         0.74389621196640   -3.28447442005792   -2.19447678872385
C        -1.13829169230297   -3.83740649507620    0.87798118004135
C        -0.82446365719870   -3.99180108404698   -0.50886317691246
C        -2.83232700447366   -2.49737429330176    1.97191363725494
C        -2.48617130746616   -3.37491065627868    0.96772873321549
C        -3.43450192528283   -0.32995439071414    2.48956707005395
C        -3.81882738606215   -1.47966709684171    1.72436831086331
C        -2.74250750298321    1.97843826773639    2.22542958417686
C        -3.70633915025313    0.93508987128961    2.01544207768891
C        -1.64771766591531    3.57916611509811    0.68764359870198
C        -2.78335539572458    2.85445131482948    1.10582388848167
C        -0.01011148327097    3.83230163619727   -1.13340861952108
C         0.50382575733845    3.16507108843104   -2.27385473228588
C        -1.35175448403019    3.68114333468422   -0.72703059215445
C         0.32551437290790    1.01513518013384   -3.50152195888411
C        -0.27190098212876    2.22543334745977   -2.99253320602518
C         0.23667525653821   -1.42183641406807   -3.48390278841763
C        -0.31956774852314   -2.57118752251457   -2.84440082669349
C        -0.45672287436415   -0.20060458129813   -3.54451832587255
C        -1.90100513276336   -3.43940291766143   -1.26955829593249
C        -2.97382783238497   -3.15901859785407   -0.36846880663826
C        -1.64189489592658   -2.58462521951509   -2.36961391903739
C        -4.34784635436671   -1.31314939330960    0.44658166866887
C        -3.83648701589479   -2.11932745745300   -0.63493465436001
C        -4.30821938642055    1.11734601718033    0.72350961285894
C        -3.71328483222790    2.29708089962303    0.15289029922435
C        -4.57145706136229    0.00805652810747   -0.06925898597493
C        -2.18557094219224    2.98199472981294   -1.62846755732697
C        -1.64055874677586    2.21219302769382   -2.68782234551188
C        -3.38812425607295    2.32708479794097   -1.18754138232526
C        -1.84936992672530   -0.21576855316602   -3.14426500551245
C        -2.45908898562991   -1.40926907088280   -2.58399132830724
C        -3.60836174497127   -1.26878869126919   -1.77718005207965
C        -4.14804127225564    0.01216407216540   -1.44753694380250
C        -2.43927800130812    1.02211367272992   -2.85024781963299
C        -3.56635531841058    1.14518940532165   -1.98712960690541
