80
C80 Isomer 238 Symmetry C1
C         6.17502086055938   -0.40836135429558    0.43350971701816
C         5.74019863437038   -0.95027887784917   -0.79852683641921
C         5.11055067116609    0.08069012306591   -1.56906278855489
C         5.80312545754067    0.99588549432756    0.42038954391932
C         5.09304727792613    1.29253852993351   -0.81599903408747
C         5.13042748481016    1.28868094478913    1.61592211315947
C         5.36931342168276   -1.02244209177604    1.45660842417729
C         4.85387039383819   -0.00400126313580    2.28411705457983
C         4.69162036302208   -1.90659707986105   -0.55366451797963
C         4.39979743164126   -1.92655151462276    0.83722500345235
C         3.87882892249628   -0.42565000223682   -2.13088410854902
C         3.61698501640604   -1.67455242913215   -1.48190634776252
C         2.82631110789516    0.44426604001680   -2.39027062899401
C         3.91061623502925    2.07035502796872   -0.82316319783475
C         2.92252879903022    1.77828231726281   -1.85232022258471
C         3.93903660934360    2.02470070379032    1.61403033273924
C         3.37474578176983    2.57117396318914    0.42250429949470
C         3.51240756575723    0.00344400626731    2.65828376069731
C         2.99632359468982    1.34624041482027    2.47447231168339
C         3.04241497792072   -1.94118957322163    1.24584042665133
C         2.61136506105930   -1.04740696444115    2.28810480234868
C         2.30717912346277   -1.97187104329650   -1.11567385296655
C         2.01985452268041   -2.24158771609575    0.26040031754802
C         1.50981477062760   -0.13682807443913   -2.53459322707924
C         1.25934998809924   -1.36324193452968   -1.89460715329759
C         0.37676173521688    0.70977976285964   -2.77374425596997
C         1.74213561010953    2.50325887925433   -1.83614019207463
C         0.53460428176289    2.06777685724799   -2.48952364873904
C         2.01574843828823    3.00713631393144    0.51196925076235
C         1.33561499544091    3.25586336836879   -0.69303049124209
C         1.64907287790681    1.61383105126814    2.46172755197037
C         1.15567745135305    2.66935984843393    1.61663745128039
C         1.23667967922377   -0.77961344955819    2.46818377958752
C         0.75343477111618    0.53065558113650    2.77575468477456
C         0.66197951775992   -2.23241845352938    0.63679926814329
C         0.26661696480252   -1.62534953353146    1.85596914897235
C        -0.08126531641023   -1.75809457177520   -1.62050469133829
C        -0.36996884881634   -2.33365327762975   -0.36794859148741
C        -0.94909743465062    0.18180256741497   -2.77388966879741
C        -1.16759410491776   -1.14433869309339   -2.31444384855597
C        -2.06215216737068    1.08668448514383   -2.68433695761453
C        -0.56532866921931    2.78874127632631   -1.92920888685461
C        -0.06523765719053    3.42722312758817   -0.74958257214451
C        -1.87982348717367    2.35066999944174   -2.03076586158527
C        -0.23822597120082    2.87174338302804    1.56971762099421
C        -0.87756879623871    3.37543089419913    0.38662545371162
C        -0.61630962884102    0.78964074921187    2.85164488138850
C        -1.07900716596458    2.09702491625319    2.45802013646754
C        -1.10315218511366   -1.45653743654161    2.15062187168893
C        -1.56000876105290   -0.29267749761223    2.82295548266445
C        -1.71931079821156   -2.51919300522253    0.03601340686186
C        -2.05042430285450   -2.22481139857827    1.39397771314558
C        -2.48273636917612   -1.65245486054401   -2.10674589016294
C        -2.75574243188071   -2.49311920502707   -0.96561088626182
C        -3.33544848720261    0.54043578523440   -2.68713412839910
C        -3.53985322825701   -0.86237381357993   -2.62036495191737
C        -4.45668314453301    1.21111665125488   -2.04408206279155
C        -2.85047036127547    2.78875326813657   -1.05159113151445
C        -2.29342862701778    3.25961107920904    0.18321305110990
C        -4.18418105276578    2.24458990562136   -1.09521894390734
C        -2.43636755101257    2.32586924525102    2.43587230233118
C        -3.05586308049961    3.05531678259394    1.35232468041471
C        -2.96396582155939   -0.02528936165349    2.94489832652610
C        -3.38934417506172    1.32988403848002    2.87880750284572
C        -3.40040125770982   -2.12904945081521    1.76155919646431
C        -3.89432630177097   -1.00704163779439    2.53850767888069
C        -4.09753015398880   -2.64659643651061   -0.52909364844423
C        -4.38494074349534   -2.52405441374780    0.84911054306562
C        -4.87921341900624   -1.04724850619088   -2.17393947120089
C        -5.45029564852238    0.25774612039600   -1.81792141194600
C        -5.17755817575117   -1.96117449981524   -1.19712067860456
C        -5.20274036590652   -0.67826754510111    2.04250034136190
C        -5.53942743853191   -1.64145029897553    1.04065902293957
C        -6.11152202251500    0.11945107520944   -0.55828432175179
C        -6.02152942572027   -1.27579436232338   -0.19732851567554
C        -4.98787609624976    2.21416761567393    0.08109833700007
C        -4.38673768805308    2.64824781293674    1.27923185311263
C        -4.62680893157118    1.63734410793341    2.29368263547770
C        -5.84978423177232    1.08322340460091    0.41315635037234
C        -5.50780886977183    0.66952410901271    1.76757999330586
