72
C72 Isomer 3216 Symmetry C1
C         5.05518698499910   -0.83200632915411    1.07550114104513
C         5.04287431316002   -0.02953958516431   -0.11393240062764
C         4.32465064983115   -0.71612493579226   -1.13010132397516
C         4.36984195664337   -2.05505052514885    0.79783767066833
C         4.04101208999394   -2.03752353315321   -0.59753957363893
C         3.29979849221234   -2.18968406255715    1.72199836129200
C         4.29325181577517   -0.12399149698256    2.03894335326960
C         3.18220895669532   -0.92457310537226    2.43749765075875
C         4.64194492622384    1.28710184103828    0.24641243732365
C         4.07044179074383    1.21594963441861    1.57977262352993
C         3.97429138716495    2.01299045438502   -0.73290545152314
C         3.31539132496212   -0.04763596250857   -1.91151989697537
C         3.27363777535636    1.34578093648794   -1.81913848947777
C         2.07204507991991   -0.72651737197426   -2.28616250595958
C         2.89041955159019   -2.67200345354702   -0.98452873821288
C         1.97469405294501   -2.07639610887029   -1.94342106260098
C         2.14347124877046   -2.87456954601477    1.34138055408777
C         2.08008994941562   -3.32519307623809   -0.00520695295943
C         0.90402082764624   -2.51984855277519    2.00046646572447
C         1.91278519583113   -0.34870576589276    2.64360413630421
C         0.75239689222276   -1.21184565031518    2.59006283918505
C         2.84793698339436    1.84579971468764    1.87740569374505
C         1.74543659631324    1.07991179049999    2.46665041020515
C         3.12638820494846    3.02478430169899   -0.26746422737969
C         2.52841182362222    2.92910464206872    1.00557042793465
C         2.03544810880434    2.06139502940269   -2.05872997645279
C         2.04722220456188    3.19484423437839   -1.22737403116086
C         0.81858702500098   -0.01293848558472   -2.50634385434135
C         0.79537874116086    1.41292154855381   -2.35834985110707
C        -0.44390287167369   -0.70298521890266   -2.49789469479042
C         0.71339627005465   -2.71086537132297   -1.78894177016263
C         0.80557251712993   -3.52982361540901   -0.60881021526778
C        -0.49146682312644   -2.09293403910643   -2.12182453642492
C        -0.24017593547179   -3.17950298114234    1.54102747035709
C        -0.28944905880394   -3.68958230108010    0.19590927067666
C        -1.54126884382676   -2.72865658501284    1.84303334464202
C        -0.55720804260696   -0.65980961730609    2.75106955774573
C        -1.72159366486426   -1.50713482767913    2.53471544479363
C         0.41975372845901    1.59445915065318    2.43443575867566
C        -0.73124888578767    0.76372377259623    2.71499628357823
C         1.17291434201748    3.34805504702404    0.87130527435523
C         0.88939096461100    3.53476808674122   -0.53076622443900
C         0.17996135640294    2.81808583572651    1.69584692049040
C        -0.43250610288737    2.08236417147296   -2.00521523395576
C        -0.35343882282613    3.15820133658388   -1.06263682764064
C        -1.68109514733879    0.03855357067597   -2.47887475398205
C        -1.70277720734643    1.42260125410678   -2.14041878450413
C        -2.90335563525674   -0.69741865749314   -2.33014400362249
C        -1.68785789054432   -2.66284861979034   -1.52953047354677
C        -1.58200726923585   -3.41462922071448   -0.33219288881698
C        -2.42558972779318   -3.05807258879914    0.75946210946881
C        -2.89754207743013   -2.00803270953901   -1.72208250650377
C        -3.66204228541317   -2.42431177710689    0.57079524488249
C        -3.98642650362148   -2.08943115845783   -0.78185143057979
C        -3.01561392757197   -0.98700939807294    2.47292927497370
C        -4.05207091486040   -1.53100573951941    1.61455261285890
C        -2.07444505195489    1.29607168875893    2.55838954392399
C        -3.21217715675336    0.43316289452265    2.58385567952515
C        -1.11788629468992    3.10382725583235    1.24737873452833
C        -1.38462158151442    3.30203140697980   -0.12800983119015
C        -2.26710082765049    2.48473446267423    1.81182570049082
C        -2.89367319192594    1.98396423684945   -1.49800791295120
C        -2.69890789188371    2.84736953606699   -0.40363708491539
C        -3.33276768298173    2.60729745889703    0.86312918142816
C        -4.10118386292296   -0.08790234949595   -1.96962395960541
C        -4.81577839651978   -0.97176348826212   -1.04275268955732
C        -4.11143108069082    1.23220611571446   -1.44146005334327
C        -4.94080090657968   -0.47281034012746    1.32710118684015
C        -4.41310014934347    0.74610461118574    1.92294315031483
C        -4.43861903296758    1.76658792120483    0.92680962707272
C        -5.30060672026343   -0.18131697576908   -0.00513069705497
C        -4.92951666165454    1.22024118526759   -0.28309022744893
