68
C68 Isomer 894 Symmetry C1
C         5.07327953904484   -0.11182562711313    0.91677969096414
C         5.00191728481456    0.78703519684278   -0.21573136971565
C         4.70868564397358    0.02360982271438   -1.35249496598971
C         4.64463732377967   -1.41566310683998    0.47799355045048
C         4.48140994202046   -1.35980039056637   -0.91488879234243
C         3.51176123137082   -1.82083779088914    1.26787662148908
C         4.10903103614986    0.33168756328518    1.84188527044461
C         3.20060975336826   -0.74048402114112    2.16095254555849
C         4.11661268177258    1.87619709275276    0.12379610532471
C         3.55833594189678    1.59414136164933    1.42834535024497
C         3.23547873217710    2.34899605127435   -0.84138775602825
C         3.63510024485354    0.37027659468510   -2.21923254144102
C         3.00755291637241    1.60533344058884   -2.05875294210939
C         3.28206135012782   -1.80187985869083   -1.50495805789076
C         2.77555852004797   -0.78171837040880   -2.38775652464722
C         2.42529458979123   -2.48939404102984    0.68451613942447
C         2.33112554053178   -2.52570799389647   -0.74955667826013
C         1.19228079408222   -2.49782225424379    1.44365052968515
C         1.88502352442939   -0.44793599435444    2.54531917421626
C         0.87693690845472   -1.45754891097127    2.37642530982067
C         2.23202158010688    1.90261225833176    1.75961303918665
C         1.48582277580557    0.93934991150430    2.53961962392949
C         1.96793701591239    2.88225156251898   -0.43578998882691
C         1.46337475360679    2.73738138818960    0.86675972241372
C         1.62400293819012    1.73180716461392   -2.39157664854559
C         1.04366221098878    2.68511245670696   -1.50549787693494
C         1.40028971022215   -0.66916968542163   -2.66627838271803
C         0.81690675251122    0.64017559413058   -2.77947914858391
C         1.04817441416359   -2.68953831300172   -1.34635429586137
C         0.53783170400351   -1.76706317504195   -2.31662307002462
C         0.13651864972437   -3.20069117335026    0.87097490655848
C         0.12408270158882   -3.39382443345808   -0.55052174409806
C        -1.22738954110592   -3.07561020473123    1.32237346043740
C        -0.50617391534380   -1.17647743060298    2.67615255013375
C        -1.58761551694690   -2.01019580746455    2.18611935213154
C         0.14325744833839    1.19343148128753    2.75891615148912
C        -0.81771624218855    0.15711102845394    2.98930146832765
C         0.04704952251003    2.91828996031613    1.04930450893451
C        -0.54224217898821    2.30150996139426    2.16286230532322
C        -0.33043679978354    2.81516002215747   -1.36192364547481
C        -0.82645827156079    3.18435202587554   -0.06679795413006
C        -0.60701513946234    0.81560607311155   -2.77114268647390
C        -1.14698465603802    2.05324417899805   -2.27081178182918
C        -0.87894849710818   -1.63447815724488   -2.51822456166990
C        -1.44769711636755   -0.34899447304065   -2.82826642473806
C        -1.21147988301627   -3.46614012760846   -0.94712580251286
C        -2.05951302969703   -3.40885563975475    0.23945560067301
C        -1.73815851143660   -2.60080042094489   -1.90758818551977
C        -3.22473822968679   -2.69895668716949   -0.07307527824547
C        -3.08377083060650   -2.26869468782282   -1.45832895454774
C        -2.88653519649449   -1.45964386224090    2.00168715122119
C        -3.70612280091851   -1.78792330043364    0.87053513124626
C        -2.12192108313544    0.70872477869584    2.77074099826822
C        -1.94694459593096    2.04474082843966    2.25421195235087
C        -3.15448540185281   -0.07760567268310    2.29959210422917
C        -2.22511966672885    3.13596302667951    0.12560985006751
C        -2.81485348014518    2.54123139529390    1.30691721824845
C        -2.53765753448917    2.19781329813715   -2.11804444696327
C        -3.06157430520563    2.82907484834541   -0.95973131234732
C        -2.85422960746313   -0.16712089500864   -2.64257566581934
C        -3.65191548647344   -1.09963524918220   -1.85337865001636
C        -3.38439985848378    1.09690039105414   -2.40689708973086
C        -4.41517031848706   -0.60945564295780    0.43317662698702
C        -4.11433615343301    0.45256010424302    1.35767767808787
C        -3.97980971746024    1.77342915236070    0.90794707722247
C        -4.19414093791007    2.04302444912457   -0.47228692561134
C        -4.49848108216447   -0.33595194668815   -0.94197687708089
C        -4.42159009061893    1.00831088224072   -1.37103173836153
