78
C78 Isomer 13581 Symmetry C1
C         5.19775624557404   -0.57686862799448    1.14632093225230
C         5.30725501658087   -0.88104762759321   -0.20640327966537
C         4.58996030862873   -2.11414132026817   -0.45960389725292
C         4.29453079396163   -1.55440490807799    1.73314831007085
C         3.91317053834762   -2.50068305637719    0.73584979713074
C         3.31229117226762   -0.84872127831450    2.43886082464578
C         4.80098804591435    0.72195635613572    1.56706492241101
C         3.64386442800412    0.56528946352839    2.41148705864793
C         4.79895487634425    1.74170277609154    0.59887617107420
C         4.90457758779958    0.07515538276304   -1.20506449708181
C         4.73329230584916    1.38626755126703   -0.81916804034687
C         3.83746389901767   -1.91748034914315   -1.63742601136826
C         3.92807684748518   -0.54271121858630   -2.07747366967493
C         2.62687201429427   -2.57369949715124   -1.73714138585046
C         2.57389131995318   -2.94381913638031    0.69604390496176
C         2.05507008269631   -3.22599123992170   -0.59502502304251
C         1.96651436547563   -1.28282233070284    2.45034957659625
C         1.61958577488227   -2.43673215547149    1.65783953100929
C         0.95077687205425   -0.32336971645948    2.78274075295639
C         2.60494121525219    1.51458520004944    2.45111856989854
C         1.24997839021831    1.08125072786167    2.70277643385174
C         3.88515232190204    2.78522748134689    0.78861811607628
C         2.81819065565520    2.70773606831822    1.70269182450720
C         3.66279781652060    2.14744602278600   -1.43189255612546
C         3.30569804099619    3.14225880135914   -0.50160852767780
C         2.77627877248848    0.13794549569903   -2.53624624520209
C         2.64537614955891    1.54289311932437   -2.22209478903091
C         1.56273589533800   -1.99046137601152   -2.48674297215560
C         1.57049973804227   -0.62521417733772   -2.82571677172983
C         0.66680454314561   -3.29667431256678   -0.81950101814906
C         0.36097642959846   -2.60337499643954   -2.04801165443043
C         0.24084371991661   -2.70928035664652    1.47162997045150
C        -0.24964651940992   -3.21907493293789    0.22253858419171
C        -0.40406412839711   -0.76081958391766    2.84075375505104
C        -0.71477122001547   -2.05088413063164    2.30290408493125
C        -1.46698204567020    0.19343226133726    3.00343587829949
C         0.16138997175245    1.95782264251566    2.40466225409960
C        -1.18762833812702    1.54940442405299    2.62820843917505
C         1.67923582946663    3.32675804770582    1.08032490962880
C         1.98165061645943    3.51675336047852   -0.31861852854230
C         0.39050374734197    3.03019784145217    1.47403177218025
C         1.33284463722508    2.13510063035109   -2.22443059447726
C         1.01709874831563    3.15421402110215   -1.27386976087688
C         0.28794102828464   -0.00056163493112   -2.98794175684164
C         0.21110354434382    1.42012314639334   -2.78563549121629
C        -0.88269214700070   -2.05657109878353   -2.28618880790812
C        -0.93214056921899   -0.76240462596370   -2.90078010732490
C        -1.62960229657976   -3.09370605465835   -0.16186222421670
C        -1.96474395539181   -2.56955336050204   -1.47193712140136
C        -2.06334820380710   -2.41491616582812    2.12527317293912
C        -2.54865369260596   -2.96719032859009    0.87067854378811
C        -2.80710517315433   -0.25035226651174    2.94827448848550
C        -3.07674795778758   -1.59446096165462    2.62171915545324
C        -3.86291493638294    0.53161897758521    2.34371688027148
C        -2.23003497941105    2.30556319876591    2.04377932232282
C        -3.54843850962512    1.77942346826290    1.85524527076436
C        -0.64277059663618    3.40746875649225    0.54447669492852
C        -0.32664829085075    3.40049117344942   -0.85371951395891
C        -1.95641759743830    3.17242931962268    0.93518571119977
C        -1.05980112110554    2.00395816775944   -2.68936516265140
C        -1.33501953722541    3.04497174059939   -1.74401446260335
C        -2.22157058877994   -0.13084685752577   -2.93633738532459
C        -2.27523286985081    1.27442637243822   -2.87228624338579
C        -3.23150216910006   -2.05811969450767   -1.68715219179371
C        -3.36851617196466   -0.84035669242597   -2.47108994453418
C        -3.88105165391885   -2.47964235241664    0.64043319704080
C        -4.23188426600553   -1.65325108240559    1.73595393311873
C        -4.72305873750249   -0.34697775837286    1.56104068007001
C        -4.23483059325567   -2.06058372218568   -0.65092255926848
C        -4.47182523741016   -0.14952811160093   -1.94978455011074
C        -5.13772940800283    0.05095621090909    0.27122400267688
C        -4.97855323455753   -0.86710207313984   -0.78967345888447
C        -4.04777808076106    2.22396283760736    0.56469597316744
C        -3.02852753614321    3.06336356456011   -0.00534900189655
C        -2.70167826760134    2.95868742760688   -1.35407898834782
C        -3.32565369510146    1.94210656093511   -2.14981200102941
C        -4.78095680521019    1.36697970272492   -0.23421084825945
C        -4.39741317594616    1.22547286969721   -1.63279235668720
