72
C72 Isomer 4531 Symmetry C1
C         4.58081679543805   -1.26952148506084   -0.70237315404660
C         4.59183230483759    0.13370871776818   -0.54468495900589
C         4.07818361068756    0.45795434379820    0.76054256786669
C         3.98555670883219   -1.83194913506575    0.45939217061908
C         3.65005668196099   -0.76529304447793    1.36985166205105
C         2.94096942102016   -2.70733933427228    0.05640419384472
C         3.68486577207050   -1.56798279558336   -1.79966093692251
C         2.74078909609249   -2.52461896067801   -1.36714716444315
C         3.89772462931225    0.69832902755111   -1.66566092198446
C         3.21354958364794   -0.35903660342513   -2.38097799474532
C         3.23887135232260    1.88250190867534   -1.46866605068182
C         3.34375926470448    1.64030504024654    0.96831978489246
C         3.18664597818344    2.48564506605872   -0.16088747949394
C         2.27974355167873    1.62845615458081    1.96105074222141
C         2.45786019345834   -0.83453637085085    2.12346569058716
C         1.77206442242458    0.37862793875139    2.47368904062858
C         1.85389335518121   -2.93253768572108    0.90497211405210
C         1.71894948911763   -2.07874768700903    2.05978521912746
C         0.69355612786972   -3.53180529917549    0.29287760070861
C         1.43423796100501   -2.48547157027999   -1.85847103309452
C         0.48799991901771   -3.28420083313790   -1.11746821435534
C         1.85064746727074   -0.20846319239830   -2.74028230243952
C         0.99371777625127   -1.35321084180762   -2.62895450456115
C         1.99020990128886    2.15232828908661   -2.11790943586517
C         1.22996436992820    1.10436838110007   -2.69006230998945
C         2.13662765174645    3.43015447778238   -0.20369355846650
C         1.38436833197055    3.23930889682021   -1.42027063302445
C         1.43416128830624    2.74099100830675    2.01941102401008
C         1.45431207993939    3.73178567137699    0.96780850060719
C         0.06742344159569    2.66616017357299    2.49614105099326
C         0.38841039782291    0.32230595244871    2.90650508060880
C        -0.53173838019316    1.42492715208460    2.77449650317935
C         0.48877129249699   -2.12253848682116    2.71433860327687
C        -0.19753726804340   -0.92499751043133    3.09614393876769
C        -0.44020121431324   -3.74008593629969    1.09700580268516
C        -0.48467131439660   -3.07256223609432    2.34413541957117
C        -1.77643859033372   -3.71884755313950    0.56434811912167
C        -0.79372709146240   -3.32752829181903   -1.63512224478276
C        -1.94016000429315   -3.65489038608634   -0.80754179098747
C        -0.40572239652112   -1.19504714597291   -2.87144158938964
C        -1.20918680595350   -2.32626695824513   -2.59012509848569
C        -0.19634222581111    1.27125494994784   -2.75012552092688
C        -1.02165987689857    0.11449984804491   -2.96263487023655
C         0.00741618651712    3.47030342351033   -1.48962494053602
C        -0.78570325108988    2.51788214159790   -2.25642865154924
C         0.15556988715205    4.24952465084121    0.82993645285002
C        -0.67606161529788    3.67701492184896    1.86673838698897
C        -0.56544618163772    4.15939424536024   -0.37791563021073
C        -1.96466633164364    3.44109488126977    1.36628846557088
C        -1.93124634394944    3.89264767919593   -0.01116567670430
C        -1.92697100648254    1.21550728150551    2.43319567476465
C        -2.63881367116742    2.24198048165382    1.71887916958022
C        -1.60978314248754   -1.13279067812400    2.89342035841493
C        -1.78144247796917   -2.48327232557850    2.49182376571252
C        -2.58896185444768   -2.85271482242527    1.40217017426386
C        -2.43980549091571   -0.13086658550508    2.37885118416712
C        -3.49186382936185   -1.89887094267676    0.86418191012926
C        -3.48290332927825   -0.54239595032838    1.43301523808230
C        -3.04991930565221   -2.95269406784338   -1.31046179170371
C        -2.60167971782329   -2.18911111213680   -2.44607884854541
C        -3.82207428352339   -2.07859435571914   -0.50422555323470
C        -2.45427777707487    0.21972277028643   -2.80096600688253
C        -3.22158061011789   -0.92955075251840   -2.46367625658307
C        -4.10951231784873   -0.92958329018963   -1.32504381827054
C        -2.16689850664061    2.57903776026351   -2.07494082585893
C        -2.73828363054640    3.27570419486228   -0.92889814717061
C        -3.00024012575769    1.44381968273334   -2.34699095515319
C        -3.68416852267178    1.85000260056987    0.83977884558706
C        -4.08856322804571    0.46744062436401    0.69288613584142
C        -4.40575875309829    0.26047978892117   -0.70626655535202
C        -3.78133742532773    2.46559462276224   -0.42481308437786
C        -4.04717839307238    1.43715947734942   -1.39519208131216
