78
C78 Isomer 13451 Symmetry C1
C         5.03744109941675    0.74654198004104    0.15850295864829
C         4.73734791666466    0.69615771256081   -1.21402053382831
C         4.36224937424130   -0.66474089293523   -1.52429856226066
C         4.69827439991010   -0.56183694858736    0.75183974584572
C         4.28346574718714   -1.40249921532071   -0.29077580509480
C         3.81833329984406   -0.34240350805126    1.84550048324504
C         4.44333569958589    1.73310983477739    0.93418568027546
C         3.76706213935139    1.06061095784247    2.05847100998080
C         3.52982413920141    2.65630169555362    0.37197272591832
C         3.75979878660793    1.56169115009059   -1.78194988371048
C         3.14351715138063    2.57233933298957   -1.00287007201410
C         3.26474363175681   -0.63880910716901   -2.39636868107432
C         2.90052159816474    0.74575153893195   -2.60371271821469
C         2.29162359426990   -1.64964629932255   -2.34107726755113
C         3.19653179259045   -2.26868659785000   -0.09816006135875
C         2.43578781290157   -2.60826537686907   -1.27434474956031
C         2.62549404947792   -1.10631325979767    1.99981810510461
C         2.46341490950261   -2.23758931861292    1.13658872991586
C         1.42107564852356   -0.47980465396160    2.49927987731565
C         2.54995147056020    1.68214111935192    2.27398788396400
C         2.46790270687357    2.77776533589100    1.33403212212391
C         1.36829683158139    0.94786497556897    2.57828321412686
C         1.25229272742189    3.31646171844410    1.01238111452840
C         1.80907790545449    2.97892867408439   -1.35821411949330
C         1.02951089322084    3.67505135465038   -0.36801062728997
C         1.58304706085147    1.06877098548633   -2.87536695819504
C         1.07120392488355    2.33182889523035   -2.39553026269027
C         0.98425328273338   -1.39513950943633   -2.86580337237350
C         0.67070059639929   -0.02402808271262   -3.17931068446608
C        -0.07123008836330   -2.34504881384528   -2.65389982562248
C         1.42469481643868   -3.51698177794364   -1.10013626959401
C         0.25280665061365   -3.51989777140408   -1.93141779891795
C         1.29246098809905   -3.03753958368701    1.27329602496543
C         1.04049409969612   -3.95489639634335    0.21952782260032
C         0.18052688559820   -1.20008608186643    2.51709565677089
C         0.19413531773613   -2.58705751911041    2.09361448710747
C        -1.05499865934426   -0.48352943796483    2.68412855020941
C         0.13503015331607    1.65608628824279    2.48772749531540
C         0.13567795186868    2.95844895731843    1.86216980265646
C        -1.09806881464238    0.95619892584205    2.64795215528347
C        -1.06679394150054    3.58599083652614    1.56951956278646
C        -0.24681411400055    4.11897131369713   -0.68507836783743
C        -1.18694121458952    4.30970079468515    0.35144626226112
C        -0.32837582353671    2.62671814262165   -2.58693425006269
C        -0.95936109193245    3.62338444261388   -1.83157316188950
C        -0.66899302783739    0.28869358845733   -3.32831836483723
C        -1.17936996684193    1.61230137951692   -3.09713315014904
C        -1.46461707256992   -1.95348258354035   -2.65639063888822
C        -1.71317840398148   -0.64099823734189   -3.06735482600202
C        -2.46016135360334   -2.57814595058538   -1.81384018309038
C        -0.73738831655729   -4.25136397734586   -1.26437778866186
C        -0.21514985393813   -4.56355110889832    0.07108001898523
C        -2.06817875685416   -3.77232017621229   -1.13293953770069
C        -1.03639144725126   -3.27226047327890    1.96090875537074
C        -1.21639566582711   -4.29438380018042    0.98673330907920
C        -2.41928298130182   -3.96790658658291    0.23102371808536
C        -2.28945112628012   -1.19713871125065    2.43817459058627
C        -2.25768426098751   -2.52809657868601    2.01667769321443
C        -3.07816966043061   -2.94477238385287    0.90306354304149
C        -3.46242337750094   -0.50495065088074    2.07658259628265
C        -2.34382298729274    1.66945652271499    2.39834620691616
C        -2.32907667078797    2.96959464043668    1.86296050471330
C        -3.53135230460593    0.92301049514007    2.13461431395914
C        -2.49175713029403    4.05703904928891   -0.17215161721473
C        -2.36254754023920    3.56382880461574   -1.49828872203852
C        -3.24377524948299    3.35910195901520    0.79951932707471
C        -2.53785115302476    1.50464333412621   -2.74079327495972
C        -2.86285971947010    0.09475941334640   -2.67153097094824
C        -3.16605819836479    2.45824431828785   -1.89864536179251
C        -3.49869917887075   -1.76586962742291   -1.22705466000850
C        -3.81800303550614   -1.99936328665277    0.15807331560449
C        -4.24696696133921   -0.92954355069493    0.95911209920779
C        -3.75623735909818   -0.43148066930200   -1.73619641734395
C        -4.48317348267922    1.36242019479787    1.19431842254949
C        -4.19837786907915    2.45653423493605    0.34373237188976
C        -4.15025712272014    1.96453533369157   -1.01015555835682
C        -4.80019964160725    0.22974566626141    0.36764165354709
C        -4.46247242979023    0.54270260782527   -0.95385880596444
