80
C80 Isomer 25307 Symmetry C1
C         3.24355424481669   -3.63003383036966    0.38579339329824
C         4.06227201014750   -2.61762005650192    0.82297400890510
C         4.46391955803382   -1.84026524040598   -0.35901896674526
C         3.05744740596617   -3.44792795065691   -1.06307777055302
C         3.64711447097482   -2.21811482039444   -1.45729564358089
C         1.72826039086854   -3.70753745356925   -1.34036388691009
C         1.97503540627637   -3.81650106266157    0.97662589010543
C         1.09265292566438   -4.13336129028201   -0.11285668697875
C         1.49653180324910   -2.93289713838501    1.98402577738674
C         3.61979191637932   -1.70247819552031    1.81336433476794
C         2.31728676027399   -1.80599748011138    2.37806888260483
C         4.52843346736952   -0.51556266841204    0.02338436071628
C         4.12243590495495   -0.41956349373886    1.40665176895393
C         4.13068522588676    0.48926662901577   -0.89084907728418
C         2.86378465143141   -1.22085186638473   -2.14993355330601
C         3.20216170584338    0.16140151193917   -1.94253297748302
C         1.00451279360445   -2.85985492496713   -2.22883486271644
C         1.53747025738099   -1.56159824458321   -2.58388289556921
C        -0.37371154765605   -3.08605081651249   -2.18073119428381
C        -0.27548951800929   -4.08326784955271    0.04439744497739
C        -1.01149529578782   -3.80452146450636   -1.13339006554088
C         0.07271052207440   -2.88655385353024    2.17801129417275
C        -0.79273278777408   -3.66527875875332    1.32122788994749
C        -0.48128162649559   -1.77249545878945    2.89100662572684
C         1.69001545040151   -0.57829983779529    2.83124173152018
C         0.28267529581986   -0.56631459664962    3.08656785567182
C         3.59373517823247    0.76660777006170    1.89903945552635
C         2.39408493202300    0.67871645785540    2.70129165646780
C         4.11612616401730    1.75509559302188   -0.28794944824500
C         3.87131170392761    1.91651402597291    1.12103836298563
C         3.49558091141503    2.81473550650670   -0.96574024776719
C         2.28360651372383    1.19382128532571   -2.37645033713289
C         2.52080115309468    2.52558132090296   -1.94255091475580
C         0.59590778649799   -0.52111553395905   -2.94222082801858
C         0.96424460202102    0.85800069770259   -2.83383408477058
C        -1.29794026558882   -2.11547391612088   -2.67435007192986
C        -0.80495734356264   -0.85690495141787   -3.06711677636252
C        -2.35810627309393   -3.33747305137470   -1.05819924588918
C        -2.54970658505444   -2.29593232986061   -2.03921429411267
C        -2.18042835931969   -3.46115665808178    1.36607640080505
C        -2.97815364866681   -3.26088943043406    0.16229478904259
C        -1.88639513491899   -1.67240648821764    2.99309050051969
C        -2.70513791684840   -2.59811208114664    2.32918544680407
C        -2.58312100445012   -0.40208442718164    2.98564915491373
C        -0.44013835872695    0.68328109769095    3.16464795037733
C        -1.86879225990577    0.78466637604408    2.94677026412330
C         1.67927750235333    1.87410978064294    2.84191310506994
C         0.27865358888217    1.86891356643327    3.03066656885720
C         3.10133932908540    3.11989567243128    1.27342827549964
C         2.94144232766641    3.72905560404773   -0.00512152071310
C         2.01404129539524    3.08786447736881    2.13362710528982
C         1.44071854147954    3.44834091496556   -1.70801234389602
C         1.67503749499893    4.13082788029824   -0.46032344949773
C        -0.07156061852951    1.88959574253954   -2.82106891139908
C         0.15435156216457    3.15386836990124   -2.14846137840538
C        -1.78651840559428    0.14760013467063   -3.06402512466825
C        -1.40876338284038    1.51867672835452   -2.97618638411207
C        -3.43107826359920   -1.22063928492738   -1.80709901796535
C        -3.07222236158578   -0.03132234300450   -2.47116743272908
C        -3.93953991277633   -2.19919529387571    0.40474575695995
C        -3.84627421830308   -1.89333568429531    1.76841077264249
C        -3.79923878493352   -0.56694853696698    2.23153183033743
C        -4.15890151981848   -1.15664357374080   -0.55057468624448
C        -4.19162523940964    0.43099491819214    1.35362360708242
C        -4.43664912349906    0.12688967045101   -0.02687156228440
C        -2.44224298727338    1.92982587548015    2.25151888168072
C        -3.58467435384971    1.72087185713833    1.45923560453883
C        -0.27396918369596    3.04068242956387    2.40286860667742
C         0.78860108992459    3.74686957155678    1.77836771945536
C         0.60593751316810    4.27296070651744    0.46648955107392
C        -1.59016631003497    3.03921881261167    1.90345797114959
C        -0.90141931595239    3.77508712601159   -1.42945463939707
C        -0.68526683110081    4.19262547100846   -0.07224467004301
C        -1.80520716380065    3.74871513936770    0.70020027954438
C        -2.50040522663902    2.22021818340294   -2.35706000167905
C        -3.49717127657158    1.25338498837561   -1.98878725849745
C        -4.13472164553371    1.32895688849312   -0.76278299684209
C        -3.71313473202940    2.34465926138356    0.17091012870719
C        -2.23310298846132    3.28979567036079   -1.52414483433150
C        -2.82010958579764    3.31938822403069   -0.21164096224584
