36
C36 Isomer 7 Symmetry C1
C         3.19236796048325   -0.37664591929631    0.32897182825820
C         2.55587459291161   -1.54399852179186    0.65159455702946
C         1.82484163497392   -2.07932163710456   -0.49322759590897
C         2.81981107240679   -0.06500957183498   -1.06523150002908
C         1.94178941043487   -1.12463336894417   -1.55790155873667
C         2.35229816756374    1.22913614491051   -1.07124949919094
C         2.62386867255896    0.66831908618755    1.20618818665264
C         2.29587533071862    1.71018086870725    0.34811065990083
C         1.58699143163023   -1.30786115647105    1.72456087237679
C         1.56428982771525    0.09430064117857    2.01988825327735
C         0.56198054632045   -2.49841209471957   -0.01917590497272
C         0.41465941259002   -2.00861834187632    1.38837110647481
C        -0.53641347258556   -2.37339993290322   -0.88501866830449
C         0.76365378838761   -0.75767261925905   -2.24443177366610
C        -0.39942583270812   -1.54166088947458   -2.03080698560008
C         1.10815254140716    1.61098293320632   -1.70035119882690
C         0.32075768381544    0.63520863119478   -2.32682123333649
C         1.09214478587660    2.39536256951861    0.51394422903102
C         0.45305610678300    2.52255302527636   -0.80271820425806
C         0.29133065277036    0.75555708260867    2.17016067595802
C         0.12396237919374    2.01972885190553    1.48417608415512
C        -0.80011762759509   -1.47284985362498    1.80886429669290
C        -0.87160627040862   -0.09640245157151    2.24378016774503
C        -1.84164159128863   -2.11162303767865   -0.33221489620580
C        -1.99101446005856   -1.75595512738481    1.02068730337799
C        -1.58387272946834   -0.69434800882376   -2.10759704904149
C        -1.14002862655287    0.66126965214512   -2.18726600857680
C        -2.52146846269139   -1.12715107361814   -1.15811304300737
C        -0.91014862066471    2.49308561838565   -0.60573934953074
C        -1.14069890338009    2.31919166145304    0.84694708401761
C        -1.76158018893188    1.59337838242457   -1.31402247282980
C        -2.17179918279921    0.37160865110848    1.80629360150595
C        -2.87621691310925   -0.65169256588756    1.11868994308287
C        -3.12873505773580   -0.18212417597852   -0.26768223567262
C        -2.25676781151869    1.54583593183535    1.00563459359882
C        -2.75117024704481    1.14168061619724   -0.35229426544028
