74
C74 Isomer 2455 Symmetry C1
C         5.10906774834446   -0.19177360313110    1.17682352468895
C         5.05156329349238    0.53845538143131   -0.09406062184906
C         4.79463217759302   -0.39580766732294   -1.08633238751689
C         4.70133216540564   -1.55792799154770    0.94225808142213
C         4.62281392395261   -1.71577073039305   -0.43946406126191
C         3.51174667449677   -1.83398675379799    1.73659200006641
C         4.14203610043603    0.38219640613349    1.99583749224425
C         3.19455312665416   -0.62806458612198    2.43189036921235
C         4.12942536739017    1.62320761135259    0.03386348077109
C         3.62451425248120    1.58297513028858    1.38564288385745
C         3.17508197600087    1.89632602445706   -0.96880763606314
C         3.71499824088692   -0.23354403785348   -1.99581574142762
C         2.93852290391841    0.93551951323647   -2.02348913859210
C         3.49731357761718   -2.32582157727564   -1.01396133549902
C         3.00207731876108   -1.48294675367034   -2.06717399422967
C         2.44513065449885   -2.59139437431619    1.22256056096207
C         2.54532727556745   -2.97114631753642   -0.16973030220056
C         1.11644793441157   -2.39614835917074    1.78056319884465
C         1.88091876273193   -0.26002873831302    2.70051533987075
C         0.82585447925223   -1.23571138136870    2.54964926557054
C         2.34523852396568    2.00133527821601    1.71007651264127
C         1.56077630630353    1.14888202393374    2.57442199957494
C         2.09276212548126    2.75532975789366   -0.57574072920165
C         1.66003542930353    2.86412919749764    0.77618340026604
C         1.14896212800609    3.03214750535143   -1.59098954044868
C         1.61046669752219    0.85284508712455   -2.62143128363541
C         0.84575751814967    2.00266729422100   -2.57466209718215
C         1.66523503857123   -1.55578931416972   -2.49984864656224
C         0.90840366729633   -0.38512034783903   -2.84313432455434
C         1.36608473680326   -3.29973764064542   -0.81520151431911
C         0.96056346073173   -2.67611253929941   -2.04250377952581
C        -0.00958918015740   -3.07922575338051    1.19893268844853
C         0.18887734099337   -3.61230961129146   -0.08775981866092
C        -1.37227044420648   -2.80085179018272    1.60245705493512
C        -0.54679170666458   -0.83533008030492    2.77018462384742
C        -1.68294487369963   -1.63523334725463    2.37656289629299
C         0.24773303002238    1.49541170137352    2.75912408238956
C        -0.77125603757777    0.52676006346463    3.00427913388035
C         0.31909550443344    3.29785377064269    1.07538542661426
C        -0.34850691626816    2.64585690113791    2.13459432526357
C        -0.02471341428455    3.70632948616479   -1.30706507523278
C        -0.51099873447964    3.80429777120089    0.03176180365658
C        -0.56607287512109    1.99283922751089   -2.78482530154448
C        -1.07189139522272    3.14723441660200   -2.12403154442575
C        -0.53870498250189   -0.42834737821318   -2.86719705447231
C        -1.30587614809040    0.78923709517906   -2.81183291561061
C        -0.44616767640340   -2.74474913368235   -2.14739408937742
C        -0.86920715526689   -3.56219378642934   -1.04671944214689
C        -1.23910320214697   -1.65390911804806   -2.54995384905404
C        -2.40704150273219   -3.33324212362030    0.78299215480922
C        -2.14949949086479   -3.51251049332278   -0.63328735294700
C        -3.70754279281237   -2.85699650030574    0.86737574882003
C        -3.01930379693731   -1.05027565097165    2.34795004335334
C        -4.05428387904683   -1.75102073226241    1.65945323982564
C        -2.01818688379473    1.14774164098721    2.71666167391115
C        -1.75011221898492    2.44498629226983    2.15114704172482
C        -3.16236146907746    0.39816962182655    2.42614424539555
C        -1.90161151496709    3.52305425222252   -0.00678836219643
C        -2.21819230235678    3.05001969497062   -1.35861482841532
C        -2.54985223414179    2.90378940327892    1.07791717891953
C        -2.67542558320721    0.80897767247613   -2.32054459367349
C        -3.09981002795301    1.97148344260074   -1.58514141363205
C        -2.65092171154958   -1.66877501474654   -2.19218599637925
C        -3.10623341090262   -2.76516508120412   -1.39968322369594
C        -4.20106643138767   -2.62539870085772   -0.51398304670048
C        -3.40158043799882   -0.43155567005835   -2.12869603384391
C        -5.04486432765564   -1.03174378416890    0.88123686651882
C        -4.97476001236434   -1.50404187500669   -0.52226774791970
C        -4.61246291488713   -0.39921058960448   -1.36341611167343
C        -4.13103748010232    1.08914938087554    1.62318473286194
C        -3.72085500329983    2.17508368194257    0.81479068948816
C        -4.08248725347856    1.84187932916546   -0.56759943037411
C        -5.05003934819531    0.32639201713098    0.83380979887249
C        -4.91172269068676    0.74635585452871   -0.56648919377627
