80
C80 Isomer 6137 Symmetry C1
C        -4.91036124782697    1.22940516280036   -1.62393857580159
C        -4.91030218827959    1.66932600938005   -0.28544583353868
C        -4.85130669530152    0.52611523710177    0.57590155727945
C        -4.73289057635250   -0.19155214479238   -1.61489230503152
C        -4.74027677280588   -0.64859180638138   -0.26219161007398
C        -3.59046240131561   -0.49701837243342   -2.38527722127745
C        -3.75528040512613    1.80021273134235   -2.26105654694269
C        -2.96500579865566    0.75972230225762   -2.80381403267159
C        -3.89563875420617    2.69041418503807   -0.15143858492554
C        -3.14266666861597    2.74708768066737   -1.38998662823449
C        -3.20147586109393    2.76609325647931    1.03608039673513
C        -4.11780778362851    0.59018627265964    1.78893851184401
C        -3.37190739394949    1.76773765735603    2.07592731112699
C        -3.57406700711132   -0.61604308159945    2.28191621667369
C        -3.91448487486658   -1.73390806206064    0.10623564276043
C        -3.51071726068349   -1.79542082625889    1.45461634849702
C        -2.77596961907700   -1.58277388232921   -2.05756220439356
C        -3.00405334659145   -2.32263281535172   -0.85111142023946
C        -1.46740086470509   -1.56932600581806   -2.66480895195191
C        -1.57292406843746    0.88221182963248   -2.84725144077843
C        -0.80981584155378   -0.32953679945671   -3.00004247956414
C        -1.74202183489501    2.86877596005922   -1.38404799728557
C        -0.95279722116694    2.04176830272064   -2.25895234588443
C        -1.83619423575940    3.17381711349808    1.03420551765762
C        -1.09494627811338    3.26697731061707   -0.16434271073589
C        -2.15133717248524    1.69740526530338    2.78678442965713
C        -1.22440999229173    2.62705495484681    2.20220633067052
C        -2.43738641329109   -0.63878379681371    3.13736974914641
C        -1.63934563276243    0.50493080821344    3.34178735038776
C        -2.41322484426778   -2.59608100925540    1.87782135408886
C        -1.81269352720861   -1.92468539983705    2.98643537402008
C        -1.98540466136977   -3.23198768166491   -0.40555035719856
C        -1.63838203670792   -3.36402463914601    0.98998442755715
C        -0.70047438352818   -2.69453464462284   -2.45603698089575
C        -0.99474488235243   -3.57532291539026   -1.34704756009570
C         0.71399574901604   -2.66328670236331   -2.65002296276883
C         0.59680695539693   -0.25873342746803   -3.03867839502612
C         1.38931600476166   -1.45354495798239   -2.88488172389679
C         0.45819730248439    2.08597614728996   -2.17651228590511
C         1.21944787930904    1.02630549441511   -2.78990462493159
C         0.31563828236929    3.24815591122489   -0.06311204100944
C         1.11750983827261    2.89909392065275   -1.19328165239064
C         0.14610580386437    2.48677411970448    2.30236010540714
C         0.91058505953993    3.09521754297633    1.23725319212672
C        -0.20036567804684    0.36652625339360    3.49235583618289
C         0.70390020353778    1.39217455784538    3.05324827183411
C        -0.47666964355914   -2.07026058010363    3.24597784959475
C         0.33069438353678   -0.92771778215625    3.56631040894985
C        -0.26955039122634   -3.66842473357235    1.37878102993874
C         0.30037437239737   -2.99266595203871    2.47863912734995
C         0.23115791923313   -4.14014275594996   -0.94877651169323
C         1.28176424145102   -3.62857439187939   -1.79339490054338
C         0.66591568586673   -4.05586383622523    0.38838415489786
C         2.38418577727089   -3.29873080058482   -0.99335464260912
C         2.02484931996417   -3.56376175646295    0.37233656037536
C         2.74140095351014   -1.36929846760012   -2.41991466299974
C         3.19691274383977   -2.20718043006122   -1.33473159562011
C         2.60065554345234    1.08462859368598   -2.71249686373217
C         3.37753562064233   -0.12730609945428   -2.58710019623667
C         2.55230149506479    2.92996057772581   -1.09314294522377
C         3.30112749980432    2.12928681437211   -1.99879573864516
C         2.27914603447765    3.03210601091120    1.33286577927395
C         3.13550153238512    3.17525090325568    0.18706797969166
C         2.09202517495945    1.11297519983620    2.89090074453110
C         2.88729614503246    2.10888840648504    2.26516547925644
C         1.64773192923724   -1.22883386168465    3.12006770041158
C         1.63831265556002   -2.48889796597998    2.45245542822435
C         2.51044275599102   -2.70319509667529    1.36783860455870
C         2.58086026682185   -0.23796265583730    2.80577519243378
C         4.00219303728581   -1.62377919643716   -0.29080800493548
C         3.53959809172174   -1.73095452441683    1.06791856668050
C         3.68371409097413   -0.58929486681084    1.93561176140625
C         4.54487889422550    0.16760138407386   -1.89036110366990
C         4.56260234709613    1.59588647637706   -1.62575905617999
C         4.81733549097938   -0.52072828715052   -0.66335035903838
C         4.37180389882612    2.58678461488328    0.55394259287247
C         4.15386612198353    1.81553667515863    1.78622285683688
C         4.55406285816359    0.46345615448115    1.54353495168660
C         5.06630094818408    1.77150445320875   -0.32909014529221
C         5.20271335072572    0.43803076017634    0.29004150724485
