80
C80 Isomer 26362 Symmetry C1
C         4.38460639157367   -1.99106083735641    0.92584007351298
C         3.50467941658115   -2.99031492151831    1.25014855600553
C         2.97284006650891   -3.53960261885464    0.00125131734181
C         4.39522541118496   -1.84579528361486   -0.54481707067475
C         3.40774485464458   -2.72317722502138   -1.08069618175075
C         4.41894505389466   -0.49326184867928   -0.83510789562897
C         4.26914956949808   -0.71246229085306    1.51712835186375
C         4.59652689739523    0.19128434296249    0.43707407912462
C         3.19672083782123   -0.38744892702060    2.39024861801815
C         2.41259071308716   -2.70914608274618    2.11640390674979
C         2.22100072171399   -1.42147541053608    2.67656362440413
C         1.62519400076965   -3.78572352590599    0.19427853620606
C         1.28815441027598   -3.38782031122714    1.55255041000729
C         0.70222880091187   -3.54227059052231   -0.84347798773368
C         2.46043708395098   -2.21504610636830   -1.99763195373287
C         1.12881010426284   -2.78483420241856   -1.97718706211937
C         3.54861763030134    0.07377024144830   -1.81927102823675
C         2.63645631710505   -0.84306808959579   -2.44739049166242
C         3.23632280754416    1.48010225198935   -1.72885027874634
C         4.27152461886685    1.48979042827815    0.53802442691606
C         3.78150615125886    2.20418855296318   -0.62770850761775
C         2.80966809391889    1.00915113254482    2.48271265158513
C         3.54953625451928    1.94023763340185    1.70946764100895
C         1.48602868556375    1.38750424829635    2.90333699020770
C         0.87811111755927   -1.05964576852883    3.04561142875394
C         0.56621419334253    0.33139131056454    3.28105111373907
C         0.00015308089840   -3.05815213598794    1.89053734736686
C        -0.20443349300025   -1.97549123858573    2.81404391944997
C        -0.67841329980765   -3.61196917087547   -0.44661987627431
C        -1.03230202759316   -3.47794207995541    0.95982771721954
C        -1.64294828141684   -3.29279737905681   -1.39431189996700
C         0.09203062912714   -2.18541320885976   -2.77796950665345
C        -1.26302052273736   -2.50409816254786   -2.53577298166716
C         1.56764437907987   -0.25469865991741   -3.13624752688258
C         0.34402464513452   -0.95271528751289   -3.39156480234632
C         2.02818546905054    2.02115283521876   -2.30993592296662
C         1.28017457770572    1.12864151769305   -3.09019089465178
C         1.30640248329572    3.15193090098522   -1.75180514849875
C         3.11799081012925    3.31358005581812   -0.12702413967817
C         2.98136127744264    3.15722959371825    1.32449468943306
C         1.88813534494828    3.78153933619748   -0.63213840603219
C         0.93943429592298    2.67253312185915    2.53760994994420
C         1.69842924536399    3.52906369977119    1.69864503164478
C         1.09187296264192    4.12150749039775    0.52022119651944
C        -0.48796062017374    2.88191912669305    2.48765372885597
C        -0.77687998249572    0.66555747642162    3.48426729715066
C        -1.31799945218438    1.91493224911872    3.05709589718728
C        -1.56792809195363   -1.61698320158851    3.06922051924853
C        -1.83995734827244   -0.29358715067040    3.44852072009645
C        -2.34120039219478   -3.22233248416496    1.30838190900502
C        -2.62140878245025   -2.33518266138028    2.43179193376695
C        -2.97779926472584   -2.94127280083385   -1.03121732094639
C        -3.36038020562103   -3.02147716842885    0.30969968713453
C        -2.31601076322257   -1.59083400586565   -2.78110872518698
C        -3.38464608162183   -1.83992093674584   -1.83143304691553
C        -0.69136345628719    0.00882653446664   -3.57517826173873
C        -0.12636640486991    1.29640780104093   -3.34729757727693
C        -2.03248312848576   -0.28475780927140   -3.23756504691414
C        -0.13785018061862    3.25174587971130   -1.89708796177582
C        -0.86021197400169    2.32230593535593   -2.74245829005145
C        -0.26139460190199    4.14516037824513    0.39412557694788
C        -1.08953265771767    3.65053266134877    1.46296572615898
C        -0.87251406550122    3.84765727734651   -0.85790032546296
C        -2.33979427042304    3.29307972377442    0.90094278702071
C        -2.21613735762452    3.43725322934545   -0.52825931536476
C        -2.67011658226448    1.71205778908998    2.64452202776832
C        -3.02708344664929    0.38012766314345    3.01436469760730
C        -3.16748939078572    2.29271047696602    1.45867698934744
C        -3.83401275736726   -1.69664005226412    2.15204250680701
C        -4.25794610678705   -2.06276013744828    0.80704102641766
C        -3.98926495973026   -0.30194434597264    2.28589540295048
C        -4.12232495791376   -0.77176219656786   -1.26620656128660
C        -4.00333024745275    1.48464736791434    0.57791618211855
C        -4.55372876498398   -0.88816436712900    0.09291252776295
C        -4.43874802841031    0.22712730507066    1.01213018676467
C        -2.80883923790255    0.77854513662957   -2.72592953361517
C        -2.23564813698637    2.05105908328651   -2.50410473744360
C        -2.90653794024604    2.60039335335773   -1.35914591073627
C        -3.81888164655531    0.53556838295937   -1.71340821451710
C        -3.83179049385768    1.63683715700454   -0.83121851438579
