76
C76 Isomer 8839 Symmetry C1
C         5.20461807658283    1.05663694505470    0.20647119421858
C         5.17111384291402    0.03219855022274    1.09781193428258
C         5.08979494717826   -1.22777135244872    0.31963678666990
C         5.09096966785760    0.47286793998517   -1.15553134724186
C         4.75428955923176   -0.91075483098038   -1.03903241420748
C         4.29551695017115    1.32601424169094   -1.87182855365366
C         4.26376657989750    2.14135909177082    0.32178725946863
C         3.90652720011797    2.44976372736548   -1.00323235391619
C         3.22323872661545    2.09389249689626    1.30919859116318
C         4.17057146723074   -0.01429470652399    2.14544077466125
C         3.13512632204720    0.97327218305478    2.21618204910373
C         4.30609382264238   -2.07795374137780    1.04607320806378
C         3.81344989300226   -1.36799503719358    2.24524801217393
C         3.20292508875894   -2.73228851201414    0.44947533650834
C         3.51721317159529   -1.38540591804198   -1.59426804989028
C         2.77694548821859   -2.39314910460438   -0.86456535591989
C         3.11881738604823    0.87181111849321   -2.52431035923086
C         2.70644236347007   -0.47990781450997   -2.39140983027195
C         2.60636741619289    2.80895881022192   -1.34741832669557
C         2.14570570892756    1.92377599069365   -2.37494131591374
C         2.00381975846068    2.78169727654145    0.99446738135511
C         1.69325402548978    3.17203486463181   -0.34374803878803
C         0.88695815867390    2.63955284364949    1.87673922144924
C         1.81766459702152    0.54595428698114    2.67896380747881
C         0.71157923653633    1.44612148771512    2.63457229506951
C         2.49672994844968   -1.77412567898690    2.45775174328508
C         2.19834863339408   -2.76968794481628    1.47094865990165
C         1.48555627277974   -0.83775688211160    2.79528023087989
C         0.89950195915090   -3.08895666804268    1.18266141190265
C         1.40228899264615   -2.68146771399564   -1.17848296295297
C         0.59059110354633   -3.34490435419506   -0.19664411083642
C         1.30726964790014   -0.73537435339103   -2.62942141454417
C         0.69321704997044   -1.95212820105495   -2.19012331880209
C         0.79075705618102    1.70052879639168   -2.55489265506967
C         0.42623526686487    0.36480334538757   -2.92307797736298
C         0.33455932701053    3.30302162780494   -0.78656720927670
C        -0.15026781965689    2.57977488984204   -1.91810890870944
C        -0.25242763261171    3.39988505219287    1.54779357683527
C        -0.57446398308940    3.69299595654231    0.19571050510222
C        -1.47717405907763    3.15107609872448    2.20351252470549
C        -0.63872340792252    0.98169852874145    2.92625868614430
C        -1.71555939652615    1.90575734561383    2.78289633237935
C         0.13138862200988   -1.30711646241733    2.70636627899840
C        -0.10220613940402   -2.55984418290313    2.06696282969459
C        -0.96843319804816   -0.40078479998473    2.87622317418033
C        -1.41539906447866   -2.95251664906628    1.79131774074659
C        -0.74926319778619   -3.62825115110732   -0.45830783227925
C        -1.67541270896037   -3.68033923732227    0.61961633577684
C        -0.73300835450772   -2.14840488056197   -2.36290126186361
C        -1.43572364285334   -3.07677249588526   -1.57116110005018
C        -0.94229956309225    0.16051921090504   -3.05753542172980
C        -1.53397320463424   -1.10275296889310   -2.88032258300668
C        -1.56381016319034    2.33265106553685   -2.05000268110435
C        -1.91823895217307    1.17805806224562   -2.75412970051681
C        -2.00494939293677    3.58842204136721    0.01549205331508
C        -2.56620155473521    3.42428907175007    1.28830374561300
C        -2.52958959741382    2.89273270786872   -1.11292675987410
C        -3.06833384211639    1.49901546760291    2.43449388180886
C        -3.59045292637270    2.47922792781718    1.51083891464377
C        -2.33847822932981   -0.82699312036463    2.58418025006683
C        -2.54329218706297   -2.11820085636017    2.09735140427065
C        -3.38958057566362    0.14615600990383    2.30690199789504
C        -2.97228502607867   -3.28841799398972    0.13597266204836
C        -2.83199329053690   -2.87966572117983   -1.20068939450665
C        -3.56194866132454   -2.42162306814328    1.10128661967485
C        -2.92842387766718   -0.90523381752537   -2.55957090290636
C        -3.16505397517048    0.50737338031703   -2.54611059463677
C        -3.59763597305483   -1.77075534064856   -1.66682857144793
C        -3.77553678562737    2.25790571529527   -0.93715135729416
C        -4.31784069666622    2.07026350819722    0.39390243860774
C        -4.11594895241297    1.06556199053068   -1.69458114011444
C        -4.42945775907026   -0.18378673208051    1.37510825601241
C        -4.40904852231798   -1.43882715278730    0.66270239120501
C        -4.53796145426732   -1.18523580702759   -0.76272734939905
C        -4.87507867546959    0.77559966602397    0.45013811364079
C        -4.84873689147842    0.18321593096597   -0.87148945698749
