72
C72 Isomer 1714 Symmetry C1
C         5.24941794768540   -0.79313570992691    0.93102052297039
C         4.71062558893857    0.28716689993320    1.74066627735750
C         4.68512095629092    1.42385744568603    0.94145208116387
C         5.24501871205246   -0.35649336775177   -0.45206323919056
C         4.97957115893621    1.00929318243274   -0.46095326677140
C         4.37186840585079   -1.20262815877012   -1.21952483813200
C         4.35091921626410   -1.85493269188121    1.01463263557309
C         3.93129923348382   -2.23198938754768   -0.31416023472210
C         3.46614868072069   -0.14016300034272    2.33401364505311
C         3.29726951819617   -1.51284344888947    1.93904054570138
C         2.32443694882722    0.69541656241390    2.37242771067830
C         3.55599725879131    2.25235099392821    0.92720824820398
C         2.41056075313414    1.98547057398392    1.73588214247253
C         3.98041793631834    1.56476326817620   -1.28563139678940
C         3.32053749697989    2.55127473452426   -0.46806078421606
C         3.41031921116706   -0.64629646558021   -2.11567995112431
C         3.16128408053243    0.77599877310771   -2.15486963197435
C         2.30874238170605   -1.47797947126811   -2.42825868933319
C         2.70592294084077   -2.86825381134555   -0.46299016055673
C         2.05099637807587   -2.67235474370702   -1.69921038528596
C         2.03243870486128   -2.06830225608658    1.78840284518372
C         1.84016964681948   -3.00031438322505    0.69965704395408
C         1.01466873975635    0.07097438652012    2.50551768290148
C         0.90129652083766   -1.33609373989498    2.29978931518109
C        -0.18430731437571    0.86629811543745    2.46360604388987
C         1.18981085555139    2.64509334023075    1.38220534393616
C        -0.06727085920143    2.19682118526794    1.93860748235134
C         2.11833521551886    3.03933790505340   -0.84381661428867
C         1.14836623499418    3.34699986376235    0.16053620010635
C         1.82984708984913    1.25564345058640   -2.49293880379146
C         1.41865973759403    2.49727721531801   -1.97751635094471
C         1.03993174177619   -0.99503054201202   -2.88350053271163
C         0.73385659598454    0.37228900000564   -2.86261809487604
C         0.67567809096975   -3.01305702483376   -1.87030276788627
C         0.03259419114164   -1.98929251254610   -2.62706375312163
C         0.55234550517459   -3.44924146527685    0.49476596581592
C        -0.02515147967708   -3.57704480299588   -0.82693816340396
C        -0.39322502583667   -1.92499958652337    2.18112873783950
C        -0.50606944371713   -3.07187041615617    1.36569258378267
C        -1.49686717854177    0.25594393463512    2.56400964624754
C        -1.57836997067061   -1.16918519562956    2.47967005577981
C        -2.70498156527737    1.02912534897097    2.29446242543481
C        -1.23664523409433    2.80589499451981    1.44867077410856
C        -2.54402094751323    2.26487394586057    1.64515191074355
C        -0.07322873042782    3.48734975324751   -0.54562963109519
C         0.05267058752692    2.84079257268708   -1.82238039108482
C        -1.24097239408261    3.40728510346581    0.15909914829145
C        -0.66571012412657    0.73371348254322   -2.75682888487951
C        -1.01277084305069    2.03466571790044   -2.27118527757874
C        -1.31723974516447   -1.68163606531244   -2.46277087719808
C        -1.68696821271075   -0.30245071199570   -2.68677047987134
C        -1.42844690511335   -3.38286972417311   -0.73955735458079
C        -1.73207316963241   -3.32341969108715    0.66588180931449
C        -2.13387994729935   -2.50987239086858   -1.59426765860043
C        -2.83260764855118   -1.77764379454711    2.15898445361896
C        -2.88672994119682   -2.76877749554782    1.10029600617668
C        -3.96851297886494    0.38275041098921    2.05603953250957
C        -4.00303292693146   -1.04199968182618    2.03856049710387
C        -4.85825735512532    0.82334217872710    1.04694820567175
C        -3.35590389488759    2.61601686245174    0.50221327404713
C        -2.44553323343705    3.03439357771727   -0.51524467611949
C        -2.32404989978509    2.31124309234599   -1.72555169991409
C        -4.45901574820560    1.84344380134607    0.15263148798846
C        -3.00808948403751    0.03412914694415   -2.39167348502483
C        -3.35831933559251    1.37744311226579   -1.98647246752032
C        -4.49006577615620    1.30463484089847   -1.17175735140793
C        -3.45015462926111   -2.07974822485856   -1.17966422537090
C        -3.89897419281434   -2.38389353878366    0.14518743099753
C        -4.73743192941099   -1.49187375125877    0.85459700262349
C        -5.25009370101792   -0.35296571364582    0.24185555187143
C        -3.94386878819858   -0.88161029124429   -1.76793724086087
C        -4.90830370916063   -0.09210551654430   -1.08972290641763
