66
C66 Isomer 4112 Symmetry C1
C         4.11364273698079    0.35920607354846    1.39430327794755
C         4.45833286051660   -0.39772494388690    0.28799862655420
C         4.31203700498407    0.46820713902164   -0.89450824404936
C         3.87172887852996    1.73461723786605    0.96423525698096
C         3.93211400497333    1.76806601566230   -0.45733476204108
C         2.74147266342689    2.20615916233103    1.64087746531536
C         3.04948975215256   -0.04257309756102    2.24724422337870
C         2.28274638243053    1.14498918733181    2.51750465764577
C         2.40929537717735   -1.29359116739499    2.08247480798166
C         3.82192718134825   -1.62697128350095    0.05122508639409
C         2.88415547530802   -2.14739443804685    1.00644656266002
C         3.56373435114191   -0.23969601157636   -1.83691572486421
C         3.46419152149468   -1.60252601324467   -1.35537562866319
C         2.43950558195271    0.35678095575677   -2.50762801145376
C         2.89337702291444    2.39780404826544   -1.15377283145762
C         2.22149939040625    1.70915581203158   -2.21876457918757
C         1.78222617283499    3.01666250913299    0.96449130542372
C         1.89682347060757    3.13695761311307   -0.44208348872880
C         0.47886261982806    3.03246348616140    1.52281297268026
C         0.95945430125233    1.06284010127384    2.92068361305580
C         0.11717712740587    2.15974909785136    2.55937082231147
C         1.04612140126279   -1.40968349888385    2.58200374627749
C         0.37935392919071   -0.24775228985689    3.11022934950630
C         0.22286934719428   -2.49847831143139    2.10518285214089
C         1.98996527049035   -3.10504167025800    0.47612215175173
C         0.66285849340519   -3.27076706312687    1.01766045740542
C         2.45406802575274   -2.39622936620581   -1.82143845245261
C         1.90960682594424   -3.33646611781389   -0.91161751547714
C         1.28591291032724   -0.47113281815193   -2.87076401657916
C         1.36080298442214   -1.83987717840008   -2.60646241650319
C        -0.03954079642352    0.09948679656120   -3.05162188326232
C         0.88778645523150    2.24533580389296   -2.30284981212069
C         0.69933854087998    3.15352018002541   -1.23992978213039
C        -0.18883023429516    1.50972034345805   -2.84214479586551
C        -0.71077720721166    3.31631074031994    0.73569148968934
C        -0.58985260239894    3.35302251136466   -0.67139628488307
C        -1.31349013882859    2.01359130959445    2.50081122484429
C        -1.83138317423656    2.71316966387743    1.34619731378120
C        -1.02856782556497   -0.27262761874692    3.29498310443075
C        -1.89138532668114    0.86303935766424    2.93258457913317
C        -1.19351952859486   -2.45647062840066    2.24511579275258
C        -1.76816071633954   -1.40642296304562    2.99456806820901
C        -2.09566751465863   -2.75945628795910    1.17400708265076
C        -0.23955641684019   -3.56426581297124   -0.05360044844597
C         0.52405416358007   -3.49917900842812   -1.24082189903830
C         0.17635768736453   -2.58118131798035   -2.24593169959364
C        -1.57264276912074   -3.10900055503046   -0.08627043289143
C        -1.22081591735749   -0.73175648467549   -2.92889291846998
C        -1.11612787381016   -2.02049080174589   -2.28494818043318
C        -2.06215456374255   -2.44945915865330   -1.28109231222131
C        -2.49593026976170   -0.11349708029498   -2.88295629577142
C        -1.47185876244240    2.06540227814512   -2.57346264530447
C        -1.69091209541146    2.91287255705940   -1.40939208225230
C        -2.60823732282749    1.29827098057311   -2.76914906945050
C        -2.94988638691128    2.21838789995869    0.61514617617802
C        -2.91040534669291    2.50242056675774   -0.77927848347324
C        -3.55120404872616    1.61761144626114   -1.69664199197901
C        -3.08382065584928    0.37983904852340    2.26924380766775
C        -3.02824367239431   -1.01576564998327    2.38526376003950
C        -3.22986956324496   -1.86742617342370    1.27893408658091
C        -3.59633782217714    0.99592014557433    1.08199685910142
C        -3.25534320586075   -1.69493968206419   -1.15691317894369
C        -3.50880456375323   -0.65161992853495   -2.03914768260398
C        -4.11109392083384    0.44167926767770   -1.26533283695489
C        -3.78911651800254   -1.31439704405137    0.14699290644245
C        -4.12535315171876    0.08660212869335    0.11503690063449
