70
C70 Isomer 976 Symmetry C1
C         5.22765342816892   -0.53866935893337    0.92920900271895
C         5.23166778551360    0.31047365662401   -0.24961851309949
C         4.80114065534716    1.56681733199255    0.16388115002161
C         4.58010644561323    0.18182056759929    2.03058675369175
C         4.37144114299630    1.48107934268443    1.58331492428757
C         3.45152572250375   -0.57004361483919    2.47776880186217
C         4.44565265274957   -1.64923841464696    0.65137223586954
C         3.43694935434224   -1.77878401754765    1.68380040373448
C         4.49353158156358   -0.36712462122950   -1.29231634704210
C         4.02080036868767   -1.62060989630226   -0.73900759696590
C         3.58300932224219    0.35523755887355   -2.05847323287668
C         3.78847372943867    2.26635431789723   -0.53860774477644
C         3.27375091543967    1.72536977365822   -1.72614969236750
C         3.10400346616419    2.08917802147713    1.70322948268849
C         2.82752695628171    2.73048456010547    0.42916354668985
C         2.20511231473385    0.05113012450585    2.72433871246221
C         2.03999149457312    1.43600229366227    2.38410865467028
C         1.01709422797881   -0.76844290489241    2.71773855078304
C         2.25500904501980   -2.40210682210363    1.38105834556780
C         1.07376898197098   -2.06451982903355    2.14412332324571
C         2.77570406026462   -2.13943811106856   -1.05652302100440
C         2.05915563754361   -2.83310249597127    0.00611158097716
C         2.34946924073769   -0.24493783190969   -2.49576055813261
C         1.94665924693524   -1.50909672075828   -2.06810521351332
C         1.90604545846467    1.94983432384537   -2.05932537768603
C         1.33213755270199    0.76106164576682   -2.62617607011666
C         1.52316017078596    3.00086252273406    0.07891699917524
C         1.06437573526613    2.71775709945104   -1.25694533847326
C         0.71346969844699    1.95397144025305    2.18451148063055
C         0.55072617288731    2.90643508552325    1.13806997042278
C        -0.27357484480514   -0.14789716101139    2.90502712342994
C        -0.45324404611182    1.26143582973447    2.64214452675775
C        -1.40617371309344   -0.96503229179240    2.86487618892429
C        -0.11632335992484   -2.80696139310467    1.87805348765944
C        -1.33696637301526   -2.30838706019678    2.36374443087870
C         0.85587885073835   -3.37959199133363   -0.31275946903011
C        -0.16074799881592   -3.61299736389202    0.70100157377810
C         0.55719991727840   -1.85336640641758   -2.21340215949891
C         0.17530415623932   -3.04094834872709   -1.54873436367324
C        -0.04225556105231    0.49037891506305   -2.58574548653248
C        -0.46635863919494   -0.88472114293502   -2.50599943047490
C        -0.33630449920682    2.65101152422984   -1.51838675648185
C        -0.94053989500479    1.55726164741474   -2.20577169598018
C        -0.72135743540248    3.31850523232666    0.81047653714861
C        -1.12078494243477    3.38019457414603   -0.59263284764967
C        -1.77545819360260    1.79260537620721    2.39198807673354
C        -1.84876768804385    2.95956731557943    1.58656138844031
C        -2.72446682468787   -0.44666746358825    2.62103021269121
C        -2.95781294342443    0.93265235992576    2.41551726116962
C        -2.59015470581473   -2.59410151543086    1.73025897214096
C        -3.45168650879540   -1.46910157478013    1.93042963055636
C        -1.36864726782999   -3.78072465573573    0.02831930100314
C        -1.16466908333078   -3.33011995004242   -1.35645540099336
C        -2.58449242506170   -3.24498213303765    0.48855511362518
C        -1.85619524752811   -1.15300554882184   -2.22779371991672
C        -2.18605198939551   -2.42704551101321   -1.68789494425349
C        -3.18381499889651   -2.56097203796195   -0.64524980072065
C        -2.35942028323560    1.31206674777137   -2.07265901485871
C        -2.81125922651053   -0.07214186571314   -2.03595962078865
C        -2.48973537285580    3.30895338397323   -0.64858629830295
C        -2.98276691137410    3.20680814663482    0.74073127634643
C        -3.14674653663265    2.31582110834929   -1.43196707506474
C        -4.11332267198699    1.25692906495713    1.62238692903822
C        -4.07763328044508    2.40390488461793    0.75023585332544
C        -4.29327326040327    1.95484823429126   -0.64868884271619
C        -4.34620961698360   -1.09345256791209    0.91759963331681
C        -4.04970321352206   -1.53238042420182   -0.44318299711600
C        -3.99208720261784   -0.37288028359408   -1.30242905614418
C        -4.72778922600303    0.24173147179102    0.85138638423406
C        -4.66669950257471    0.64604784681326   -0.57032013444594
