78
C78 Isomer 6917 Symmetry C1
C         4.76824634617571    1.43568376802171   -1.75267059002919
C         5.10651206615879    0.51023088894270   -0.73505402247292
C         4.56021673363255    0.97152842873647    0.51311343121962
C         3.98059908986316    2.46013957384858   -1.19006067835501
C         3.84149268172253    2.18543554132647    0.22068155357030
C         2.78388348897080    2.55184388809887   -1.96022632585443
C         3.95608651205931    0.73321626037172   -2.73073309940977
C         2.75790410534173    1.46259288944298   -2.91095870894508
C         4.73997593454821   -0.79256315120095   -1.20600503107958
C         3.89338855073267   -0.63780158938481   -2.39683083657608
C         4.39987692735624   -1.71443687613535   -0.26586504300060
C         4.04692842346283    0.05710088614413    1.45099271716537
C         4.24005809528104   -1.32634280778678    1.12444804766114
C         2.89869738473584    0.42528014770943    2.25913908161181
C         2.64033321893512    2.46753301527475    0.87110888709293
C         2.23293991011627    1.67184666535402    2.00559326084749
C         1.60475450080829    2.95904465881493   -1.34937595696104
C         1.61046540651360    3.13064076163356    0.08238722624284
C         0.37311611825612    2.64850482717830   -2.01949825889589
C         1.55190875025325    0.78833187498233   -3.13643299546423
C         0.34432591107834    1.52957873729111   -2.90535419449214
C         2.66702209871992   -1.33825372591076   -2.49892026717392
C         1.52216503655355   -0.64572809060939   -3.04226830626476
C         3.37458625773347   -2.70093681228214   -0.57654889067679
C         2.43963793913483   -2.46169146615329   -1.60778931021249
C         3.40808957255961   -2.29644786826478    1.68629358970494
C         2.92601144689812   -3.19568575612992    0.65109375995120
C         2.12706399547461   -0.62985759240399    2.89419294814222
C         2.33622889769802   -1.99202812657357    2.53656356005579
C         0.83513573419647   -0.37069177249838    3.35237046391901
C         0.91844126796185    1.93194222735141    2.57051497736468
C         0.26543840043890    0.92826318333168    3.31294127146212
C         0.39165820063483    3.38113093303468    0.67551724724745
C         0.06252970520179    2.88034601249093    1.97124421407419
C        -0.84388888709263    3.10032347043960   -1.42519601692867
C        -0.81683335033838    3.51560479851991   -0.07732333943347
C        -2.06556606711555    2.61670247677757   -1.91567493787481
C        -0.89318517473295    0.89699818902195   -3.22151937423162
C        -2.08295346227040    1.56345711550199   -2.87085450236863
C         0.25352051933037   -1.28893509403555   -3.06448576928496
C        -0.92380888443899   -0.53091891617069   -3.41126511209373
C         1.10751061225347   -2.94718234863731   -1.41475545510946
C         0.10555332773098   -2.52258922487514   -2.34114288221477
C         1.57998932474919   -3.46722881617741    0.91182858021528
C         1.22397538595531   -2.82621244600704    2.15558665060543
C         0.65956389652292   -3.44255793323794   -0.13863904902547
C        -0.24024796590124   -1.31023567318516    3.21833696170707
C        -0.09972877349112   -2.45694104859002    2.41199120615103
C        -1.15253638205299    0.79403922363267    3.33049763444855
C        -1.45958264004027   -0.60718186292985    3.22731537542035
C        -1.36000046787711    2.80726234225716    2.03994535801165
C        -1.90983774769864    3.25020251829841    0.78754887493751
C        -1.99598323769427    1.75200183963164    2.73516150150703
C        -3.24444629992582    2.53095956858931   -1.10067228078653
C        -3.15027409756950    2.77083936175117    0.30014731999053
C        -3.33716889648073    0.88434954833897   -2.73408788191041
C        -4.06115810586742    1.48276846333172   -1.63844974978443
C        -2.18918217117824   -1.16384460397694   -3.35104786422930
C        -3.39621003354991   -0.46824631789712   -2.98299914257210
C        -1.18236690292438   -3.03254880725108   -2.13354532925472
C        -2.28015005167012   -2.45624225530136   -2.78268139933275
C        -0.73676112682345   -3.36830198811302    0.23973684242583
C        -1.16183495814360   -2.82103366173845    1.50653048080821
C        -1.63119663603616   -3.39554315454101   -0.81087182280798
C        -2.58812074090319   -1.08216555678578    2.53500590425294
C        -2.45214109085655   -2.20637013193974    1.62076926370239
C        -3.25669987687619    1.30666451167026    2.29143748070401
C        -3.90355467244626    1.91733896169076    1.15866299909250
C        -3.58556414903540   -0.10095242064781    2.29764613859317
C        -4.79901719774309    0.66700865201009   -0.77947611491268
C        -4.75732344936512    0.94703174760660    0.59815069787460
C        -4.53530006927747   -0.30556418878478    1.29091795612431
C        -4.15882957126254   -1.32058886338470   -2.06878175552690
C        -3.42961789108727   -2.52198682399110   -1.92247587157372
C        -2.99237825885355   -2.97905915205402   -0.65669194488416
C        -3.40648861818339   -2.33492332318158    0.53457958309719
C        -4.73976296087590   -0.78486867102539   -0.93771477634872
C        -4.43213090807084   -1.35607903865646    0.36195184135121
