80
C80 Isomer 9676 Symmetry C1
C         5.10380892724397    1.13657379527817   -0.30130955360633
C         4.68366588278253    1.34090967300142    1.07292600337329
C         4.20388127569446    0.11484522982368    1.56455797515820
C         4.84278953697949   -0.21165965397525   -0.66779449801230
C         4.34253326679491   -0.86510501827094    0.48120649046993
C         4.01443367737325   -0.21185047824319   -1.84766387101983
C         4.31489673977090    1.96965406083786   -1.11611290676980
C         3.67301461274694    1.15556683732006   -2.11718341856931
C         3.82593201437435    2.48430809746675    1.08612815972683
C         3.53309459115225    2.84451693682275   -0.29088798258623
C         2.77588023773702    2.47810168827184    1.97735360175152
C         3.04494378521956    0.05699233136271    2.39141591920248
C         2.45379815472071    1.29309745008827    2.71967725706708
C         2.21041376462650   -1.12054193702908    2.39514867600201
C         3.41942292081909   -1.89702061466938    0.34616982262609
C         2.53958739720336   -2.18510952238674    1.46949989373886
C         3.06475105592970   -1.21246424557469   -2.02182859361601
C         2.98797162151900   -2.23246693147946   -0.99439503222553
C         1.89497957129135   -0.92892167330178   -2.81839930985981
C         2.39463447605021    1.48020771051245   -2.55362941056278
C         1.56354096379460    0.42837153064862   -3.09619317402394
C         2.23457589745782    3.17806682545395   -0.68930147866974
C         1.76858325387215    2.64694725017199   -1.95521905224192
C         1.53863585299382    3.11553973170735    1.63600647331115
C         1.22995710480268    3.47622463573493    0.32002578925803
C         1.06802565777089    1.36273922882045    3.04074080177420
C         0.51584727786341    2.53463659857056    2.43829458429406
C         0.88601182625470   -1.05987436213672    2.93398600457907
C         0.28892937448627    0.22137206091862    3.23622387249986
C        -0.02924495942034   -2.14552164783014    2.69245063990276
C         1.64135297573286   -3.23681648330065    1.29134627273533
C         0.33684580063383   -3.21546476383969    1.87195730016026
C         2.00591624695937   -3.20964766393849   -1.12649004979051
C         1.51469807565654   -3.85862630364469    0.01554114239157
C         0.85796083862029   -1.94002144395980   -2.88535886338195
C         0.92695774328676   -3.08948131007033   -2.08402860381168
C        -0.43394154971165   -1.58193119447598   -3.29478014486087
C         0.21843706498404    0.77486563643751   -3.49858895829968
C        -0.74735930027285   -0.24496926826621   -3.66689528495179
C         0.45064265862406    2.88606627571474   -2.27743726420972
C        -0.28406927367003    2.04493915972404   -3.17060764947290
C        -0.16657960142225    3.58530148854518   -0.01169327271973
C        -0.48917174472232    3.48254574590742   -1.36836972676989
C        -0.84051732709715    2.64154555541709    2.13997276037452
C        -1.22631829559937    3.29877384864474    0.92795149915858
C        -1.13307250691430    0.43833929248249    3.26762173829975
C        -1.69452886222876    1.68646068935516    2.79278137233385
C        -1.41626229015829   -1.93323779748398    2.80169032149767
C        -1.96371806724469   -0.69240788249784    3.22315611946881
C        -2.34933153896803   -2.50719008976652    1.88029772023823
C        -0.60439710127865   -3.76387292067079    0.91699904375306
C         0.13281136823980   -4.14322713715432   -0.20914388885445
C        -0.24920659198206   -3.64746258945202   -1.48557125898586
C        -1.91273144254444   -3.23788395768070    0.77117687072306
C        -1.60397493653534   -2.15593010291463   -2.71493543930520
C        -1.53319011195149   -3.06730787786540   -1.64955915279546
C        -2.44340771949269   -2.89666439428009   -0.53278545714368
C        -2.12836543098068   -0.03106934565501   -3.43932641413702
C        -2.65409197938870   -1.20772769765116   -2.79454994185834
C        -1.67170421739303    2.27135180902886   -2.92665572212586
C        -1.79457015847248    3.15908089409885   -1.81081341380238
C        -2.62321613652593    1.24335981174946   -3.09952832360293
C        -2.58954418572856    3.19360909283102    0.48850617548559
C        -2.89377525905399    3.11902519345053   -0.92898427256428
C        -3.04970280640751    1.77222561077108    2.47693360776825
C        -3.50744120945069    2.59442665055214    1.39532964110101
C        -3.31094359263978   -0.62607218755058    2.76442247010546
C        -3.50220182254335   -1.67894147259105    1.81065764953328
C        -3.90723572232251    0.60443523679122    2.55080122511396
C        -3.53386298043497   -1.96490211455948   -0.62444272068445
C        -3.65799465557544   -1.15328284921618   -1.82470464525651
C        -4.17369071983670   -1.46731824862988    0.58550896792911
C        -3.79195515971886    1.30130281567544   -2.32800730107353
C        -3.99915627087754    2.34482664796344   -1.37998496226733
C        -4.38570445212832    0.08122173285715   -1.78648452467428
C        -4.70868671654851    1.99529837017599    0.91107079896172
C        -4.88912817200402    0.69164235512934    1.55864276305184
C        -4.99665590123496   -0.29498927052389    0.54667867347161
C        -4.94060657277145    1.84199643262939   -0.43693099456559
C        -5.15090614881079    0.42167043379206   -0.68427956466254
