78
C78 Isomer 10698 Symmetry C1
C         5.16005008318346   -0.84859091453061   -0.95238779931554
C         4.88950830990780    0.39137986201755   -1.46250146066902
C         4.91724454341820    1.37413801287236   -0.36633386788909
C         5.30534658613483   -0.65780510469360    0.51737759757280
C         4.93331521543527    0.68372787767520    0.86806638402658
C         4.67657592137935   -1.69830621778733    1.12133713415720
C         4.26241800936981   -1.93320941786308   -1.19156338048676
C         4.19764853609793   -2.61235289968967    0.07567262778876
C         3.06611614495987   -1.73039901433574   -1.94336090541321
C         3.72084891940307    0.63714135871917   -2.23745504260482
C         2.79656826464795   -0.41114797866956   -2.48489508859189
C         3.95953201227041    2.34285241429137   -0.66272882489300
C         3.23489077552875    1.92926903161679   -1.85894735666002
C         3.22643095978800    2.84025492005010    0.40529656283237
C         3.87385597833432    0.90537127239635    1.82289710952075
C         3.15124037712852    2.09722954753872    1.62996058320666
C         3.60099589456496   -1.50410372399730    2.07016674338525
C         3.12001639239700   -0.20620946714765    2.39599437410384
C         3.01101222899728   -3.12756424552804    0.51349424537281
C         2.67959595357795   -2.53016936923026    1.81206551814309
C         1.92485423938716   -2.57420754114990   -1.63922106157850
C         1.96805251116851   -3.33238502445146   -0.42610122671448
C         0.63698885015521   -2.32116456366201   -2.21492602212875
C         1.44827513713638   -0.02270717773239   -2.79601241907578
C         0.43243800978751   -1.05256997121456   -2.87238792763231
C         1.90987189343881    2.28961851141531   -2.04230480897628
C         1.03806684676678    1.34443003300606   -2.69475331093557
C         1.95630540302124    3.41690788964605    0.14007276356161
C         1.34117167452820    3.25368166450727   -1.12262472640745
C         1.82673155859502    2.27438186092232    2.13260602736392
C         1.16452503820885    3.24929825498576    1.30650191228098
C         1.70827757514368   -0.07443526185145    2.73482332682081
C         1.07779985701080    1.22243395366204    2.67551089509639
C         1.34710211307115   -2.44141966584329    2.21098011463622
C         0.82447251790774   -1.21653510645850    2.73297023373566
C         0.77777684703866   -3.71497606712685    0.17328576159010
C         0.48128647088686   -3.33084900523998    1.54955971794999
C        -0.53131253414870   -3.04482202770792   -1.76627043151981
C        -0.41592951780800   -3.75023583271589   -0.54609352536090
C        -1.87714062829663   -2.65508654225884   -2.13119449003717
C        -0.87566897240962   -0.67195618709498   -3.17297691407118
C        -2.02708433441998   -1.47392826914066   -2.87540394338019
C        -0.35274859566946    1.69047240028104   -2.79250951782809
C        -1.28079707486871    0.69651797522519   -3.12756932792550
C        -0.03815683951010    3.47086141040202   -1.14234657842489
C        -0.88922418347555    2.78879905948200   -2.08647427856510
C        -0.21458326583849    3.36494099481960    1.28011837438119
C        -0.78563565580929    3.71221945077337    0.02830457355161
C        -0.35900102820106    1.38431782954194    2.76458775784362
C        -0.97074630312108    2.56052842048178    2.19948287013300
C        -0.61153078819171   -1.08695820936920    2.82346582564868
C        -1.17627603924869    0.22820638016105    3.00306670256979
C        -0.89331231542740   -3.22215576617878    1.67904377101195
C        -1.46820180947820   -3.70430562516487    0.43582534619594
C        -1.48751695996356   -2.14105688122947    2.37416505325120
C        -2.98481185753050   -2.99148858239297   -1.28803469886995
C        -2.73157657648328   -3.39928603773177    0.08454903460075
C        -4.11444225826555   -2.17341941325721   -1.21029094998102
C        -3.13698314004541   -0.58719905928225   -2.68854839023042
C        -2.65156290579100    0.75967672436242   -2.74360935287028
C        -4.17366709030302   -0.90392250815541   -1.82110755509712
C        -2.21371297313760    2.78763617214645   -1.58788595885102
C        -2.14900385529861    3.38621632334372   -0.27228269141933
C        -3.13200687373317    1.74758855744525   -1.85654988570267
C        -2.36580403663082    2.60022331909030    2.01605674108256
C        -2.96755813724252    2.96015651329560    0.72961341357846
C        -2.58277450109874    0.35504582236014    2.93294800348535
C        -3.14834154146272    1.57829532357795    2.53177070088701
C        -2.89664515193491   -1.92702069273039    2.08925993280447
C        -3.53611709430709   -2.62485840939476    1.00161616040273
C        -4.48426498570010   -1.98936681694469    0.19527041094332
C        -3.44656638635623   -0.69276957820124    2.43003990930997
C        -4.63775479424412    0.07489675287182   -0.84617221688312
C        -4.11987784471996    1.38429498659500   -0.84265949804742
C        -4.03789027246065    2.03168968221948    0.43730132454497
C        -4.24856262395225    1.30261925123639    1.61696694699259
C        -4.85092929655865   -0.64690569226721    0.38983265129897
C        -4.47648660663420   -0.07746994561319    1.61556029737370
