74
C74 Isomer 13730 Symmetry C1
C         2.90650798428001   -3.35471059048635    0.21373306226797
C         2.06278162882155   -3.26590560260897    1.35878712045592
C         2.44552339343351   -2.07403840737096    2.06263543179200
C         3.84231898198325   -2.30473439892906    0.24221507602884
C         3.54780060047522   -1.47254115847006    1.36991088120174
C         3.86831544315669   -1.72036444232525   -1.06132294131234
C         2.30938985671021   -3.39740342672872   -1.09182326518287
C         2.80321412542771   -2.28741468466117   -1.86394362217439
C         0.98793450227416   -3.75501502728399   -1.18572540699271
C         0.71152760759225   -3.65693895169321    1.26119911104027
C         0.18797054558452   -4.02410083731665   -0.00868763094441
C        -0.18883634559026   -3.00464836962703    2.13256679203500
C         1.48895444574034   -1.25578864226297    2.68634737236510
C         0.20614249321898   -1.83023355704099    2.83719631942127
C         1.61628160480467    0.18518440662169    2.66892472157805
C         3.67914558580839   -0.07964266073065    1.29526030673683
C         2.74525931160889    0.78289283874448    2.01044165692537
C         4.13833671713315   -0.39249759270110   -1.14352843084326
C         4.26771550602024    0.40025223217993    0.07508064591666
C         3.44600167080396    0.41198337695743   -2.12356209734752
C         1.92477286479881   -1.44795783260622   -2.58591508166519
C         2.22926883447828   -0.02727613541578   -2.69908826432720
C         0.16276009411307   -3.09442459686096   -2.14695682608777
C         0.56232158071141   -1.89386838532681   -2.76591114359021
C        -1.16265486394785   -3.76079622039049   -0.34078308063368
C        -1.18048858543456   -3.29413892180306   -1.70112658673294
C        -1.58802093375770   -2.91548064652203    1.84661998318069
C        -2.11305079219761   -3.23090795960975    0.57752801499582
C        -0.96357722404641   -1.03583939338969    3.06587266084439
C        -2.08281972173539   -1.77834152867581    2.56547006906194
C         0.40841641841426    0.95973870083815    2.91493104280160
C        -0.91391482011830    0.35284519144054    3.02446193656697
C         0.42195095219211    2.32054971972050    2.65439335243588
C         2.69002219135324    2.18562784686956    1.65345255273437
C         1.56801045400953    2.94278081224889    2.05827092738414
C         4.06618561916617    1.71317949621226   -0.31220620078385
C         3.58721994932287    1.73633904718734   -1.68713035591758
C         3.31297260977094    2.63289944669572    0.44728665337017
C         2.56180965618080    2.67031046853913   -1.77069341927795
C         2.56568812184169    3.40325282513563   -0.50968664438250
C         1.17875624360952    0.95016479428461   -2.87409616859121
C         1.34426388522285    2.30937684026304   -2.39184839940357
C        -0.46672897447546   -0.94293955729934   -3.12179312403827
C        -0.15677160605902    0.47436634626880   -3.15653659819689
C        -2.16701050637972   -2.46005503558129   -2.13882815446385
C        -1.81182433062950   -1.32712352992997   -2.94587506474491
C        -3.25113307292047   -2.47238889062452    0.07392692855794
C        -3.29356959345018   -2.13849956272682   -1.30405405436347
C        -3.21949135652538   -1.13501000675396    2.16756508963064
C        -3.88593121873787   -1.54390485020537    0.95008102220241
C        -2.11792768182720    1.05510572896512    2.60405046013575
C        -3.26314827719610    0.29999289902728    2.28312522606539
C        -0.77939474645692    3.01038403530969    2.19191556075811
C        -2.00389554528691    2.34781471959427    1.98758352512264
C         1.08038381676860    3.99812216511898    1.25264993839824
C         1.43492703839629    4.07197299041592   -0.10875469082460
C        -0.36256238143824    4.00918247357591    1.31543188072857
C         0.19500025131525    3.10543771227044   -2.00827984435216
C         0.23125087162088    3.99116033468284   -0.90683528263484
C        -0.88172041021273    4.04457191069343   -0.00651760477961
C        -1.23128807009285    1.37423057632311   -3.03469282757093
C        -1.07605604318969    2.63006728625719   -2.35728481950680
C        -2.87678371651109   -0.38919048942751   -2.76774691920494
C        -3.80528747652689   -0.89038750687247   -1.78287579419356
C        -2.58014249063533    0.95356127422361   -2.82314193459704
C        -4.51262923471628   -0.38970616910539    0.44814173704840
C        -4.14117300630066    0.74898194681399    1.27117863991798
C        -4.42015214893318    0.00285051935562   -0.90242716131574
C        -2.77139546170384    2.69610982111972    0.81119153861847
C        -2.10095664612439    3.39133570812063   -0.26425054498734
C        -2.23661823626913    2.87949154839139   -1.57616852424622
C        -3.19661185357690    1.86652026143814   -1.89032896525721
C        -3.83358260075050    1.83679103847139    0.45054085061013
C        -4.05795348440974    1.40778622898798   -0.92254061346614
