78
C78 Isomer 19581 Symmetry C1
C         4.69791619807770   -1.22930637016470    0.39299560258767
C         4.26405149360985   -2.29697182757320   -0.34056909539839
C         3.99122327793113   -1.83071269305269   -1.70688061910995
C         4.78037521468945   -0.08178031682406   -0.51287210974409
C         4.17743979354829   -0.42643973730663   -1.77009091025710
C         4.29628406029633    1.00485415084876    0.17518906727636
C         3.99189994350378   -0.82185005475207    1.58297180051352
C         3.88328864157452    0.58252180988812    1.51365982690874
C         2.91999223940301   -1.59007493846752    2.10540122114701
C         3.16363155986341   -3.07723882395009    0.11281054112017
C         2.58027759413238   -2.80049370843239    1.38092475845702
C         2.78703486064650   -2.40443270246568   -2.08452639152579
C         2.31935866456621   -3.27268300879448   -1.02120925716290
C         1.85040927609070   -1.66849160789949   -2.83304217406080
C         3.16451927194405    0.39177532782166   -2.33906753258460
C         2.06547104279155   -0.25950386305300   -3.01301651787151
C         3.57332455713880    2.01192491215506   -0.51637056971283
C         2.96724509151972    1.72220301958206   -1.78769803868230
C         2.99945766092525    2.94960871547317    0.36160710108699
C         2.86649394535091    1.27190520090718    2.18661940770679
C         2.59387722701011    2.56239644735033    1.71015137404834
C         1.89226974031961   -0.89894948776074    2.86166172230014
C         1.86830023695111    0.53498290220352    2.91794204103155
C         0.66971047936374   -1.61605332367078    3.17796422724772
C         1.27438621746202   -3.30878406315573    1.51904543350682
C         0.37520292355774   -2.81565523556783    2.49204498977820
C         0.95225409077310   -3.56711049783248   -0.89725949828455
C         0.50696042888516   -3.77657774238995    0.41401031825056
C         0.53636474275795   -2.25306109962331   -2.92471106406075
C         0.02809901179818   -3.15652772299544   -1.92134404680558
C        -0.36588272870058   -1.53979698962634   -3.71513408202888
C         0.95432410871725    0.53954880089159   -3.47047806231032
C        -0.16604193797228   -0.13122705512230   -3.97237864852578
C         1.82227012881258    2.50213500793125   -2.18682179967223
C         0.81653182079123    1.91735655515954   -3.04322116685317
C         2.05791255931056    3.84318693057791   -0.13555798188235
C         1.43913314282475    3.60456626084778   -1.37884521003277
C         1.33858097114096    3.17671228490149    1.96124690616374
C         1.03268065201803    4.02333369176851    0.87218132753233
C         0.64938005349954    1.23737629777871    3.25334271379852
C         0.30293456021486    2.49399060670098    2.62174419032587
C        -0.43456559050223   -0.92833586616571    3.69999641923294
C        -0.41321143674223    0.49130749562820    3.77907915229472
C        -1.80588313665315   -1.34020154076508    3.42604848372329
C        -0.96416689971635   -3.12834549238373    2.06341576375542
C        -0.87764595169226   -3.64864655892896    0.74737250691203
C        -2.07289892044046   -2.37389279348141    2.48410545171256
C        -1.37796162732066   -3.18790579255748   -1.61958825859512
C        -1.82965697650780   -3.36603015089240   -0.24524140348013
C        -1.74078715428136   -1.78557438339352   -3.58008615002123
C        -2.25372642067294   -2.50563147207146   -2.49223621120641
C        -1.48002834077101    0.46598453210398   -3.96773856491064
C        -2.44169067343594   -0.52754157898174   -3.70187541739870
C        -0.48728031047394    2.45394491231929   -3.01240062571663
C        -1.64382717580739    1.68528894738443   -3.33572552572705
C         0.04135170531123    3.90637821436184   -1.15958903420264
C        -0.22183903656243    4.00666832119011    0.25274878759907
C        -0.89510689938626    3.31526174935059   -1.94550669619513
C        -1.04256057334131    2.72976480076994    2.14143397904902
C        -1.29960732727743    3.31529826787962    0.85427566627490
C        -1.74873518244389    0.94754739950121    3.61943175820156
C        -2.60202190102917   -0.19163850586578    3.42764188728864
C        -2.06127338698896    1.90284309339638    2.64999038605449
C        -3.48716897035679    0.10290477553914    2.34674727571079
C        -3.15217117269709    1.40433536495979    1.83341630617445
C        -3.10471592288308   -2.18053453672620    1.53352399822396
C        -2.98992088277759   -2.68789614909253    0.20953001772407
C        -3.78655597427373   -0.90375135550570    1.45038397227871
C        -3.35564969575895   -1.71050309563260   -1.98575483034292
C        -3.36015562165414   -0.42097312184137   -2.64179670625819
C        -3.67138006403748   -1.76867965350165   -0.66263959671451
C        -4.00050022846586   -0.57852361407168    0.08034164358375
C        -2.63362908337164    1.84841322159007   -2.30533665419071
C        -2.13158673925697    2.83152923139312   -1.39164888682279
C        -2.32429771743464    2.74968081214523   -0.00598147670569
C        -3.20990551594386    1.70216068156720    0.46819035424649
C        -3.42982348720738    0.77243957861630   -1.86389480289343
C        -3.72735852428397    0.69819820985587   -0.44705276288035
