74
C74 Isomer 4613 Symmetry C2
C         4.69615277830708   -1.86530166990385    1.43207438868911
C         4.78987443500227   -1.89341255180804    0.01837638860884
C         3.59535324671094   -2.47896729321711   -0.50808072175663
C         3.41735858227280   -2.38094321362672    1.80266054023536
C         2.77239850129051   -2.86535708196047    0.61949783943842
C         2.72983478285124   -1.35549536868223    2.49321740497762
C         4.76597814550279   -0.47861199745594    1.81368963194797
C         3.54456988203144   -0.14364638622965    2.44313741782069
C         5.26088808124352   -0.61646883926343   -0.44833980292593
C         5.24921322903960    0.28533426382636    0.70087252886155
C         4.76537448742274   -0.17596245832835   -1.67334272153781
C         2.95779083835917   -1.90716430290278   -1.64110268417455
C         3.60056423932398   -0.81082270147513   -2.26104583711590
C         1.52859242534818   -2.04918782578355   -1.78372397661887
C         1.38747430644721   -2.82543320478766    0.53723749901335
C         0.77696402147082   -2.68763027267886   -0.75323707131668
C         1.33715003373933   -1.29129305721396    2.42192242127633
C         0.63484061240271   -2.24208786170817    1.61873181533618
C         0.68127062726113   -0.02868909356570    2.57760180320062
C         2.88691100525178    1.08049490982695    2.14837412539384
C         1.44685286051948    1.14666342794018    2.26501946015647
C         4.73373102551474    1.57558087168635    0.55076160338137
C         3.55179647728848    1.97286996786850    1.27500209144105
C         4.61076460585393    1.23340198821166   -1.86771434653883
C         4.59721748410203    2.09268268698591   -0.78176643451768
C         2.77743028223642    0.22563566570874   -2.83865379320400
C         3.39090406005071    1.46859802009097   -2.63671742810358
C         0.76881132975488   -1.11829773532374   -2.56180205618072
C         1.36658357677590    0.13509840434437   -2.88088277977852
C        -0.64358120407517   -1.22481549382656   -2.64809721689529
C        -0.63024538379451   -2.77431119407962   -0.82050453073956
C        -1.29649801137668   -2.32776400067512   -2.00761614699799
C        -0.76734116653367   -2.17216642768908    1.52495955686973
C        -1.39440445887174   -2.78387313886291    0.39213886594201
C        -0.73211326217470   -0.01026914887400    2.57909888501995
C        -1.49839611927224   -1.17803915673610    2.24069420436200
C        -1.38824891253289    1.25551167264882    2.45362730793557
C         0.71475093447807    2.15704835303736    1.57390466234334
C        -0.68741837782867    2.22475386169442    1.67178646100284
C         2.74353526075574    2.78466034039235    0.38328621964175
C         3.37557962658471    2.88091032778983   -0.86105113438752
C         2.63458866254618    2.50024709551985   -2.02111751205777
C         1.33979714986670    2.79495604245674    0.45428955876889
C         0.58306195419685    1.30538354408605   -2.61978287884310
C         1.23721301995441    2.39332676845562   -1.95514028707375
C         0.57335290906600    2.81242553454789   -0.75677254673057
C        -1.42745170099899   -0.04859910855293   -2.88066769712091
C        -0.82906215700665    1.19681868587877   -2.53333506633895
C        -2.83832960131153   -0.14008028257145   -2.83771274669374
C        -2.69424504249007   -2.43299311770624   -2.07320311536430
C        -3.45126007785066   -1.38750109202145   -2.66293950109182
C        -2.79824398959843   -2.77211457337483    0.32402123530077
C        -3.43308233532632   -2.84063359287260   -0.92038882883026
C        -2.93861933504591   -1.10953788166903    2.12872678965225
C        -3.60515697621626   -1.98193571771174    1.23652326457415
C        -2.78109450900570    1.31779569562190    2.52897675127716
C        -3.59610502410001    0.10731172478592    2.45310246274132
C        -3.46982283282609    2.35867749502353    1.86401365443941
C        -1.44205339994725    2.83298215672790    0.60534127544177
C        -0.83379970036708    2.72417533722011   -0.68901275792901
C        -1.58711160415209    2.10964470653410   -1.73242560884136
C        -2.82666925322269    2.87077508854413    0.69096157626822
C        -3.65986017642297    0.88231860832990   -2.23392670925842
C        -3.01587506398506    1.96420260347906   -1.59042391006096
C        -3.65114963983009    2.50950752087195   -0.44312566801773
C        -4.66929611586840   -1.17009963949348   -1.88569904178871
C        -4.65468465140558   -2.05472321894688   -0.82039009571592
C        -4.78824598042657   -1.56835162031594    0.52412345182189
C        -4.82381113156218    0.23409122877393   -1.65897871268694
C        -4.81886154505725    0.45623163656604    1.83444721733498
C        -4.74948979104222    1.85183961724535    1.48416731374445
C        -4.84501807349469    1.91185927663378    0.07220976656001
C        -5.30399273152722   -0.28211355680723    0.70520307676419
C        -5.31688614427627    0.64587974934723   -0.42305915035112
