78
C78 Isomer 17265 Symmetry C1
C         4.33227802178259   -0.19826232294594    2.12772083613906
C         4.77865847619476   -0.89628281567179    1.01553464166072
C         4.97348615456663    0.05061168515635   -0.08075469749869
C         4.25395832538599    1.20478734754688    1.75640366428455
C         4.56506866127670    1.33427657273936    0.36559802529439
C         3.04637784918518    1.70140577899644    2.25558802643332
C         3.12395697669671   -0.56830560798058    2.79185640500094
C         2.38573093311307    0.64003752506226    2.97571420191091
C         2.44386592756258   -1.76629350804402    2.46491305699900
C         4.03614523723208   -2.00762220375534    0.55177589413395
C         2.98575925928354   -2.52725331559820    1.35891857663262
C         4.38535793044212   -0.53657327800940   -1.21767269829740
C         3.83348658726716   -1.82582851969671   -0.85896738094206
C         3.64580700662018    0.26554087869676   -2.07436188175996
C         3.72650127439608    2.14689443528261   -0.44484702701346
C         3.43785317709284    1.64351168867887   -1.74047958279263
C         2.27744705436539    2.65048067281337    1.55069163737989
C         2.70260659632733    2.95694766077115    0.20332519168277
C         0.91777464899191    2.82873308768544    1.97558114974008
C         1.00940333942830    0.64122950457965    3.14281391911934
C         0.28804676609648    1.84071634882569    2.81425056489532
C         1.03721144851435   -1.84235709425752    2.76155552125361
C         0.37035298640126   -0.65435867921223    3.22223628997556
C         0.22309621522938   -2.90679802385197    2.20441437567572
C         2.08653310503690   -3.33450737503142    0.66387612887011
C         0.80299986892004   -3.67052745801990    1.18377493950929
C         2.67362584284386   -2.30811264385550   -1.49336165693424
C         1.96779452373677   -3.26814087262893   -0.75419251535868
C         2.44000420036012   -0.22525796313280   -2.69622939418263
C         1.91030617022003   -1.48714720242642   -2.41664283737254
C         2.23984884700952    2.02678100796628   -2.41644554684328
C         1.57383972596338    0.87519469552445   -2.94527902687736
C         1.73153544444285    3.55104701087350   -0.61130838752125
C         1.48575783138955    3.05761222652313   -1.93489892334828
C         0.07558491549212    3.71301927170797    1.21325796926398
C         0.48740242518543    4.01707935237412   -0.10442587472998
C        -1.31675795724759    3.75083051898559    1.46790555902770
C        -1.14604427855616    1.80508194080171    2.93775202546331
C        -1.93926842462722    2.78575184133270    2.33235363370387
C        -1.02305482461159   -0.64699488941414    3.29731386909478
C        -1.77257326145642    0.55770946549267    3.20176596410738
C        -1.23509315985947   -2.85961378771701    2.24279188328470
C        -1.83275491660296   -1.73267811387010    2.84261077542566
C        -2.01981672561614   -3.53177908870602    1.28255856203038
C         0.01076319724973   -4.11989165340182    0.07133976480146
C         0.65206531802634   -3.65233152219761   -1.12033908379818
C        -1.36071657386063   -4.14411562270438    0.15047854842303
C         0.49020985593655   -1.67689090044224   -2.58613962044765
C        -0.07556092153275   -2.90885860924857   -2.08407412052623
C         0.17152250854824    0.75955719718655   -2.95158331190621
C        -0.38154297496179   -0.56119355761328   -2.84393268101894
C         0.07996262178899    3.08093120801360   -2.18672510253978
C        -0.47217623729367    3.92799164824802   -1.17609414066432
C        -0.61188981077801    1.94217756330857   -2.63954620257700
C        -2.23238910601926    4.02599986689954    0.43112021796743
C        -1.81844908241113    3.87410136636917   -0.91747467832715
C        -3.24686345146264    2.46186375259069    1.80545032999080
C        -3.40395746274364    3.21891013807605    0.62677377022755
C        -3.05075994256961    0.22272137363331    2.67455376996809
C        -3.07768847284868   -1.19361093825331    2.42949573787258
C        -3.75891403442653    1.13583897580972    1.86290117743321
C        -3.25036792567771   -2.95519292265972    0.79426706266059
C        -3.77041087534715   -1.74155622939810    1.32160931941499
C        -2.08138145923315   -3.82263757660101   -1.02127181472738
C        -1.47500300719093   -3.05370023113569   -2.04271433848365
C        -3.28757433827770   -3.16625543872928   -0.61113864596482
C        -1.81402538861448   -0.67631731584954   -2.62602149206689
C        -2.34227540225254   -1.93577613584790   -2.33244073966442
C        -3.50536023992089   -2.08318671960602   -1.48775168763830
C        -2.01010089020364    1.82026896115658   -2.28670711374407
C        -2.61966021496236    2.84958833994999   -1.54169250794615
C        -3.67638646970267    2.55654559224223   -0.59721743620445
C        -2.61301044637129    0.50234441378131   -2.29225875971812
C        -4.37008234962672    0.59874223785165    0.69604869052243
C        -4.35208461879123   -0.80947007944349    0.42151720761866
C        -4.11919541177195   -0.95666530880736   -0.98285548752731
C        -4.19341641299321    1.28172591146530   -0.55059406465300
C        -3.77938018517946    0.31875646076603   -1.53096842327728
