70
C70 Isomer 6244 Symmetry C1
C         3.26507035906485   -2.65688092796989    1.28301873780782
C         3.11267522405712   -3.13685269282531   -0.00639794719780
C         3.78032429188123   -2.19596677280333   -0.91238942971075
C         4.05380446707959   -1.43277403046474    1.21324891076259
C         4.29490264697597   -1.10664869265829   -0.15735454038366
C         3.42909503220569   -0.51119994153202    2.05908896850150
C         2.11963215477284   -2.41602467964531    2.08780438989837
C         2.21087941626720   -1.07713267889211    2.61074089218904
C         0.87127196623703   -2.89893113369167    1.68193823224771
C         1.82646720882523   -3.43990041550564   -0.50818239903293
C         0.72258985993724   -3.45743436400785    0.36000295283763
C         2.90031013547027   -1.97768227104071   -1.97947910658540
C         1.69968274684833   -2.76418218408472   -1.78842460520898
C         2.76762439729177   -0.68344090284008   -2.49209087320449
C         4.08047918273872    0.24041822605232   -0.61103290983397
C         3.39870010171616    0.41990025205531   -1.84669684236605
C         3.42543113542137    0.82998418074134    1.69276660297723
C         3.81136304562071    1.22608498997673    0.37738516245315
C         2.36842849065337    1.67541001207428    2.14699801071864
C         1.07388247436328   -0.28640350797619    2.83715859335338
C         1.16965264128888    1.15248394795525    2.66630654622874
C        -0.27085608532928   -2.27534907531939    2.29010096491678
C        -0.21371930752458   -0.94131130544184    2.81312075475057
C        -1.50665203588258   -2.81617964104512    1.89520004941982
C        -0.57253081414754   -3.43498248097514   -0.26906435257609
C        -1.67682832927982   -3.40640088659603    0.57441614169965
C         0.46084983132516   -2.32840167914127   -2.24562588259236
C        -0.70469121631390   -2.90918910765419   -1.61119074869139
C         1.50392157213554   -0.25202616319367   -2.98561746672589
C         0.35594354195076   -1.03692871756212   -2.89620957501741
C         2.57519729259141    1.57690515340538   -2.09831814243073
C         1.41601641152217    1.17023424699028   -2.80606515282108
C         3.09749302165176    2.44338786279037    0.08175721618984
C         2.35815897244490    2.79578758203055    1.25089700560549
C         2.50591602587707    2.65965270946051   -1.18944397061102
C         1.22797421044300    3.58410716109101    1.17148670526726
C        -0.04617168063581    1.93948869427106    2.52955592938780
C         0.03403139675553    3.19139313471997    1.89262228559975
C        -1.41582426936455   -0.14924960488236    2.85317430750738
C        -1.33655242716923    1.28017277942553    2.62903959918946
C        -2.68226994309370   -2.14896463037084    2.21195067463439
C        -2.65383038799110   -0.79602950999344    2.60285373389363
C        -2.98662394902154   -3.05731223053132    0.10219077364755
C        -3.64063374104074   -2.32786037050786    1.12675215784399
C        -1.94744581563716   -2.46841431576425   -2.03894600683756
C        -3.12835238647001   -2.61099226120132   -1.22371325447595
C        -0.92830093544180   -0.37485033163766   -2.96582504125548
C        -2.04538815707588   -1.20331146932835   -2.75657164543419
C         0.16365843476707    1.82329539108997   -2.68372940047195
C        -1.05857766348048    1.04513444568647   -2.78190121679664
C         1.33894013130018    3.46577859965849   -1.26275574301566
C         0.85520569097828    4.08646010572373   -0.09269308769023
C         0.17492503384509    3.05333935265552   -2.01523673135654
C        -1.07614855545910    3.68035528385216    1.11218026325642
C        -0.58816479271608    4.12572329089286   -0.13895608221171
C        -1.01348963825542    3.49024993676854   -1.31511262377778
C        -2.44969141679330    1.89746068429876    2.02304385208756
C        -2.26484062814002    2.98750845137399    1.11283148086098
C        -3.72932595156318   -0.16195915699345    1.86763260189539
C        -4.27902394192349   -1.09891615526326    0.89784726157772
C        -3.56893711652301    1.15137607101511    1.52465933471790
C        -3.96007921671160   -1.49448425058369   -1.46718215173648
C        -3.27892894658292   -0.63552684961379   -2.42682009043408
C        -4.46568216346893   -0.67709391059669   -0.43927046643744
C        -2.27282228146064    1.57377012628256   -2.21190057025794
C        -2.19975079381068    2.72194430183192   -1.33109575035163
C        -2.93192169058828    2.67608863572949   -0.11919037177689
C        -3.83350929112515    1.60219369828945    0.17124803664106
C        -3.37062216191144    0.70279294763935   -2.02361117132754
C        -4.16931081437179    0.69830704430663   -0.80492377993050
