72
C72 Isomer 10901 Symmetry C1
C         3.65336105002082   -2.29957442169646   -0.49520787059083
C         3.35841589192560   -2.20553643304130    0.86989647179394
C         3.88531978831717   -0.92798971779160    1.30357135014164
C         4.10635776405386   -0.99221504289054   -0.95347414798789
C         4.24906350810564   -0.13381859656148    0.13454058482387
C         3.36516073102140   -0.64923136770672   -2.10588313239228
C         2.71383985160601   -2.77198836107525   -1.42560589488441
C         2.49660527322468   -1.75370758911083   -2.42631816991177
C         1.62472818912428   -3.46011813881624   -0.93234314800562
C         2.11786274685959   -2.70427795321052    1.37533722541394
C         1.36577164169274   -3.47588699204423    0.47532647593921
C         1.38126280423784   -1.92664066897473    2.36621993491735
C         3.30361331635184   -0.32305223146706    2.38212146964448
C         2.02867550144286   -0.80694782327609    2.90049653585304
C         3.28447860696011    1.09852129256735    2.39793037361289
C         3.86535420718469    1.23993675421795    0.01052283055239
C         3.49857806566116    1.87722343669138    1.21646204054923
C         2.96154301366972    0.69358830537710   -2.27980233065105
C         3.25145081062483    1.66977335379657   -1.23998742000365
C         1.81698671567567    0.85127522757809   -3.09299771474269
C         1.19782631267382   -1.54166726219311   -2.93097383292085
C         0.92669075682036   -0.23364626482712   -3.36590914037724
C         0.35671030288778   -3.38605052172228   -1.60630325800019
C         0.07430487413775   -2.36975280825001   -2.53128777172392
C        -0.04864789868496   -3.65059234691755    0.65383707196262
C        -0.62068017485224   -3.78669913563077   -0.64991524680693
C        -0.06478212109591   -1.96381100678015    2.43849464845568
C        -0.75877862860904   -2.97827139349197    1.67006269721964
C        -0.80596992126879   -0.80942434152875    2.85817667028762
C         1.27993278315126    0.34949517157204    3.26817802317101
C         2.07496002338727    1.50633811054124    3.00054995900608
C        -0.10331038808627    0.41901666982464    3.11982338433046
C         2.48643076472816    2.89530070236569    1.23439721488453
C         1.55094464023037    2.62110052869859    2.30034806991560
C         2.41651300134632    2.80590201880140   -1.19930748650544
C         1.99060507801009    3.37525925056473    0.04835633491095
C         1.03625740703784    2.04366838625323   -3.06008032741711
C         1.33198927451850    3.01004599302329   -2.11850421682156
C        -0.41582631038065    0.26776669671252   -3.44343669863486
C        -0.32965229622086    1.69042924340346   -3.33721048476110
C        -1.28836104730738   -1.83758741700580   -2.58858795058104
C        -1.52728259144309   -0.45319917201275   -2.97379614080891
C        -1.94425367313017   -3.47103018995424   -0.87593176507699
C        -2.28653334408782   -2.47560349860867   -1.85147088813504
C        -2.16270757082321   -2.88155970794919    1.48078670745562
C        -2.74799918048774   -3.27065932945650    0.26329618511644
C        -2.23728102029493   -0.71775372475069    2.63931730201012
C        -2.91958863978060   -1.76033422806668    1.99254793903801
C        -2.83496482905571    0.57508510066850    2.56012198723329
C        -0.66220589987123    1.71273249879264    2.73790048819254
C         0.17283794823756    2.74287406671560    2.12864232187974
C        -2.01377987595470    1.77285766986277    2.48920277329785
C         0.61233019112000    3.76755045884992   -0.04374861217953
C         0.24560344327784    3.66272072222911   -1.42641266123832
C        -0.31760953365094    3.46532878772020    0.96994758051720
C        -1.36364036846598    2.38516746782350   -2.75429987711412
C        -1.06422493988263    3.39847257498257   -1.76878071684407
C        -2.65927041562631    0.28853689764185   -2.44707244972595
C        -2.54496145480769    1.69449984438056   -2.35834369171821
C        -3.43764912805819   -1.74721866852108   -1.32146517126444
C        -3.76288523919561   -2.30343773215006   -0.07608350215654
C        -3.97904523034171   -1.47981754656372    1.05472633070101
C        -3.60296299632021   -0.35485505611562   -1.54920890059902
C        -3.93993387358609    0.80302767724948    1.73452861454739
C        -4.37313548862229   -0.17250294619519    0.80400863371265
C        -4.24037313044982    0.38433239660014   -0.52188016296392
C        -2.56406496548958    2.66529235980992    1.50006334403355
C        -1.70801607263252    3.35955339339023    0.60734346396317
C        -2.07313934893535    3.33623555400134   -0.76088418719704
C        -3.07544716458433    2.41589086598161   -1.23425947869480
C        -3.73580320287361    2.05339120179018    1.03048846767943
C        -3.92259831436728    1.78526895587557   -0.34379705732684
