76
C76 Isomer 11792 Symmetry C1
C         4.78295785112591    1.47589331375892    0.65132394001043
C         5.03203404067708    0.11997156767693    0.66861290709484
C         4.34181592790194   -0.45799263176449    1.82134534336470
C         3.96602469341117    1.78407773735826    1.81621429622652
C         3.57388243796562    0.55345914272022    2.45579031406460
C         2.97764414902295    2.66345686165065    1.42133107330979
C         4.16612509303504    2.08826001099426   -0.49195701227885
C         3.11048394334796    2.91990458946832   -0.00984598409359
C         3.91109743660356    1.31101861315693   -1.62469063226947
C         4.76782860756704   -0.69969026823071   -0.47191497190480
C         4.26953158707308   -0.09517871415536   -1.62874527722882
C         3.75597151977633   -1.65663846383582    1.42064503072028
C         4.11706026336802   -1.89428910370411    0.02739635322602
C         2.47696061681148   -2.00568810443061    1.91187635944463
C         2.22344159395115    0.30675296795119    2.80117144710410
C         1.72454252970436   -1.03665464926584    2.66899832486472
C         1.69622162746319    2.58021609645497    2.02585719103532
C         1.27075634983163    1.40881356970954    2.74017394771707
C         0.72818738788509    3.34479842369476    1.37845858418669
C         1.95694371258812    3.15106197726824   -0.76943348560719
C         0.84830912088323    3.62208253628033   -0.04500984838541
C         2.66304198322884    1.45205466449379   -2.32881405603059
C         1.67464262892800    2.38110541660652   -1.95532072824049
C         3.26476291989267   -0.77869013805068   -2.40396322799274
C         2.28688052966610    0.16594472545131   -2.84495322695121
C         3.24203734163128   -2.58420171150938   -0.77477588896503
C         2.82880981048631   -2.04110124389770   -2.04315595988524
C         1.76566667594189   -3.00116376093394    1.15251859569791
C         2.11002838086074   -3.24382265265105   -0.19897304343892
C         0.44271467882096   -3.25934455691224    1.49716025299313
C         0.32828543115147   -1.26424113247846    2.91954403484704
C        -0.21772329241874   -2.49602584416236    2.51047486864490
C        -0.12997687376771    1.18816105774797    2.92007534018586
C        -0.58739671237916   -0.16619300891817    3.14952636062588
C        -0.62531319654894    3.22852730441333    1.69623489408629
C        -1.10091451415549    2.17286916219074    2.49894826613793
C        -0.43208728128140    3.64716698915162   -0.59515311841524
C        -1.35144673460042    3.64809944669837    0.51863017278308
C         0.30630210857280    2.15759265142905   -2.36223285754280
C        -0.76023281076845    2.91679372503879   -1.77448651714114
C         0.94518039053102   -0.17513983215226   -3.04069482766200
C        -0.02201081803592    0.89410676790301   -2.97386371855050
C         1.46831626392997   -2.41807607262792   -2.25350527808263
C         1.07389514023566   -3.27917775981555   -1.17266623151578
C         0.52464068289954   -1.53698829826032   -2.79838150748871
C        -0.53474307476441   -3.67118278960250    0.54226806718660
C        -0.27506454107815   -3.46148644330208   -0.82885452803150
C        -1.61724733455169   -2.68458392427729    2.33128962187855
C        -1.81979846152985   -3.39767913022543    1.09348056049017
C        -1.96876218978443   -0.41678378112696    3.10372893630383
C        -2.49212819119204   -1.68491867048403    2.68924527685953
C        -2.51211717893003    1.87168998955787    2.37268128910892
C        -2.93751005663283    0.58061528142763    2.71729155407980
C        -2.65047547089170    3.32929939668336    0.36036054609513
C        -3.30670199104227    2.55590202553399    1.39499910484243
C        -2.14656783088028    2.54887538545877   -1.94394834998451
C        -3.11541466035473    2.91070566971022   -0.95105783544319
C        -1.36228280776693    0.52730628756571   -3.08601244339891
C        -2.43552295426148    1.36907432913787   -2.66178902665354
C        -0.86894953087087   -1.84528569353686   -2.59990673002501
C        -1.29065985422704   -2.85514645630311   -1.65388277970610
C        -1.78034240762105   -0.84488455715915   -2.94822726551215
C        -2.86227085420700   -3.04917686561845    0.26055868071003
C        -2.59867414065335   -2.78889124148897   -1.13542542605956
C        -3.69390311090704   -1.46821552762124    1.92787986384540
C        -4.01699452608917   -0.07443141383682    2.03478033206862
C        -3.87229346972443   -2.12920829918217    0.71710986913890
C        -4.36380403146182    1.91152198958691    0.74858953083305
C        -4.23482960158023    2.11800696696234   -0.70110454849766
C        -4.67947383780156    0.56091075841964    0.97903608259897
C        -3.55642834118760    0.52817875215005   -2.34847059248565
C        -3.12454683725154   -0.83676380313225   -2.47732574346319
C        -3.53152695582731   -1.79364757851492   -1.55767551888011
C        -4.35270768252689   -1.40331373069111   -0.43391769265988
C        -4.44599988672371    0.87284899800814   -1.33244249561425
C        -4.79318141049356   -0.10022729561021   -0.31002883832529
