78
C78 Isomer 15922 Symmetry C1
C         3.96640822082977   -1.78013816386589    2.01326722169442
C         3.85485915623353   -2.68426822201499    0.98005013328022
C         4.40453835957295   -2.06799444413427   -0.23925950344471
C         4.57652536782550   -0.57571611014959    1.47003212165001
C         4.73477819270651   -0.72555942848109    0.04520417231670
C         3.88195411474536    0.50797313378445    1.98137287799130
C         2.80610933877212   -1.40950283930262    2.75985811976020
C         2.83329622260341    0.00844265321217    2.85962314907806
C         1.56766699880370   -2.05983473974018    2.56485366656580
C         2.60897845973273   -3.28430731122903    0.68698197977500
C         1.48673360238677   -3.06527453858650    1.52903613368069
C         3.52680345948000   -2.40209573925912   -1.28278367282003
C         2.45083069820978   -3.20033902998112   -0.74297885723817
C         3.20489860181107   -1.42577527599643   -2.22021000648686
C         4.29549608214570    0.32468082996089   -0.82085904179016
C         3.65455402194218   -0.08433295331868   -2.01904225412605
C         3.66067537073722    1.67083260323021    1.19044113719268
C         3.88839161201513    1.59587927829533   -0.23521527534109
C         2.68095163302336    2.53713048303782    1.70257413815592
C         1.66333002639242    0.73873465906080    3.06773771768787
C         1.69109573295630    2.08190157074983    2.64400125480257
C         0.36331267938752   -1.34461098827811    2.91443252827343
C         0.40413087227264    0.05969080588903    3.18687652595009
C        -0.89520343714983   -1.97677493562727    2.63734734953251
C         0.21474717169236   -3.40442804919893    0.97965628948875
C        -0.97344968747610   -3.07696075278350    1.71377966724309
C         1.17791977082962   -3.15546154805095   -1.29322033521431
C         0.11831411383979   -3.58763594630539   -0.43510167333906
C         1.88265014108241   -1.37592088618501   -2.77505292947100
C         0.87299663303577   -2.23731637688614   -2.36356946383104
C         2.67503745745452    0.75144740053920   -2.65744175321573
C         1.55139319505633   -0.01740090064740   -3.07888075320552
C         3.13239013435138    2.48813942716309   -1.02883837644005
C         2.48820650808000    2.04009794885029   -2.22698222443933
C         2.05600996852670    3.52965668763470    0.89441990921409
C         2.26837931203266    3.48573932530276   -0.47389215266986
C         0.49064191110569    2.81518640380932    2.45375427586843
C         0.73638735707698    3.77237038654437    1.41788046794160
C        -0.79321184180750    0.85559732676822    3.10243466709154
C        -0.77324207523135    2.22612423688856    2.65774874097111
C        -2.06432890811320   -1.23427592500440    2.87745216143556
C        -2.01230990904668    0.17344835651703    3.03600040673162
C        -3.33060500653903   -1.54725155299260    2.27196396583868
C        -2.22802980084426   -3.37428703629084    1.12491801517965
C        -3.42074833341887   -2.59928705083577    1.39359191032479
C        -1.14085222469812   -3.60792391766296   -1.03659734773355
C        -2.27755722323156   -3.72697718747879   -0.23869392516936
C        -0.49280630191582   -1.81738878899395   -2.59289699351355
C        -1.46179792122887   -2.68359764481259   -2.10005752826902
C         0.23066293811306    0.48436767611825   -3.04108879833061
C        -0.84823260668345   -0.44664172697785   -2.87691979541713
C         1.19225030742304    2.63763546243450   -2.35529142670828
C         1.12853216520993    3.64757050993517   -1.34828910074977
C         0.05590288741289    1.88217560148917   -2.72297210824401
C        -0.30414493732449    4.10278782220913    0.58064414516755
C        -0.10369794613624    4.00308857652580   -0.84990598466195
C        -1.90622423371869    2.75439713952224    1.92714459795915
C        -1.62386877050281    3.66416166962990    0.88657610507628
C        -3.21258860758990    0.75819337091668    2.49379591349193
C        -4.04420106325202   -0.31133191084868    2.03735446707869
C        -3.14435590469172    2.00763708130548    1.84234857998949
C        -4.80437239972088   -0.16469261852787    0.87290207991188
C        -4.13376319781980   -2.39745106163808    0.13649230219572
C        -3.36784568748079   -3.01359150678931   -0.87127970203338
C        -2.82666560394482   -2.27778532390846   -1.94964525246434
C        -4.70045377105098   -1.17348872702743   -0.16370074208463
C        -2.18690689683506    0.01804558789787   -2.59675865410904
C        -3.20088004368743   -0.92994674047273   -2.17246571284858
C        -4.31838469295127   -0.50090281785038   -1.39381933464132
C        -1.23845925639352    2.32506061024340   -2.28462193830916
C        -1.28118849772683    3.43734870306813   -1.41339503124905
C        -2.28049097968317    3.49126724356240   -0.38191489624989
C        -2.36928464211917    1.42181250866394   -2.31761090378181
C        -3.97877578616019    2.15707317083257    0.69402573910940
C        -4.76997693209500    1.09344937628305    0.24033769425937
C        -4.47331447422816    0.87198349044442   -1.16609042045838
C        -3.40267200864437    2.74328999416182   -0.49411224087576
C        -3.52784918576684    1.81205160565288   -1.59345621798035
