80
C80 Isomer 11284 Symmetry C1
C         4.94068684128732   -1.27640129455527    1.01958754415953
C         4.60939223835340   -0.07409803203883    1.70769978419213
C         4.46819097425989    0.98441803596381    0.75627333214419
C         4.77701851786175   -1.02161135430988   -0.36480381833421
C         4.57710565679161    0.38594238077061   -0.55030093919274
C         3.80885036339698   -1.92856898375025   -0.89769598757739
C         3.97260577821377   -2.27189375781499    1.39257255915365
C         3.36588552653391   -2.76072363769157    0.20484677130733
C         3.50377579683725   -0.33908687244041    2.55218065938103
C         3.10776987203307   -1.73084496615457    2.37998863691260
C         2.50642011012724    0.62703799500002    2.75892120329261
C         3.52999838623287    2.00525375742817    0.99626094601924
C         2.59375767631676    1.89675507564920    2.09278347472700
C         3.10627190510699    2.70563684677189   -0.15327445744911
C         3.76686991074756    0.82832343125267   -1.60684175882401
C         3.23991092192900    2.13054344783467   -1.44569293313510
C         2.88542042764680   -1.50408135636901   -1.88492153652704
C         2.98411641847759   -0.13927427874436   -2.35963455595131
C         1.65082984691055   -2.22515454018864   -2.00174254207676
C         2.05993871926094   -3.21537568158317    0.25560777726321
C         1.33848382451000   -3.19754987334267   -0.99012922444412
C         1.76174301730958   -2.12178436468555    2.42517089472804
C         1.29860382098717   -3.08173955711231    1.46857409943890
C         1.23123615513590    0.13160736255952    3.22026228263309
C         0.79888100206165   -1.22531874593844    3.01393410696042
C         0.26328767221095    1.10043096626252    3.45689149599410
C         1.46629423728637    2.78332469852435    2.12800705211143
C         0.40455159770267    2.43933056676645    2.97391748204613
C         1.93710054747535    3.53151737915537   -0.14675210779078
C         1.15547627621019    3.65715152135645    1.01506979430921
C         2.13319531212953    2.60416196141924   -2.22376493776168
C         1.35063862032845    3.51985768399659   -1.43933081278144
C         1.89743265447605    0.34719922901855   -3.08814612244230
C         1.49694715984464    1.73204227898964   -3.06989702485468
C         0.53726739705120   -1.68605593272708   -2.73914479288897
C         0.71174638470744   -0.41122619125476   -3.28102799644508
C        -0.81982416399424   -2.15653548392469   -2.57192646074487
C         0.08558033515659   -3.76032521133264   -0.95194609116374
C        -0.96445096443191   -3.36123801485362   -1.85855985028248
C        -0.06698455621266   -3.46344530340196    1.47412136668616
C        -0.52579458125804   -4.12736354306468    0.30283935542476
C        -0.58977255855660   -1.54609827450027    2.97491885141999
C        -1.01531735350183   -2.76705929982169    2.31660536481246
C        -1.11414238771073    0.77580640176821    3.54654796143818
C        -1.56596025793294   -0.51654959508738    3.25335197020354
C        -0.91798682586004    2.97253502436567    2.81932932080337
C        -1.85889284636915    1.95982668920277    3.21385834574153
C        -0.17038483371067    4.09406127854392    0.80558570536023
C        -1.21019996307105    3.80842559879066    1.75501794930462
C        -0.03871124934595    3.66144080520617   -1.62732426123215
C        -0.75916685122324    4.10204618893472   -0.49554758157292
C         0.07359103413903    1.81040019412830   -3.24064149444170
C        -0.40270537644877    0.48180303542718   -3.40631346871855
C        -0.69810947378507    2.79342032426726   -2.58315294167972
C        -1.95099506502215   -1.26013038348748   -2.61281874260994
C        -1.69776703942016    0.09385509372239   -3.02002410810056
C        -3.12787478576975   -1.52923214206198   -1.82107991717679
C        -2.18376150957577   -3.72759640781464   -1.29184637677771
C        -1.89997978043285   -4.25715394215275    0.04769204107509
C        -3.24956375154290   -2.80062397396087   -1.20227795314245
C        -2.39005999966816   -2.92758013916827    2.02930144572403
C        -2.82212871817117   -3.70959866641068    0.92062969495991
C        -3.74978972288075   -2.90567239580785    0.13366720654940
C        -2.90310937481755   -0.60932073600427    2.71473119868164
C        -3.27326718530193   -1.79162289791033    2.07924367396003
C        -4.04233483610090   -1.75521536842719    0.86307957829055
C        -3.07786762443256    1.85951203620162    2.56861419378688
C        -3.59519913789734    0.55533800155742    2.29497445389823
C        -2.45506234117135    3.67182181072817    1.04972509076501
C        -2.16404274397017    3.82794914914449   -0.35077867869004
C        -3.38343344678259    2.72647261710171    1.46235074690383
C        -2.05109018999913    2.45739186003386   -2.36904708402216
C        -2.54185955328621    1.13628552548395   -2.59107867148959
C        -2.79972366135046    3.02244997264899   -1.28219455011868
C        -3.83943247523265   -0.42355445582732   -1.19543951954074
C        -4.26654380636280   -0.53266729200616    0.18498175822130
C        -4.24143573599364    0.60018278635803    1.01592583163118
C        -4.06767133961733    1.91802670972256    0.48829073185897
C        -3.59836708578099    0.87216799688711   -1.66518086502036
C        -3.76610778305384    2.04661922878359   -0.85665356927283
