76
C76 Isomer 11474 Symmetry C1
C         4.65430301752999   -1.18655627155754    1.14222766487545
C         5.00216925951110   -0.05781403778652    0.41896803607898
C         4.79522021018693   -0.34321950171421   -0.99731644709959
C         4.19953767335134   -2.18852494066139    0.19119316867950
C         4.19583529508147   -1.62960364690840   -1.12114279806989
C         3.03100038375464   -2.74786143613841    0.69854331868297
C         3.68756190060109   -1.11614214457539    2.19735378207824
C         2.70069940675213   -2.13986732079836    1.96939700109603
C         3.23188307279786    0.13208161185156    2.59352546240469
C         4.40770353492577    1.20920517002099    0.70943424949066
C         3.60353778386474    1.31347319417107    1.84240139352647
C         4.17891221448672    0.78100161895033   -1.56354330153618
C         3.92052745815023    1.77183472441899   -0.52597587373856
C         3.21815701335822    0.56627562290847   -2.55374861460816
C         3.04261884338748   -1.81429793927445   -1.94821156892255
C         2.66701298671661   -0.73360610982552   -2.77262684870490
C         1.97687274691142   -3.12207391580956   -0.16298286982413
C         1.96806063283423   -2.66730339081776   -1.51308637382740
C         0.76287678736276   -3.46537056468224    0.50069354688158
C         1.35949903787879   -1.99904876484814    2.35606848014583
C         0.38759978799586   -2.85265575088166    1.73412075347831
C         1.86269099789972    0.28206468095641    2.99766537812611
C         0.91892810176194   -0.76562419772407    2.94194844206865
C         2.46317786357688    2.17023272565279    1.80560470016751
C         1.45736397905673    1.59792341815728    2.65339874004809
C         2.76788892084077    2.56724860082743   -0.57658005453849
C         2.05502013802927    2.85446510958565    0.65210113699733
C         2.18452051944592    1.52202415211095   -2.73581986715906
C         1.98857305114104    2.55192282806787   -1.79869899590388
C         1.31159558567553   -0.54409531878100   -3.22725618836207
C         1.05058288020474    0.84186607327136   -3.29267103541060
C         0.68206707740703   -2.59768087200136   -2.18061540051566
C         0.28142122742673   -1.45673806150001   -2.96483786403598
C        -0.24883502570251   -3.93505909909021   -0.35117651148504
C        -0.33853058531448   -3.38939368207787   -1.68578214845863
C        -1.52421528631812   -4.14087251561167    0.14195562105452
C        -1.00429922186875   -2.69022090147829    2.05750248770014
C        -1.93528001426269   -3.50472475208870    1.34163308931303
C        -0.47807606260917   -0.43406588359910    2.95933878253547
C        -1.45493462388834   -1.43143117954027    2.60729028210524
C         0.12133122833979    1.96246423893592    2.59365989255566
C        -0.84053733333218    0.95770414020685    2.97568654992892
C         0.70149812271343    3.35534967413820    0.63733802178203
C        -0.21356714494461    3.05090168309908    1.70952804246796
C         0.70439321538525    3.11610457533325   -1.78978837974796
C         0.13222883707894    3.67312400403531   -0.61065425226798
C        -0.25474264779539    1.33635525430575   -3.20094012808798
C        -0.36374086106922    2.61572611618474   -2.60965286899177
C        -1.09445998530389   -1.01313030613640   -2.98568515177611
C        -1.35124935903103    0.40154214904406   -3.12952797184390
C        -1.72376064753272   -3.13713227738600   -1.96520259447546
C        -2.46157592845976   -3.77578818827825   -0.92686213002122
C        -2.13101749174819   -1.87353367345665   -2.46603825365449
C        -3.26581068266153   -3.04924235905615    1.09439812901560
C        -3.54358368140992   -3.16983016530628   -0.33732666441955
C        -2.81877298905051   -1.00604446785510    2.34447687655769
C        -3.65543890805622   -1.78076763948420    1.47495936184355
C        -2.18904018058195    1.30918756811542    2.81218167246452
C        -3.15921436286616    0.34121722465437    2.42235422455167
C        -1.58567447906640    3.32633238264467    1.53887461429051
C        -2.52884316754281    2.53650665890856    2.21019211217485
C        -1.29052686774580    3.74073501091947   -0.81275445788764
C        -1.59055985684659    3.05130745094307   -2.04849650050863
C        -2.15477761187293    3.64850411917457    0.24680159917612
C        -2.58323054585612    0.91401929275369   -2.67781279740839
C        -2.70640411952509    2.24219245631225   -2.13818922079659
C        -3.36094785834305   -1.30564150328869   -1.93103394667218
C        -4.00959584093221   -1.91851704835166   -0.81972667253078
C        -4.29974497346068   -1.13371096843463    0.33701343584182
C        -3.53105030969078    0.08978317990828   -2.01091163540639
C        -4.05454249711495    0.97375800207937    1.45650901232793
C        -3.67744036266265    2.31083514697548    1.35119389877946
C        -3.41602966429713    2.93328742868401    0.10146092113728
C        -3.66273136697287    2.20713440459437   -1.06384556522809
C        -4.41194633137610    0.25642344146478    0.27743534946738
C        -4.16314191630964    0.86507566243945   -0.97990727797189
