76
C76 Isomer 4335 Symmetry C1
C        -4.79748603080153   -1.58926688160477    0.91977470227509
C        -4.98312819861395   -0.21526885588481    0.71889638306667
C        -4.69328709390530    0.12238075131593   -0.65226103901059
C        -4.26837865413184   -2.12446710226855   -0.29542818849076
C        -4.19916152942797   -1.07736849657227   -1.27930025712900
C        -3.05560120336055   -2.76000386954883    0.01597263212636
C        -3.77224977614319   -1.72462878954146    1.93739231910914
C        -2.73563759624793   -2.51712088152575    1.42201304943571
C        -4.28737633529864    0.49722824313222    1.76699843228074
C        -3.43833186128213   -0.44800981231949    2.47670178685673
C        -3.78495185864263    1.73113036801625    1.47050111577126
C        -4.11945826153923    1.37695905554288   -0.94877120008135
C        -3.79528398505673    2.26023894435717    0.11914209385510
C        -3.24900045731649    1.44562410703819   -2.06915530203584
C        -3.09473295874696   -1.02177850486808   -2.16774867517766
C        -2.74930187408866    0.24721534216406   -2.66931212322471
C        -1.99698835488016   -2.79581552240561   -0.90347595450375
C        -2.01174299022242   -1.97366827112223   -2.06748966479556
C        -0.76171405368343   -3.25599856000471   -0.35383209803232
C        -1.40309967257207   -2.28736829586598    1.80590691284437
C        -0.41254594515978   -2.94832112008051    1.00497346788487
C        -2.09397126648780   -0.13143009613927    2.77415263458494
C        -1.06635263036783   -1.12092787496678    2.56616237868613
C        -2.57700745561757    2.16732921473939    2.11388963780624
C        -1.69448693799629    1.25757250834166    2.72249127276424
C        -2.71911867710630    3.17722167372714    0.01997138530398
C        -2.07618709617250    3.22816213398029    1.30545785052884
C        -2.25072154948770    2.45548768090537   -2.19793738133650
C        -1.91307445493954    3.33071387850082   -1.14576720585660
C        -1.45442414839152    0.52545794199494   -3.23189995547694
C        -1.21403013030546    1.91681361039192   -3.03463023630792
C        -0.74390031880263   -1.70393150243857   -2.70535089800707
C        -0.41065079468493   -0.40066227103178   -3.23247617525617
C         0.26833084719282   -3.42269014328210   -1.28286767976454
C         0.32900934991408   -2.53431386188970   -2.41184488539663
C         1.56734917539153   -3.63305588096005   -0.82549347121769
C         0.94419308357594   -2.83344223108461    1.39102563945109
C         1.92876650948854   -3.34639228707542    0.49873067173770
C         0.32297423535847   -0.77569583413310    2.69258679996378
C         1.30552542569501   -1.75689713589948    2.29305611323989
C        -0.29761170900028    1.60431720623690    2.78925245107284
C         0.72064079493765    0.58800094223344    2.89793322662995
C        -0.76709149585513    3.59604890260336    1.42032075614093
C         0.09086615866164    2.85997897646029    2.29297670351427
C        -0.53395267881606    3.78664326353889   -1.01443303076807
C        -0.01104652922869    4.01503314716639    0.27522143309939
C         0.07250704836721    2.36690664805777   -2.94254462480491
C         0.42962704896688    3.37134503499369   -1.98286533324075
C         0.97089044039534    0.07202518459039   -3.19611954354915
C         1.16354477451357    1.45431316228909   -3.09629107128705
C         1.71843082086778   -2.12632471787021   -2.55924200488449
C         2.48088326695622   -2.90863757955036   -1.68857792550579
C         2.06307913459502   -0.76812184330682   -2.76626354966745
C         3.24953729821476   -2.78146836077690    0.44813442083719
C         3.52579281679639   -2.37583613725483   -0.91549776405734
C         2.65793670914425   -1.40349083713293    2.38840080844334
C         3.65031910402777   -1.96532598711629    1.47921349000319
C         2.10644817346548    0.96969159100557    2.78478616345325
C         3.05946900621558   -0.06937353562903    2.69442532651191
C         1.42027517362259    3.10409655884732    1.84781721363497
C         1.35963063611049    3.79057300109824    0.59382301002859
C         2.47009694212553    2.25116825729255    2.19947453716525
C         1.79664266608058    3.17642843604631   -1.68647355463132
C         2.27388088111919    1.99725366717806   -2.39091658936908
C         2.30673114085092    3.45279875030719   -0.40048195660748
C         3.24486797205258   -0.23973532185934   -2.11346230910921
C         4.01884492235811   -1.07862668689197   -1.21041840444263
C         3.31458482430591    1.19529186568935   -1.92148749660154
C         4.60563976150868   -0.97928796696767    1.18116989047631
C         4.31989528535712    0.15793507592061    2.05166242238053
C         4.76197022426381   -0.48954759094631   -0.13883468544421
C         3.62160825162912    2.36146098330721    1.36706839713576
C         3.45455353443899    2.76913706576241    0.01258144792487
C         4.06966728780015    1.74624618963082   -0.82840259591859
C         4.58231760156370    1.31724021618918    1.35754354520456
C         4.85075823645239    0.93483106722329   -0.02424769223932
