70
C70 Isomer 7777 Symmetry C1
C         3.64330039863146   -2.24843745869210   -0.00089598389680
C         4.12838220810781   -0.95007696191691    0.01620797117778
C         3.86550422514841   -0.42684685262906    1.36663230283208
C         2.94485972053651   -2.49858157890446    1.25881589443115
C         2.96769322438366   -1.33153616869405    2.04148023675330
C         1.75923566875842   -3.16675313398538    0.99739137505563
C         2.80505060041650   -2.73713388022059   -1.03656137827435
C         1.68090381669188   -3.39048110716422   -0.43725793548218
C         2.57287240481591   -1.92743350587793   -2.14363284291994
C         3.94882339510505   -0.10158630955137   -1.13668362567364
C         3.16654890276693   -0.62215187177931   -2.20273427403088
C         3.88439054667289    1.29391007454617   -0.89669833630381
C         3.75567865873965    0.92544657919487    1.54793876033785
C         3.96773702696688    1.79418706113774    0.43396654158630
C         2.65415599806830    1.43789546974381    2.33624169579734
C         1.78885628256355   -0.87501679334794    2.70298062112365
C         1.70290305133268    0.55425218153607    2.90040761926473
C         0.60304082070139   -2.84254810771986    1.76856004941075
C         0.58701086239258   -1.66477828682013    2.61418428933743
C        -0.58036379288300   -3.33536207965465    1.22870245191555
C         0.43255399487716   -3.41802642483492   -1.06071671860882
C        -0.64112880438604   -3.69906771965426   -0.17732508765663
C         1.26506653306096   -1.86857185299815   -2.72593826666255
C         0.16891997686039   -2.60255212533563   -2.23535655084429
C         2.25658927508506    0.21577693519840   -2.92827864301033
C         1.09618584368498   -0.55065903983315   -3.25242190820852
C         2.96211693977569    2.13696285990442   -1.61988376865924
C         2.14507209617507    1.59389014042503   -2.63344825296501
C         3.03938581138922    2.85068617622165    0.55824403495201
C         2.23286210339521    2.65286915548609    1.71253795922929
C         2.41401574282817    3.08741967148223   -0.70122167757622
C         0.88647043077667    3.07995247631355    1.70364261703230
C         0.43452737995168    1.10890288662211    3.12618985386679
C         0.05669946412094    2.39557408126875    2.60657132446665
C        -0.70547107132725   -1.07275684450228    2.89768395435701
C        -0.72981836319858    0.29879248020803    3.21968678529155
C        -1.86257689658095   -2.82968339297817    1.61841600555867
C        -1.94561849938924   -1.64874810658023    2.39658953750574
C        -1.93776207458284   -3.47906133353885   -0.60783935162240
C        -2.73383188763997   -3.04048569206718    0.53006303561313
C        -1.16470401381550   -2.09677968676669   -2.48547213925303
C        -2.22397434095762   -2.63487220174459   -1.71099358375637
C        -0.18434644505038    0.02165088143412   -3.39140239664357
C        -1.34558603973965   -0.77054354977256   -3.04681452526189
C         0.87956925946285    2.18933326169529   -2.82720253300812
C        -0.23937351573117    1.43284911108000   -3.30522766789950
C         1.07176511308224    3.51553977767326   -0.75250794951419
C         0.30323443603024    3.62582581197132    0.48494973151221
C         0.38610285065928    3.20216055122370   -1.94690916022609
C        -1.09443833485142    3.63340689761626    0.39132229801361
C        -1.35972586577688    2.41074083768989    2.48189318742366
C        -1.85990958286312    1.13534033380521    2.91950410506006
C        -1.93979003984521    3.06298415143637    1.40783965024033
C        -3.05964574190366   -0.80817685305932    2.10855341785121
C        -2.99198740493067    0.60726134763887    2.34501977773515
C        -3.63404283705150   -2.06714697993036    0.09081027905064
C        -3.36938437523006   -1.84756737044019   -1.32581705138499
C        -3.86428829964614   -0.98181818618717    0.93578387789425
C        -2.53903790931190   -0.07105199390868   -2.75655629561282
C        -3.51377731619070   -0.58206301086581   -1.83493267552852
C        -1.42542039656917    2.09241458501067   -2.87362500666843
C        -1.04125545482299    3.16926322641249   -2.00023906908930
C        -1.78026076712179    3.43007704542816   -0.86513780852979
C        -2.56392151773113    1.35609838326174   -2.61770720311169
C        -3.11277397928334    2.49891009870402    0.79072933925031
C        -3.65138761246913    1.31169279824738    1.27360946532689
C        -4.14125444379348    0.31412196917853    0.36452802374711
C        -3.99819124104020    0.50396135571250   -1.00497801849865
C        -3.00485686417004    2.71324079916762   -0.62545895985805
C        -3.41117933413151    1.71096500827979   -1.50480142376148
