80
C80 Isomer 20441 Symmetry C1
C         5.17665202678136    0.44557279776271    0.51202165491612
C         5.15595851068397   -0.89146416986328    0.19693381806057
C         4.88179020025948   -1.02307070528513   -1.23205210360799
C         4.88563715753780    1.19036428104349   -0.72642634180505
C         4.56610536268439    0.26580950169715   -1.75652466608033
C         4.04418050713676    2.24420236845026   -0.41881187157733
C         4.37118755524141    0.98511751473111    1.55199768154147
C         3.88872744758605    2.23488480692817    1.03360655719817
C         3.50683507193408    0.15833160642163    2.31741798114015
C         4.29787833251121   -1.77243942309992    0.91385437039816
C         3.54500661436451   -1.25621667214042    2.01040828343953
C         4.00079438088039   -2.09830300660238   -1.36954842406055
C         3.67110762469824   -2.62864486870621   -0.05613860325504
C         2.96700346843077   -1.97496087159377   -2.29371594339789
C         3.35999668421052    0.46953365379641   -2.49319536179810
C         2.67537317868498   -0.70818402478399   -2.87815928151401
C         2.91998626777060    2.56968514582577   -1.23413306957900
C         2.55193245938524    1.65242121609551   -2.27628334111671
C         1.92765792861965    3.42226592356110   -0.62481533896515
C         2.78809140777816    2.79856518664497    1.58887344844768
C         1.88828368280735    3.57367316995605    0.78108525563135
C         2.27025489446827    0.73788234049366    2.83664818653184
C         2.02912916482149    2.09325528147541    2.57594999210861
C         1.09478425350354   -0.06253422831978    3.14229329782720
C         2.39823618948626   -1.99763083454786    2.32115845577723
C         1.24754041518392   -1.43603913602840    2.97938976471650
C         2.41945047718585   -3.21194327219471    0.17822334761555
C         1.92414990932815   -3.03538523953236    1.48575200424799
C         1.73391133406564   -2.67984213684610   -2.09005785767833
C         1.43135160435731   -3.32966595036567   -0.88889706731659
C         1.27324908908813   -0.70543918619886   -3.16993965427019
C         0.71690320976133   -1.95186630392103   -2.77503663345758
C         1.17360599556790    1.65786233811986   -2.73765284394409
C         0.49104638395979    0.44073492009096   -3.15173334161161
C         0.69837119302785    3.58625557813069   -1.28296677849219
C         0.34915330258252    2.71075829871316   -2.35828949519584
C        -0.50036195435015    3.93257708127134   -0.61326345887094
C         0.65237285658579    3.60713635299874    1.46948214104889
C         0.71491801386676    2.63337295012199    2.52849547933585
C        -0.55985818679284    3.87454961366644    0.79854372237517
C        -0.26861663425159    0.46821969865006    3.13279285985068
C        -0.41645101603807    1.87288437929306    2.86181785485617
C        -1.41512641118293   -0.37710041834604    2.95820263748317
C         0.12989681748267   -2.27008407213636    2.72151346724550
C         0.54263864794833   -3.23190758422575    1.76096297895498
C        -1.19389450078286   -1.79056138683264    2.77392194129249
C         0.04080672667117   -3.55328675437071   -0.60222302545945
C        -0.35314839969362   -3.68445015715150    0.78291288657148
C        -0.63305394648558   -2.10630727456846   -2.50287589079521
C        -0.96455245552490   -3.10939960407232   -1.52596318108418
C        -0.94225044745307    0.27072374386382   -3.08273031320772
C        -1.51376620128245   -1.01293698414164   -2.82197190059751
C        -1.07929668028756    2.62863969682224   -2.42062560196281
C        -1.60853178392919    3.43436096030908   -1.38289779492832
C        -1.74492024263025    1.45244535118834   -2.84204401962930
C        -2.86178946828850    3.14740851247859   -0.79672958484208
C        -1.73422703926678    3.36642918318580    1.38573434775587
C        -1.64916657988318    2.36890842952169    2.39970812206030
C        -2.92324181374964    3.12759244893669    0.62442131202553
C        -2.70266994488418    0.15578621807474    2.52744990621166
C        -2.79469733425281    1.53097484316531    2.30123159766270
C        -3.65403336773380    2.10008926005471    1.29469450426279
C        -3.70508572589826   -0.68303017804807    1.86279176128890
C        -2.13740602574603   -2.59614494932812    2.12307408810213
C        -1.70353607763470   -3.55132566105939    1.14790933813192
C        -3.41241445449196   -2.06521016862171    1.69872464970919
C        -2.32694661093855   -3.18856603662508   -1.16163532554503
C        -2.68446132191148   -3.57127437862299    0.13368146074759
C        -3.79819669439904   -2.75378659986494    0.54033484299480
C        -2.90657364163301   -1.13696155867303   -2.43867472486052
C        -3.30645998861243   -2.23316558669956   -1.65012699198871
C        -4.27539917287914   -2.05194061800281   -0.59384967158050
C        -3.08683508244611    1.33835865139458   -2.47964709023557
C        -3.67410626244990    2.22242073203307   -1.50067020462021
C        -3.69968680733850    0.03996196691627   -2.34977371750307
C        -4.53365077416019    1.28966231939885    0.59763074438975
C        -4.58591741711362   -0.12555483640641    0.90878882830577
C        -4.83236592710990   -0.80625274449486   -0.34892405570615
C        -4.63762308864479    1.46906026523989   -0.80151192701011
C        -4.71363686677808    0.15313899379889   -1.38291907311043
