72
C72 Isomer 4756 Symmetry Cs
C         4.41941998994489    0.05345105619547    2.08233003267750
C         4.41409800740202    1.20312061968778    1.23953264190859
C         4.64732338714990    0.79069670889109   -0.11707875419943
C         4.41949506248660   -1.09050880294092    1.23200887803460
C         4.65080257082924   -0.66805633250372   -0.12186382928870
C         3.27802652891706   -1.89096198976055    1.53965241078446
C         3.19747862016056    0.04809972447571    2.81729410659589
C         2.50963917007383   -1.16401606585971    2.52280299669041
C         3.26874655715423    1.99588033495723    1.55233674371062
C         2.50384633253790    1.25870198634367    2.53059498586456
C         2.58177700893590    2.69612283910584    0.54392450611560
C         3.96998996707223    1.46947597327957   -1.11318786329104
C         3.04959639533021    2.52286730571336   -0.79002737161829
C         3.41031083887493    0.75622029042680   -2.25354276377354
C         3.97656870503165   -1.34347981326580   -1.12236764684995
C         3.41364113828635   -0.62568717260179   -2.25808877741632
C         2.59446151823028   -2.58798425285228    0.52672343613740
C         3.06136877434691   -2.40344440056568   -0.80604237662347
C         1.19470362441169   -2.89352322807772    0.74543670081733
C         1.10185856457176   -1.18802795365777    2.50805417066358
C         0.44165345921845   -2.22200790214419    1.77311158198000
C         1.09589312593978    1.27590458105486    2.51607973240169
C         0.39393868518205    0.04154599029360    2.72750442031878
C         1.18047554363408    2.99337899415406    0.76467398218226
C         0.43070200951925    2.31145320249252    1.78795739648515
C         0.44093672975971    3.43906770104263   -0.34060776699605
C         2.11545553892982    2.59153842894285   -1.86546906637570
C         2.25134433055038    1.43832794449014   -2.72242165601584
C         0.88015536232094    3.14743131378411   -1.66731756647165
C         1.10410051646350    0.78434938200768   -3.22117175337690
C         2.25810574794461   -1.31045559728429   -2.73149337261889
C         2.12771527663211   -2.46987698985282   -1.88201995760514
C         1.10760296620330   -0.65887238607347   -3.22587360123294
C         0.45738886794121   -3.33548381805864   -0.36283497649982
C         0.89514123597033   -3.03307991243614   -1.68757983537458
C        -0.96200814216316   -3.31436506425854   -0.38476067422947
C        -0.99252537750064   -2.24312132380037    1.78502195763771
C        -1.69527436448773   -2.94487015718453    0.74083588429622
C        -1.01867051170995    0.03817947796368    2.70510984951695
C        -1.69845745078938   -1.20974617316829    2.48480618634689
C        -1.00360635577891    2.32555669886394    1.80001303901879
C        -1.70455834177427    1.28420169380261    2.49298789834153
C        -0.97832925497486    3.41099436211992   -0.36268407190879
C        -1.70984853224910    3.03075234123838    0.76053521779405
C        -0.25261694216523    2.70339773457559   -2.42485727114107
C        -0.16719106357420    1.49364331790039   -3.16241650333574
C        -1.41499652266467    3.02275770969521   -1.67813215048768
C        -1.37025732599517    0.77498810912877   -3.28682310719924
C        -0.16030895685294   -1.37474938656324   -3.17187272570144
C        -0.23990446230978   -2.58982381771949   -2.44231296296115
C        -1.40068458104105   -2.91976806319149   -1.69788173854134
C        -1.36684030956198   -0.66120452174315   -3.29161877386343
C        -2.62646146853275   -2.23230901812543   -1.87222867738502
C        -2.59747823854131   -1.09605839980490   -2.71810241575127
C        -3.06967583700849   -2.66508082272739    0.49680819700498
C        -3.53235649667423   -2.23991088964269   -0.80315714477901
C        -3.12671213240747   -1.18639187715910    2.42189731716978
C        -3.80735521299669   -1.98871929339152    1.45757271090385
C        -3.13267627218293    1.25436062694335    2.42992601333837
C        -3.82387985962704    0.03190900768996    2.52248495212783
C        -3.08285248311505    2.74580561409635    0.51462470322641
C        -3.81723853063384    2.05955258765942    1.47084456331443
C        -2.63743065680267    2.33058691094476   -1.85719118211676
C        -2.60285049679881    1.20007925943082   -2.71040759575112
C        -3.38748636661127    0.04897739445381   -2.38565281061266
C        -3.54342519184111    2.32681137883172   -0.78814042487311
C        -4.50612406932209   -1.18600514119070   -0.61164789697869
C        -4.80571610154492   -1.16773919011985    0.77716966874771
C        -4.88367465290819    0.03274666553153    1.47672075163810
C        -4.81166277007434    1.23816966826673    0.78502262202209
C        -4.35259227712103    0.04322474264952   -1.33598770172884
C        -4.51203454762041    1.26700007860072   -0.60353549084000
