76
C76 Isomer 5169 Symmetry C1
C         5.44295987331678   -1.03071176928172    0.32805702866137
C         5.15540392485654    0.17151370385075    1.05334151369969
C         4.15990217657537   -0.09808025100551    2.03559251789322
C         4.63578227078881   -2.05698739098179    0.84291941502264
C         3.83010545304726   -1.49971238375884    1.90554156109585
C         3.90913864246690   -2.63242912494625   -0.25109168112228
C         5.01853959697367   -0.78602240633991   -1.02740236485671
C         4.07755347474065   -1.77757200996868   -1.40170674275651
C         4.93178626269002    1.21711185639066    0.11135458023498
C         4.66315515298562    0.57927607866515   -1.18151224696028
C         4.13699394733636    2.25741733987134    0.53164374813825
C         3.13760248228190    0.84496016696015    2.30675454881937
C         3.27309886571602    2.10692317457952    1.67962773377594
C         1.81106794044896    0.37684572364468    2.67764969629484
C         2.52416934785852   -1.94234092317735    2.11859444419017
C         1.53880621231837   -1.03166769013448    2.67138228119525
C         2.69393950056813   -3.25921883802293    0.01385589329132
C         2.07348263112763   -3.06374826291668    1.30930773293508
C         1.83575827592603   -3.37798895550242   -1.09772782113938
C         2.93415560367608   -1.44009718608933   -2.17707773165309
C         1.90738469592905   -2.39772442951253   -2.13361106855997
C         3.49709144629894    0.94264353758225   -1.92038944589485
C         2.57934103042571   -0.06302698107846   -2.42389816208627
C         3.38561527998243    2.93441453705612   -0.47559427422083
C         2.96750448178793    2.22524727027163   -1.61548391629689
C         2.09548709552252    2.88090204091332    1.41643256377026
C         2.20659441642884    3.46495411500454    0.13612633472820
C         0.68828261446244    1.27871996643782    2.62404035701365
C         0.82610730844448    2.50514202168430    1.89162921548866
C        -0.64032037300460    0.81327106564838    2.91663311471385
C         0.18684981130876   -1.49942306979467    2.83482521754527
C        -0.89891250321647   -0.58549853486594    3.08517865463822
C         0.75445945062669   -3.45080324048171    1.43970106766511
C        -0.13898338108051   -2.77189134545751    2.32504427017849
C         0.47127115677508   -3.74896737679943   -0.94057742195633
C        -0.03768722282144   -3.92237117972991    0.33112734366340
C         0.57227641163962   -2.09942496649243   -2.52250792271550
C        -0.32007059656261   -3.02215386566183   -1.88053877187137
C         1.18869165605850    0.25598762530238   -2.66322448845257
C         0.18671962437390   -0.77599431572033   -2.77107634276422
C         1.56457451283463    2.51485921007037   -1.83395809623490
C         1.12142175219751    3.34805879658680   -0.76740107251770
C         0.68419136794226    1.57014555059986   -2.35560788801930
C        -0.29942398805928    3.00332898357776    1.14797931259938
C        -0.16432644443257    3.24081405407198   -0.25950590957155
C        -1.73674008345134    1.63860983321481    2.57992064185499
C        -1.56621861341788    2.64658592723703    1.58797167280186
C        -3.08037462493979    1.17302782531615    2.44616276497975
C        -2.23405120336256   -1.03418423951846    2.93654865537560
C        -3.33510829951243   -0.16902632873835    2.62388553786624
C        -1.47033183604709   -3.07883235900197    1.90785068808111
C        -1.41219019120264   -3.63465511893307    0.58241285033608
C        -2.50911231428655   -2.25800618784995    2.25763226869914
C        -1.64950611784322   -2.70481433116561   -1.64395352419210
C        -2.27091778390816   -3.12445515845495   -0.40244940172179
C        -1.22956162762847   -0.51067950924598   -2.74367399791996
C        -2.14339233923355   -1.54146644288517   -2.33274491589473
C        -0.72806753986589    1.81159046895791   -2.14703315533329
C        -1.16117084263935    2.71024007835541   -1.13697677870111
C        -1.68116110455581    0.84920951627976   -2.62872883368001
C        -2.71653164008441    2.71054516278623    0.75386294911485
C        -3.72758986637857    1.89184584147407    1.36122664854543
C        -2.51713032164916    2.68724267678480   -0.65397144420673
C        -4.69969708139561    1.28230860627850    0.58947576776941
C        -4.25227684081038   -0.84984930463068    1.72712337958502
C        -3.63740965056942   -2.09401133479321    1.38239452222836
C        -3.49283766474685   -2.47932648033391    0.02483708953891
C        -4.97438480528228   -0.13899540527244    0.77521239464347
C        -3.50126303796204   -1.23925334378729   -2.12522700595558
C        -4.20767960543291   -1.73086869044030   -0.93600698020169
C        -5.10007857995420   -0.71523067437555   -0.53067353723722
C        -3.04396751341556    1.11616386291959   -2.44320692898536
C        -3.48525923351192    2.06161167378229   -1.44417212334657
C        -4.66978270326170    1.52943568085302   -0.83142947611964
C        -3.99004192280833    0.04167152813390   -2.43438040302747
C        -5.03270625040334    0.34788590600432   -1.50333610249892
