62
C62 Isomer 1304 Symmetry C1
C         4.20807852943254   -0.98892611566723    0.32392215610716
C         3.53088126904060   -2.12872094919297   -0.22394775262818
C         2.57853556489187   -2.56235987940981    0.71878789122208
C         3.60360022542054   -0.66399633460719    1.58776755992563
C         2.58401320964149   -1.60099737789138    1.83227219033756
C         3.25614968064649    0.72015554636568    1.58037444401573
C         3.97290420273647    0.10075306244828   -0.52675298377163
C         3.49779003529293    1.20892782628639    0.24284886720505
C         3.06637552468928   -1.76648731503376   -1.53257301931651
C         3.23302927061749   -0.33326570073972   -1.69227443579807
C         1.89884644985702   -2.34783234308021   -1.96530814634077
C         1.36475932973890   -3.15154063113043    0.29803840895096
C         1.14186887260702   -3.21152091484129   -1.09943839595621
C         0.23177535879347   -3.10979335213036    1.19577038573151
C         1.36220322519529   -1.21865906836318    2.43658285503679
C         0.24289349504833   -2.13218782435938    2.27930234755640
C         2.11717433092312    1.14489388178056    2.28012919704641
C         1.16069588640681    0.17261476126270    2.76402729555048
C         1.66016037760634    2.42997446921327    1.87843999321913
C         2.62662260372917    2.12382735963905   -0.35598555903871
C         1.90677545609079    2.92306894768943    0.56332856883902
C         2.21089271718909    0.46298485854087   -2.21903168438092
C         2.02490597140040    1.80685160135739   -1.65715694007822
C         0.97805744812742   -1.59563023565664   -2.76820248871629
C         1.08179035333132   -0.19904642707665   -2.87572914956250
C        -0.18931115095383   -3.24467642774246   -1.61819421306927
C        -0.29651728825422   -2.25874695986866   -2.66599309528559
C        -1.01174835670555   -3.52700678152795    0.65791037788723
C        -1.24786375186535   -3.48963864065530   -0.77348614570513
C        -2.22609668686153   -3.11668716658788    1.25847840485250
C        -0.99649769914029   -1.68927063071702    2.77992530845222
C        -2.21998498389113   -2.23326366134127    2.31131889215739
C        -0.19266898189884    0.63290673430135    2.97458085508319
C        -1.22734423014733   -0.28515778160437    2.96569985439101
C         0.37036184633736    2.88997881300399    2.25450032337118
C        -0.58522756572194    1.97785225895970    2.66155209463275
C         0.75603434925525    3.69040675277220    0.14174799301022
C        -0.17958231078977    3.71675355151638    1.19362578825789
C         0.90158899611824    2.53018100413441   -2.03214107020828
C         0.29365269051728    3.53338125114887   -1.17030527411068
C        -0.14111256742318    0.52935954009488   -3.12158468355233
C        -0.16910821063932    1.91086378908605   -2.80054958027616
C        -1.46558369072867   -1.54684499480718   -2.82450002585214
C        -1.38676492804577   -0.14505917085771   -3.09041423653137
C        -2.51570901644164   -2.82367887342222   -1.01167731943464
C        -3.13873099093370   -2.59575514833687    0.22808581384620
C        -2.59630378435133   -1.80578175152433   -1.96426563873313
C        -3.11991726484843   -1.13337381744153    1.96722835245861
C        -2.51589169352561    0.04112833967092    2.35191098879471
C        -3.59702975402665   -1.32007846114810    0.61730617840156
C        -1.81754875124228    2.26450471991504    1.91621648070481
C        -1.52631805255806    3.33048770919110    0.99766986801307
C        -2.68740566075033    1.23412597214418    1.57856799323077
C        -1.10095141843982    3.47755070438963   -1.36755231074688
C        -1.36939541706012    2.52035004219956   -2.41939824111698
C        -2.01621441882338    3.23087205541991   -0.31111428989705
C        -2.52937228713508    0.43990917383507   -2.44355675881252
C        -3.17692433955915   -0.54480968342671   -1.62053493049291
C        -3.55459999010497   -0.22081738621835   -0.28933028465255
C        -3.23087868888999    1.11268388878201    0.22461147262818
C        -2.50081763236807    1.75712950122117   -2.04426413231303
C        -2.86199570655695    2.11513369003807   -0.68526641453871
