76
C76 Isomer 8867 Symmetry C1
C         5.46565182601801   -0.16777183490071    0.29548956579396
C         5.25374930490722    1.02688770220252    0.90520250659288
C         4.99387943033383    2.02672382603113   -0.16160482738275
C         5.28856915521290    0.03903289465398   -1.16820872705198
C         4.71308715473862    1.33314787571660   -1.38418103927216
C         4.67785011040525   -1.07574017424984   -1.65097151713982
C         4.71105220481138   -1.32443220838471    0.68624920029816
C         4.48509412932031   -2.01861543920583   -0.53699982388342
C         3.62627157208783   -1.18890548052657    1.60570043541288
C         4.23710783241954    1.18125664257698    1.92032898521181
C         3.33042305991554    0.11345479483171    2.20621842508399
C         4.10314762491175    2.92464072590776    0.35129928723429
C         3.71763177890172    2.47879444197858    1.70777642314306
C         2.92218826141691    3.24578322757531   -0.35713723374341
C         3.41522472724630    1.44301078438918   -1.98013761839406
C         2.54127285458013    2.49363625813633   -1.50338139237355
C         3.43465386544931   -0.99199143857710   -2.35887884900933
C         2.75371444615724    0.24395578073072   -2.49058373960730
C         3.30448551515961   -2.68047867214418   -0.76848677593838
C         2.69160835914622   -2.14038817411237   -1.97665414962227
C         2.54500170008480   -2.11659258317652    1.47183679701186
C         2.44136425403392   -2.93986270365670    0.31460399176387
C         1.31105615425875   -1.90332149498814    2.19233683739269
C         1.95329038657691    0.44594004316528    2.53507458041330
C         0.93874986698683   -0.58155994030043    2.62215372720302
C         2.37432285610312    2.75812876062280    1.86193385750833
C         1.93284923078969    3.43830667222145    0.66901609863271
C         1.48181464788498    1.79153482004234    2.39056182423129
C         0.61167051601963    3.50991714504824    0.36392324310859
C         1.13949368551093    2.46029707302779   -1.80320197547491
C         0.26712593784161    3.30286312021635   -1.01683710956757
C         1.31477351481924    0.16760391665177   -2.63300492560268
C         0.52078673177165    1.35600638064552   -2.45917210908333
C         1.32571973988919   -2.23459388001390   -2.13880587252117
C         0.61470824045184   -1.07969561887056   -2.59932247981895
C         1.22255100187943   -3.56204309167651   -0.07290217240333
C         0.68480789055245   -3.28386029125944   -1.37821219928110
C         0.32459072673745   -2.87569696489732    2.06043140545150
C         0.34096607929035   -3.84366903408436    0.97936522709492
C        -1.04944445106164   -2.58931750205007    2.34649761888608
C        -0.44726557627235   -0.25405683478215    2.77422540541843
C        -1.46690290203926   -1.26503369906702    2.60484469021371
C         0.09626247359270    2.10405894924389    2.25981593499208
C        -0.34202447149861    3.12848561151728    1.36533337137534
C        -0.86464863912474    1.12815021326744    2.66863407374372
C        -1.71459763475809    3.36273986778365    1.07307143242864
C        -1.06531399093990    3.37944997518380   -1.30341356216644
C        -2.05086743197424    3.69343409061726   -0.28174790441331
C        -0.91490325694334    1.29315686079724   -2.57254817067189
C        -1.65051937014246    2.46581093961901   -2.24114586658632
C        -0.82673272987373   -1.14765846091942   -2.54087565009644
C        -1.62719866409595    0.05086800577947   -2.54016227340421
C        -0.67909262659784   -3.45833353945297   -1.59172613105121
C        -1.42885361117527   -2.35040289425086   -2.15593970062244
C        -0.98262961088731   -4.21111104176621    0.69994200984301
C        -1.86301191645601   -3.46310950271678    1.59378914875179
C        -1.48174845625832   -4.07637304569552   -0.59980131898830
C        -2.69803836000326   -2.32407057203346   -1.48301312660878
C        -2.93962654597350   -2.94928668207427    0.84342486939069
C        -2.72600045673934   -3.33597761041563   -0.51487262833807
C        -2.79335711399599   -0.91416539824997    2.17493476665526
C        -3.44018225506120   -1.66571559440258    1.12607038183310
C        -2.20960658370461    1.46281934505213    2.53693035936122
C        -2.66447555653942    2.65096059980063    1.84638624208816
C        -3.18877710448598    0.43145472840638    2.31559533262775
C        -3.95266187885108    2.37259033735867    1.31872283913474
C        -4.23135141540013    0.96317553888632    1.55642948997566
C        -3.29019575618315    3.30015973695943   -0.81562737799174
C        -3.01994658922441    2.45059855236312   -1.98452006919117
C        -4.23371471629684    2.63468367638754   -0.02684294976064
C        -2.98844535329336    0.00762194311925   -2.05455458392266
C        -3.40308077331321   -1.12283687049234   -1.27497668962945
C        -4.00393416915392   -0.92602329013170    0.01982073486560
C        -4.54083688114081    0.34654525286238    0.30430515206975
C        -3.69586336559346    1.22165648661987   -1.81095803625050
C        -4.54671863316234    1.34834796552904   -0.68186569537286
