78
C78 Isomer 16879 Symmetry C1
C         4.72480805733466   -1.38018310270691   -0.12580785981327
C         4.20376925262087   -2.14460287778894   -1.15150983630840
C         3.56239280429473   -3.30463980088099   -0.55899349716932
C         4.15432905545271   -1.88560453379469    1.12655003071363
C         3.38286510216641   -3.03717945852928    0.83065920097363
C         3.56886082357174   -0.79891860958462    1.77047078331505
C         4.55175487584503    0.01168959613872   -0.16833484365464
C         4.05318880825976    0.39873547588078    1.11482049654406
C         3.91155533668600    0.60477789635441   -1.29856521734079
C         3.28214578410419   -1.58403070700721   -2.11302799163704
C         3.05997969283019   -0.20037955988379   -2.16018640875227
C         2.44771053146866   -3.60025729403641   -1.35206720622274
C         2.19136174478525   -2.49269231108249   -2.25581634521105
C         1.37790980999775   -4.17029151748383   -0.71093438733853
C         2.09453085336970   -3.15861909740405    1.42225934404052
C         1.23863709603706   -4.01785666109952    0.70923743882180
C         2.21151007673358   -0.80977271835038    2.24413478578885
C         1.47777414107627   -2.03514939110889    2.12370226122564
C         1.53611751676978    0.44904021364395    2.39943062968874
C         3.46535936766707    1.62842610925370    1.31715589391061
C         2.25655442751231    1.68994537492993    2.11523328065083
C         3.57252814324603    1.92454653884244   -1.08782173998267
C         3.63757352209049    2.52052328350719    0.21304455888273
C         2.49130737324045    2.54556111641422   -1.81969674493375
C         1.73902223204655    0.28825524180936   -2.51071920501393
C         1.47763357237402    1.70802016807320   -2.36884362397861
C         0.87657828715340   -2.04751519032014   -2.47896311206878
C         0.64519290705282   -0.63515742950857   -2.64906254311344
C         0.07874279490480   -4.01721663929242   -1.27392455391395
C        -0.22129212034797   -2.91832250278237   -2.10068714118092
C        -0.14243449463328   -4.08049884410538    1.00792666769557
C        -0.82560793734869   -4.35876861300575   -0.22399713882091
C         0.04865779489087   -2.00699987738695    2.30736888328845
C        -0.71904442487886   -3.16782287241535    1.91235741372539
C         0.10064688177068    0.46430626659033    2.50971801423105
C        -0.64181017617852   -0.76229780482502    2.50833500667215
C        -0.61838298435691    1.70575395928829    2.31459921540852
C         1.54193462393972    2.88822771880391    2.05005395656670
C         0.11413158643990    2.86864035541779    2.09513917531406
C         2.86772820086940    3.68859691802602    0.15042208121261
C         2.19300103600983    3.74111322702499   -1.15851857589792
C         1.92386187192416    3.93552195244850    1.12544484786189
C        -0.36076339524607    3.82807634819345    1.12252065628476
C         0.85982513987287    4.12901781208998   -0.95759311322791
C         0.71748519954873    4.38665526617886    0.45563500603727
C         0.13889349939255    2.19354107616315   -2.33574103474076
C        -0.15595006469113    3.41278640466891   -1.61776306239362
C        -0.72512116262767   -0.16398298872743   -2.67242078749291
C        -0.93597057072866    1.25986563188147   -2.61296728558909
C        -1.58434510716352   -2.43224147022823   -2.11770691371234
C        -1.84293691396307   -1.05183774648663   -2.46350218379449
C        -2.14830899086508   -4.06394674752864   -0.36841438221960
C        -2.56275681211930   -3.15872168054282   -1.40860433542345
C        -2.12870609375410   -3.08817914041932    1.86155324819782
C        -2.84701584356662   -3.73006940625776    0.81727392183011
C        -2.10224835993886   -0.69172595532010    2.42779336940887
C        -2.81496621030755   -1.87858022186197    2.20178215312316
C        -2.03029204359312    1.74854135307589    1.97630019088638
C        -2.78991293863770    0.56379211678839    2.15047011420313
C        -1.54177375232186    3.57884839681069    0.41451395989711
C        -1.44770300282697    3.51710323127066   -1.00370740251030
C        -2.51630715472895    2.78975331204371    1.09975646731635
C        -2.24607251850471    1.72565290189709   -2.49004570475840
C        -2.50188784521042    2.89929889993582   -1.68031119927175
C        -3.18077469708688   -0.53058971840446   -2.22823167244067
C        -3.37092641634627    0.85758993227258   -2.36602954531367
C        -3.75008128501342   -2.51463752677484   -0.91352262792110
C        -3.93907537202186   -2.89675409168912    0.44071781677311
C        -4.03591857361847   -1.87042456655925    1.41606782684165
C        -4.10749758732263   -1.23030433484577   -1.35004607400909
C        -4.09923058901346    0.53771082182429    1.56291196337606
C        -4.59388124745575   -0.70123480743572    1.00411229615329
C        -4.87437447239109   -0.48687869519196   -0.39862974504154
C        -3.73329348845465    2.63999150542107    0.40177998969136
C        -3.71573026624382    2.74263321918957   -1.03041027020669
C        -4.35208803966976    1.54888283081886   -1.57458824695847
C        -4.55853215958761    1.55211380609313    0.72056112921893
C        -4.98884471258578    0.90435023359272   -0.53710051639307
