78
C78 Isomer 13629 Symmetry C1
C         4.54371937618372    1.98250189064695   -0.78234438211730
C         4.98412091688521    1.26968063056295    0.33496105175899
C         5.12510549124283   -0.11594644542523   -0.04597504839427
C         4.29200874239215    1.00820948753979   -1.83717771255353
C         4.60984982701979   -0.29021983229808   -1.37228628876330
C         3.02170228538547    1.26382407696667   -2.37122866865863
C         3.41901704871130    2.83833685753637   -0.70343382194521
C         2.50414362035989    2.47021466885259   -1.76274696793844
C         2.86440212610289    3.09829777849813    0.55240146443697
C         4.23753238825109    1.31336611259915    1.55641226256417
C         3.24576464903411    2.27739124035065    1.67758841947287
C         4.59803101936869   -0.89545378488493    1.00960692061626
C         3.93801737213333   -0.03505995551860    1.98071223766952
C         4.04289152794091   -2.10436496503374    0.68204267857976
C         3.75313502077330   -1.38238687738149   -1.67902662270243
C         3.76894630266600   -2.42307792866176   -0.70696336040691
C         2.14146216086192    0.20583900936849   -2.69579549594853
C         2.51367988896105   -1.15287310254980   -2.40209122717787
C         0.76893784869568    0.57191917213526   -2.89055823307519
C         1.13391335823887    2.67137367725929   -1.66228212017026
C         0.26874751672358    1.83079322836842   -2.43936775069224
C         1.46498122957618    3.33459727486839    0.64596126682258
C         0.59749246331684    3.25373295431209   -0.45452636102375
C         2.05267196631505    1.94753189062817    2.39270983512707
C         1.00797652366415    2.76119889561377    1.87786853497116
C         2.69422296180786   -0.40508326230259    2.53261501195611
C         1.72991041278981    0.64431354213632    2.81382855229925
C         2.96082219449712   -2.61895768774145    1.49033340759638
C         2.20072059641028   -1.75789111552760    2.32893750096067
C         2.73573887883228   -3.36258068901070   -0.68380200233463
C         2.30792286383031   -3.56687502568151    0.69434547682649
C         1.43896536557014   -2.11983723804723   -2.32185977482237
C         1.58426329636891   -3.23932744228279   -1.46641934093578
C        -0.17394036651375   -0.46673014356137   -3.16151929000175
C         0.10184338546757   -1.79021613324612   -2.69655898428893
C        -1.50036843725889   -0.07971304845367   -3.40678240301048
C        -1.14140675144550    2.08916701338170   -2.36494941058950
C        -1.99505240753605    1.21522193793729   -3.03913651317413
C        -0.80291602668099    3.21208998173963   -0.19349776020359
C        -1.68947905524994    2.87978366844059   -1.27400500038080
C        -0.32355651603126    2.49342424935864    2.10878205447586
C        -1.24914561609051    3.04302632149548    1.15787393510633
C         0.34905456515672    0.35022651120713    3.06738625197548
C        -0.66948502065536    1.34583080355588    2.89152174500105
C         0.80716231416032   -2.04424406510883    2.49247540639919
C        -0.06184255075642   -1.03424645771528    3.06058817252773
C         0.92544977614681   -3.71352721024442    0.71380371189174
C         0.46029687394197   -3.65141205833209   -0.64377962610243
C         0.17084221436731   -3.06013888277658    1.69874722978959
C        -1.01627359397947   -2.54588420510731   -2.16182018093319
C        -0.83207608000604   -3.27721705283539   -0.93877497172015
C        -2.54761287245241   -1.00934363950736   -3.22783677409318
C        -2.32193758761118   -2.13926665977311   -2.43085378480329
C        -3.38660055343289    1.05101120036831   -2.65307004062335
C        -3.70787652674410   -0.33054206037706   -2.73212244712017
C        -3.06180816228378    2.77660819282784   -0.98621484526043
C        -3.90687714879274    1.78185906320066   -1.61211655852065
C        -2.60338164441368    2.82757911199753    1.41285347129044
C        -3.50608897478558    2.86856413051872    0.35010595745924
C        -2.07147222166351    1.03483446785402    3.02472585929817
C        -3.04027392480218    1.82788110717241    2.37134376288052
C        -1.41242534487525   -1.33194374224969    3.17846560607811
C        -2.42568975624415   -0.31053118785856    3.30190237401919
C        -1.24342793031863   -3.06069568154842    1.45241488302454
C        -1.78973147891258   -3.19065609019182    0.14235455676129
C        -2.00934525118991   -2.41736803065435    2.43903341112295
C        -3.37153228532915   -2.17826412904954   -1.42479477600463
C        -4.22715170547427   -1.03714564751985   -1.62050059288509
C        -3.11060759698679   -2.67337697233398   -0.13663179790590
C        -4.71015173575721    1.12556951436504   -0.58980631643072
C        -4.51839371723135    1.86327265873038    0.58829429956114
C        -4.25798557124047    1.26057335675127    1.84615702879836
C        -4.77681337935650   -0.31133383072323   -0.52210655358303
C        -3.64031987517029   -0.83492452044800    2.82339392135478
C        -3.35227048764345   -2.11032718237352    2.21339920566010
C        -3.89990839422014   -2.12621495396990    0.91582324386250
C        -4.47997931135456   -0.11678322928581    1.94840661039800
C        -4.67326050966048   -0.91266351155321    0.74958648690149
