66
C66 Isomer 380 Symmetry C1
C         4.93690096490554   -1.15990297144034   -0.15852796156565
C         5.01478851626431    0.08982533731438   -0.69240352554853
C         4.48938645680915    1.04747077480604    0.29220811046373
C         4.32898684276089   -1.05510831527283    1.18277493742932
C         3.98516481928930    0.31420502501569    1.43912537764663
C         3.30060636516708   -1.98385373867839    1.21043971803002
C         4.05949781469667   -1.97574304205529   -1.00733660310631
C         3.15991914697298   -2.57089166643624   -0.13794711454106
C         4.15965824202512    0.12820464927391   -1.89261492028015
C         3.50112978692295   -1.14485850767038   -2.05001876468552
C         3.58638402880410    1.83081985071139   -0.40772383713460
C         3.35587542066477    1.24588776188099   -1.74388225988821
C         2.50585912291000    2.43067332827517    0.27952465715842
C         2.70543316385782    0.64142499503538    1.97963799028205
C         2.11394288685856    1.89041200504993    1.55432775496012
C         2.11932490581269   -1.72726652520115    1.96059698407487
C         1.78795476270145   -0.40317523254497    2.38427095633654
C         1.07573784007162   -2.61637362080184    1.69439117014365
C         1.87236043909021   -2.91346821080757   -0.60180706050083
C         0.99238809205585   -3.27104207619810    0.42630459047181
C         2.10286334139448   -1.19879950126004   -2.32913097150998
C         1.32733580151155   -2.27554725297879   -1.76166022986201
C         2.03274259809312    1.25085279479088   -2.25894019704074
C         1.37660560238340    0.02478935778635   -2.60345209468126
C         1.51693546420211    2.96735801939704   -0.55420274317137
C         1.24977545684797    2.32578429179655   -1.82432873191621
C         0.27988253543261    3.41785478280457   -0.03714970763646
C         0.81488890472333    2.19041280818642    1.98563390244630
C        -0.04061247638232    3.10029879210632    1.27885556014245
C         0.38229705270625   -0.12386049185253    2.65518981388303
C        -0.03204256405676    1.21083667516338    2.58524933160431
C        -0.26393790351306   -2.39826461049771    2.13129840819935
C        -0.66897390589346   -1.12467083650162    2.55839181927565
C        -0.36241918709563   -3.53659372158995    0.13966902626227
C        -1.11120539451089   -3.20829137832069    1.31559005086000
C        -0.08595328020792   -2.34101135959395   -1.96913507685450
C        -0.88147197416902   -3.23244837632850   -1.14134504615240
C        -0.05629835790383    0.01871315882900   -2.71275783712680
C        -0.74687822696100   -1.23452308082155   -2.60086226615109
C        -0.13598368228092    2.37004244419241   -2.06666329238404
C        -0.72327390000503    3.23379416772637   -1.06198401161753
C        -0.82150485672070    1.24220643317638   -2.55474688377440
C        -2.03651723060698    3.11417906335986   -0.73225830605152
C        -1.40269399011279    2.79743013641302    1.61182688864296
C        -1.40930205709182    1.59109958577460    2.38038180156074
C        -2.41264968806715    3.01656912758245    0.67154791071714
C        -2.07607025544581   -0.76363070185340    2.36126599619337
C        -2.44512049096637    0.63788544794579    2.26467098779440
C        -2.45480123215890   -2.92458971861607    1.21052664860049
C        -2.96047001906777   -1.69916769510143    1.78398154953334
C        -2.29462965192178   -3.19024216037755   -1.21203625758932
C        -3.08045065816365   -3.18288561702760   -0.02721940416734
C        -2.17166526516642   -1.22459828267474   -2.64452103230329
C        -2.91839928678489   -2.28175505535000   -2.11910107872249
C        -2.25978893602511    1.22831145539961   -2.35479095013214
C        -2.86746827172514    2.20505507581232   -1.49835555001921
C        -2.93600523283884    0.00674820369351   -2.48607834223047
C        -3.53880566783976    2.18908262789042    0.71727157597408
C        -3.58702340788424    1.01316219758958    1.49188583366554
C        -3.91224008588924    1.81941874480098   -0.64494037028702
C        -4.07664626667910   -1.30393768992406    0.94293352057674
C        -4.13554265762824   -2.20010187689749   -0.17988127604091
C        -4.09257331522696   -1.71120463266445   -1.48019146633496
C        -4.10797788004638   -0.30767013454063   -1.71684176204410
C        -4.32994931727295    0.03333418827365    0.72202603265967
C        -4.45827980162504    0.52533477402546   -0.64096197253661
