78
C78 Isomer 22244 Symmetry C1
C         4.58638897754263   -1.48977896626374    0.67027958123621
C         3.63133764214201   -2.16490202520517    1.45242910615586
C         3.13559510001240   -1.20943471326800    2.41818311385660
C         4.73721104991154   -0.14762544809876    1.17361315680560
C         3.78529261884516    0.05466559141484    2.19056972820929
C         4.83367804550265    0.74788817544157    0.08519165011213
C         4.42915259814248   -1.38576264021636   -0.73232025751557
C         4.51280312435981    0.00516691785263   -1.12256583388977
C         3.49316313640170   -2.20330373055751   -1.34411254702718
C         2.74395871315984   -3.08574473262468    0.83810079128536
C         2.74678439403794   -3.15145913241218   -0.58298896802771
C         1.50410460220901   -3.28035401439106    1.48852210958686
C         1.81387345589032   -1.25189920636821    2.85811884602225
C         1.06923295089067   -2.40699023089805    2.51541166223504
C         1.08373647501141   -0.02739125766570    3.10930163156258
C         3.03913739189380    1.26333937201089    2.25569320865215
C         1.67494383731897    1.21811638198564    2.74210124354272
C         4.32223430019347    2.02305923274356    0.28299019673919
C         3.41557135962645    2.29557283806102    1.37522914459000
C         3.80798746928810    2.66985831435390   -0.86621094769010
C         3.61047403507982    0.53681380900091   -2.07238071358553
C         3.36177061517083    1.93178800390432   -1.96796649121684
C         2.62029693581231   -1.66928264961714   -2.35897239638290
C         2.56549713518576   -0.30950634708989   -2.66186658568316
C         1.52212297430011   -3.39323400974131   -1.28717918041425
C         1.44296124425841   -2.47445525440875   -2.37199298544899
C         0.33581230925682   -3.74660799583687    0.79095566943923
C         0.34690874028927   -3.79796261718298   -0.62590062748451
C        -0.36102322361979   -2.40550463889987    2.51163099463187
C        -0.81489495995872   -3.28609708422405    1.47129891429654
C        -0.34127328126819   -0.12848198153849    3.31220574244448
C        -1.10426974493057   -1.31140862073569    2.92743300840900
C        -1.05140121187148    1.06719160809243    3.40222664702864
C         0.80324215072600    2.32166252155246    2.41222869454513
C        -0.51595518788857    2.25970400362821    2.81829302170388
C         2.42362945646632    3.23781657726200    0.87965625739646
C         2.72199284505890    3.52683497057813   -0.45437523318837
C         1.08278878087349    3.21420285938567    1.31821318765593
C         2.07120410958474    2.46601316340701   -2.35711292830719
C         1.69267340901850    3.47133266552524   -1.41402682158481
C         1.28119788299871    0.23209609953950   -3.09255109057049
C         1.09386825246043    1.65480019828202   -2.94534533426656
C         0.21736863000569   -1.98240971286654   -2.85164936818702
C         0.11662353183069   -0.59443935674681   -3.22230674641746
C        -0.86979800257453   -3.53437489863406   -1.27505820551623
C        -0.92931297647025   -2.68266101372926   -2.42177930133247
C        -2.05395030555388   -3.07555458261250    0.83519598090130
C        -2.08577249470972   -3.35426154840162   -0.54675380237546
C        -2.49232776323228   -1.23403648244378    2.48442965536041
C        -2.96131032974981   -2.09463095908564    1.40460767481265
C        -2.45038894719456    1.08606131568080    3.20669828721257
C        -3.17140927669659   -0.02632685143742    2.71123633732577
C        -1.57514512521341    2.89780002190418    2.08105521914389
C        -2.77409996783956    2.21783764026171    2.41089128037762
C         0.02365140972495    3.57516243592302    0.41093825611143
C         0.36050887253682    3.62762399291063   -0.98553803712690
C        -1.35341257537330    3.34432282978089    0.77154002617911
C        -0.21692254265589    2.16721714668143   -2.86247715074395
C        -0.58724211425434    3.14878317173561   -1.89492312721088
C        -1.22898288567073   -0.02622455610928   -3.28040175724710
C        -1.34825886672674    1.35908829740025   -3.13161433430985
C        -2.23431467899904   -2.11975148421690   -2.49920766810332
C        -2.98428825968843   -2.64080538152751   -1.39454748338454
C        -2.41674301061312   -0.80275174989244   -2.96154757747521
C        -4.02383117366586   -1.65271757313274    0.59929954543908
C        -4.01629084102925   -1.91726307431285   -0.82857008825721
C        -4.12936298611236    0.49799802816068    1.76379452484218
C        -3.75744963895833    1.86013776284240    1.45811659665140
C        -4.58393612310965   -0.32953331261302    0.76075034652205
C        -2.39100684952062    3.05393089976828   -0.21852921169629
C        -1.94980566973899    2.95244258336423   -1.54153279529454
C        -2.46494194031814    1.96792827562006   -2.45580698307789
C        -3.59808546945571    2.30562938384424    0.12428607547091
C        -3.59939462487608   -0.15198189393464   -2.48869507774852
C        -4.41625489055569   -0.74922456251752   -1.51054623766677
C        -4.78138538702903    0.24408225071254   -0.51929929512882
C        -3.57756155537043    1.25228502182754   -2.14748725643399
C        -4.21097568052526    1.48088192901855   -0.86757666747503
