76
C76 Isomer 17019 Symmetry C1
C         4.33946909785079   -1.29099553579341    0.88761144329822
C         4.07217514023779   -0.10240507962089    1.60404166173670
C         4.44992354131368    0.96876519272842    0.72492010864719
C         4.60866003627066   -0.94078504913278   -0.51939389699763
C         4.64181032313233    0.41990398790813   -0.62589603481708
C         3.76634529160626   -1.71695998519953   -1.35838459120815
C         3.43519338825975   -2.33747082259863    0.87154867723108
C         3.19759701897593   -2.72114448788290   -0.51590734319965
C         2.34963663350748   -2.34374709437076    1.79203039385686
C         2.88171004570648    0.00798177722027    2.38975469489952
C         2.03472415815394   -1.15511185762023    2.54208513730130
C         2.31030835574807    1.32868117612696    2.50556523726842
C         3.64941070630411    2.08221303878350    0.58898369672448
C         2.67999132899973    2.38301703782895    1.58702959651293
C         3.76326362268682    1.10531440468765   -1.52930228385182
C         3.31058862878444    2.24516999408481   -0.81649264804198
C         2.94735521425454   -1.06539630375808   -2.32622272517220
C         2.86644467172037    0.38492870243037   -2.37220751056950
C         1.80180723150246   -1.79061253662346   -2.70077837954102
C         2.02751696344494   -3.40170894615629   -0.86668974924403
C         1.40317747564168   -3.00441164280147   -2.07213091514084
C         1.32851177517922   -3.24991761415159    1.48070990528436
C         1.19692582583049   -3.84733372122078    0.19112578842354
C         0.01758651483214   -3.14755295319393    2.04917937680052
C         0.66239366212597   -1.00457132726892    2.98997682482047
C        -0.36979988776984   -1.99342185899748    2.73495906056852
C         1.02880062719444    1.43224228123024    3.06494107878881
C         0.22989954155679    0.28595607568518    3.30900702765020
C         0.13836876028295    2.51926427796111    2.77570036880777
C         1.74858887521563    3.35175203905223    1.20627176213720
C         0.47830782239298    3.47818370274425    1.84851982381448
C         2.16298234484862    2.93320902808077   -1.19518153575385
C         1.54520094688143    3.69825835016546   -0.17898159398178
C         1.62503884377007    1.03116466519188   -2.73197565513479
C         1.37473952326228    2.37895331465888   -2.27645797261938
C         0.61706116006097   -1.14501543696476   -3.15122285746800
C         0.48123940119720    0.24351947916684   -3.14561686244778
C        -0.01093699724696   -3.15976101725324   -2.23679623981356
C        -0.49914727764599   -2.01144907188336   -2.91650255836558
C        -0.17973835115284   -4.14096739378967   -0.02978614040364
C        -0.87079916501339   -3.86753256414924    1.19607408716589
C        -0.80138400750395   -3.82229640506091   -1.27123787474680
C        -2.21737466089219   -3.55611512639634    1.19447428872579
C        -1.78554866496262   -1.62891635965516    2.69210533892886
C        -2.68182105083323   -2.44572826248394    1.98878715909492
C        -1.15555814804185    0.67794475052730    3.21502603921029
C        -1.21323409861363    2.04617103210457    2.83653954550513
C        -2.15693832968624   -0.23765318037493    2.87497410085176
C        -2.20287483463432    2.54523961642558    1.95930320925280
C        -0.49900336258226    3.96940339193933    0.91187453532372
C         0.21106779827376    4.14301406120015   -0.33078502805241
C        -1.83443685693187    3.52725829405845    0.94944848342742
C         0.10889191550546    2.93534046057899   -2.46674381245691
C        -0.43192167368437    3.90457521925772   -1.54548215711079
C        -0.87512193474037    0.75404047075133   -3.12460215784054
C        -0.99607769756384    2.14430529612789   -2.95843580326800
C        -1.80148608152771   -1.50821177580671   -2.71095574232590
C        -2.01150446342623   -0.07853885994233   -2.80194821644894
C        -2.18066031553739   -3.47620510242029   -1.25284402089844
C        -2.90275024627819   -3.55465808840454   -0.04673568357500
C        -2.67561715037751   -2.32256856456110   -1.97238380779704
C        -3.79043212674018   -1.85746532468465    1.25089349107766
C        -3.86122045124891   -2.48541066051882   -0.01495326742635
C        -3.72697881204737   -1.72459435626061   -1.19551858685030
C        -3.26915211072041    0.31871909999686    2.19904669416511
C        -3.25774139967714    1.64684755534043    1.69700518995396
C        -4.02152655337501   -0.50019781410655    1.28747656363986
C        -3.14674693802321    0.48236199438826   -2.11520106438242
C        -3.89856276512413   -0.32452961171053   -1.17189859282030
C        -3.87975286850824    1.59822575423681    0.39629012856634
C        -4.23113242431906    0.24180465865598    0.08296543472841
C        -2.52226029063796    3.49393769658765   -0.30899400196731
C        -1.82921704496071    3.73452657409660   -1.50145654919219
C        -2.17998750250081    2.68718000250189   -2.44486338427907
C        -3.48076666755480    2.44402687381542   -0.59912311687231
C        -3.18050100042795    1.87796046449168   -1.89915559210721
