80
C80 Isomer 13487 Symmetry C1
C         5.64476194083164   -0.49213218929435    0.31391059205893
C         5.23624306014237    0.48564079704613    1.18825772899317
C         4.98414871733442    1.71893522786548    0.43595349794217
C         5.52624724582462    0.08570304544105   -1.03516070120266
C         4.94074448414352    1.39373599406428   -0.94189548631353
C         4.92379560557998   -0.86523309794345   -1.81963322790496
C         4.98406065811452   -1.76409534026777    0.33319607052170
C         4.74961237982911   -2.08639056766682   -1.02959729316101
C         3.95313620916958   -2.01267397600566    1.30435711195638
C         4.15514440693261    0.30459669076863    2.10937871950544
C         3.48710356878288   -0.95120536521228    2.18526586602985
C         3.92911871224251    2.37835724014483    1.07458291116256
C         3.41769680563895    1.53192583621111    2.13909121431986
C         3.00389783846429    3.02009742834746    0.27348952857611
C         3.76028382096933    1.70127123678979   -1.70052483922007
C         2.92305793609747    2.67869906692202   -1.11818674550291
C         3.69653529958869   -0.61757487148070   -2.51893320710711
C         3.08302214405445    0.66467493798427   -2.47486697889419
C         3.55357212917318   -2.67375755504775   -1.44723434218583
C         2.89837486096213   -1.78975252099448   -2.40347218178025
C         2.96811674533659   -2.93913859807473    0.90182612806936
C         2.76744708437958   -3.27177001938527   -0.47717586531761
C         1.68144930738192   -2.99111717001669    1.51855073138770
C         2.13156169978521   -0.92619835238222    2.67443143385266
C         1.23587295209721   -2.03821816335792    2.43152126387225
C         2.06910224521913    1.56871001351640    2.49247926115509
C         1.50638588048113    0.33260661349255    2.95560923893636
C         1.67820140670527    3.21988264597953    0.76287144737339
C         1.18756897733349    2.55848011670825    1.89925327624732
C         1.55713993335068    2.80533644579568   -1.48706321553096
C         0.82057194723150    3.31477187258059   -0.35908453937977
C         1.65999526039805    0.70235779996576   -2.69162042992484
C         0.92247154425483    1.88136678674879   -2.32204468403097
C         1.50444468176203   -1.74613820126776   -2.49105210078252
C         0.87783929052015   -0.49962038322385   -2.80453944606588
C         1.36889154870609   -3.40797571903990   -0.70780578382752
C         0.73341854981205   -3.46666335470156    0.55319135007834
C         0.72577134549958   -2.71713892462805   -1.76884418900018
C        -0.63396927610177   -3.28318303161619    0.67079221625949
C        -0.19979385837299   -1.96348376049428    2.65131918333972
C        -1.15970013226271   -2.70248984513554    1.86046003780162
C         0.13640460448876    0.36408723133644    3.24149706150199
C        -0.68745779908588   -0.80512946211838    3.24908718761253
C        -0.23948575064280    2.45496868173139    2.02537995824950
C        -0.70449519340263    1.45841709404242    2.90514991848529
C        -0.55007705863559    3.17668401350193   -0.26316872813975
C        -1.14811827266154    2.89287170691591    1.00620847522187
C        -0.50131290629995    1.92658894086360   -2.37611436447065
C        -1.20830983943501    2.78082154035298   -1.47028613812312
C        -0.55535804610861   -0.46315752147876   -2.85998641057004
C        -1.21921607246474    0.81414740743368   -2.92009226910476
C        -0.67429871404857   -2.60160020904934   -1.70691713572950
C        -1.34890181425056   -3.14866396907600   -0.56613256919474
C        -1.35094548537186   -1.58671898165036   -2.47527867231996
C        -2.71801552027468   -3.03076529473291   -0.46171581963924
C        -2.56432272232336   -2.41684434230261    1.90249139385286
C        -3.34627919024251   -2.87309237742348    0.80523393998541
C        -2.04632002765922   -0.39750316517021    3.11442177181417
C        -2.05222059475696    1.00188007213828    2.86556934040650
C        -3.04173172456347   -1.23463340278138    2.58309550134888
C        -2.54921172572872    2.54003897314716    1.03984616168155
C        -3.02491045477404    1.59505642329584    2.03475258601015
C        -2.59642510366344    2.73084121257199   -1.40937995288940
C        -3.29917913553687    2.66958379762764   -0.13924000655885
C        -2.61925553468580    0.85977186043081   -2.93774100282781
C        -3.29327187402279    1.94959248944044   -2.33478879788131
C        -2.78913937385693   -1.50410260912251   -2.39968308991110
C        -3.49219491086560   -2.36599737132221   -1.48883877359669
C        -3.44251200229526   -0.30597958390484   -2.73091191386711
C        -4.62061529916542   -2.30796632888902    0.51808626992531
C        -4.71796298085145   -2.02456508674267   -0.92780826115157
C        -4.21369781608181   -0.56504419132846    2.14164471445339
C        -4.18166566665721    0.82801703116908    1.80788153469574
C        -5.06776903913223   -1.19285196746204    1.18568949569958
C        -4.50595353158113    1.92019894056536   -0.37172958647025
C        -4.50458907511887    1.47389998664521   -1.72208406665629
C        -4.66603366242598    0.10685905670391   -2.05740368615210
C        -5.27597302005312   -0.72589326871414   -1.10520933521317
C        -4.98246318820826    1.02745985887188    0.60492339428057
C        -5.52305943494915   -0.20147597465199    0.20449832293539
