76
C76 Isomer 5256 Symmetry C2
C         5.21457055409052    0.11431505929837    0.38870391534475
C         4.85727921179148   -1.14522528589621   -0.17216480295145
C         4.05371613872475   -1.81947207464494    0.77695805556881
C         4.49622545708839    0.27435243684503    1.64546007143685
C         3.71526663600986   -0.87404387320342    1.84651572298189
C         3.81702898660916    1.51621805924306    1.62188659169607
C         4.72245274613235    1.11136712758661   -0.47178433309926
C         4.00973162940769    2.06567142288143    0.29971373133395
C         4.28133616990334   -0.90983830869348   -1.47198298954244
C         4.05481257800889    0.51452832595982   -1.61001451094710
C         3.29891902372172   -1.77784354154459   -1.88467433824917
C         3.09437401677937   -2.73640486324920    0.34974747342362
C         2.89471760622627   -2.86650537514146   -1.04889564654262
C         1.98170211333418   -2.98838934854105    1.23241569870069
C         2.36440592405174   -0.80133018736605    2.32651193362598
C         1.54017331601809   -1.95898629387810    2.14316960889947
C         2.54037034925015    1.63365012455497    2.23223540162465
C         1.75897308905642    0.47006495526610    2.57942744982953
C         1.87444512306655    2.80703117653493    1.88049727484809
C         2.98316464108268    2.78355610086930   -0.31149361786015
C         2.19143310118146    3.46639651011649    0.64338456578145
C         2.81000437303446    1.01076419594127   -2.04037938742852
C         2.34399841064839    2.28428521968976   -1.50881119680761
C         2.11342192038879   -1.29013095783271   -2.54587108643109
C         1.81458228017449    0.07795078749280   -2.55980764493521
C         1.61709603417889   -3.28374743174764   -1.52606880933109
C         1.08661773865471   -2.26898052778354   -2.40415694679462
C         1.03716913567742   -3.89861895234277    0.73467297666237
C         0.77650916289508   -3.96340840961101   -0.69887567318783
C        -0.19974345274888   -3.99060085278873    1.35854170455962
C         0.15091745995465   -1.86552300510703    2.51593162364877
C        -0.66043777461905   -2.98564012916495    2.22952473148149
C         0.30851385803387    0.59626192322490    2.67573573437847
C        -0.49451568915599   -0.57867285665267    2.69433499211206
C         0.47448566007750    2.98733228043126    2.13480851580841
C        -0.33686234281667    1.87683803039446    2.45657287498130
C         1.04184588817186    4.10543386162716    0.20907188268601
C         0.01395592424485    3.96418260129704    1.23233848827018
C         1.02332340985338    2.71480327255915   -1.81119113005655
C         0.46014947767863    3.77705510038810   -1.02770056310820
C         0.42565107404082    0.42677440385806   -2.67312869346574
C         0.08714595816602    1.80743407611055   -2.46294426329541
C        -0.27251039952206   -1.95277684285389   -2.40327031839069
C        -0.61097417788333   -0.57944541905041   -2.65717593990073
C        -0.64568083033415   -3.87571567040463   -0.90625232470008
C        -1.22758980576472   -4.16445590849242    0.34035715747117
C        -1.20876199815956   -2.83890722283226   -1.72302372644133
C        -2.06034672548932   -2.81365997268134    1.96969486818376
C        -2.37730077001358   -3.51218749716961    0.75403682451703
C        -1.94496127899793   -0.45566172975430    2.59397442849356
C        -2.72634121558742   -1.62971266041154    2.28380313193262
C        -1.72611748098929    1.95833629562072    2.08093376104184
C        -2.55036865486064    0.80708653805830    2.30083481221401
C        -1.22283496051410    3.85207124185087    0.61144592566492
C        -0.96207118962987    3.87121327607880   -0.82339015879853
C        -2.16747949039374    2.95826301007191    1.13782038633308
C        -1.27197198816826    2.12345700991509   -2.47398896688267
C        -1.80261891470428    3.16573669659685   -1.62870733962569
C        -1.99983952082949   -0.22718539850657   -2.55499394869500
C        -2.29870345119132    1.14059630631938   -2.58456554456110
C        -2.52945434835156   -2.39899154920541   -1.43452647603005
C        -3.16878820472428   -2.85986740526150   -0.22201848866340
C        -2.99546808853576   -1.14302451183146   -2.00641369197020
C        -4.00295028090741   -1.53173306071006    1.66998052408077
C        -4.19552682891872   -2.12297674115585    0.36591727484600
C        -3.90114872740569    0.86442042410151    1.81856145125853
C        -4.68215362014830   -0.28972695728741    1.65411796400837
C        -3.27994790791399    2.67823506865537    0.26340983386395
C        -3.08025059630356    2.76382072235616   -1.13861598670335
C        -3.48429010131645    1.64911026368976   -1.93940096816830
C        -4.23939080961045    1.77545753447567    0.71949749872950
C        -4.24025936531452   -0.63334962203487   -1.59215387888874
C        -4.90808776839409   -1.19365215714385   -0.43556998076350
C        -5.40016849398109   -0.16973069152418    0.39271800736134
C        -4.46675352867226    0.79471881710070   -1.49944537435978
C        -5.04281539453712    1.07133303643943   -0.20780612210770
