80
C80 Isomer 654 Symmetry C1
C         5.79119276156582    1.30896479002003    0.40827426457335
C         5.94442498865812    0.76363814002787   -0.86895189624918
C         5.58413786860575   -0.63209124728330   -0.82681197087134
C         5.23787245114128    0.27736860859054    1.25899880514267
C         5.11079741632944   -0.94204423963549    0.48947041609736
C         4.07449111105469    0.77519208879316    1.88083387707996
C         4.79736944510478    2.35841921128515    0.31493873837323
C         3.85608045909652    2.12246460859867    1.32721242458031
C         4.99915240450936    1.41394455443477   -1.76110034499934
C         4.28891623383805    2.42324059754741   -1.03575261690383
C         4.70631937827082   -0.85813102720003   -1.93032201899154
C         4.25126032837912    0.43369725728323   -2.45022526130269
C         3.77771029252080   -1.85305027841852   -1.78919773856536
C         3.95715667939788   -1.74736721011472    0.66475926604301
C         3.49693801394051   -2.41570087641569   -0.49686602156261
C         2.94924246161925   -0.03941548978690    2.14825237340192
C         2.91347441082218   -1.37518171104106    1.61167744883434
C         1.70711718934585    0.62695766549115    2.46716395527171
C         2.55351615099934    2.55643014468362    1.14601051317809
C         1.58976654932618    1.99225121327227    2.05044824913496
C         2.91133051607996    2.59642617930623   -1.26352826517531
C         2.10391923894072    2.97681071617666   -0.14144429532681
C         2.87644355722783    0.62983113369689   -2.73611900546340
C         2.20838838378814    1.80758170738917   -2.25317210267399
C         2.52935508604983   -1.77584825395210   -2.49784334165254
C         2.05123990572670   -0.53643003003500   -2.94631006563246
C         2.18575122305535   -2.93590477084887   -0.56325243862351
C         1.63023697512621   -2.67415404543647   -1.85581171090397
C         1.64986051881158   -2.02820321906547    1.60055994934664
C         1.30360117427074   -2.90891368483273    0.51681396427524
C         0.51132528295933   -0.09533929729763    2.70799717320734
C         0.54196282850581   -1.48779029133633    2.35547838660792
C        -0.78362609870534    0.56624176134759    2.80394974300468
C         0.34835117178838    2.56639405789486    1.99453623628736
C        -0.81277519498727    1.92728849206259    2.49848365314106
C         0.72068265617568    3.21195885192802   -0.33039312048786
C        -0.04630145363539    3.32463335279711    0.83900289283713
C         0.78329766441043    1.91106197769268   -2.36608287132436
C         0.04313660156151    2.81722119877828   -1.53422460437823
C         0.63862071316455   -0.40992916769020   -3.11458426369427
C         0.02220281216243    0.87434679054910   -3.00990879666349
C         0.26717092442050   -2.62767363749392   -2.07789354933903
C        -0.18125817919165   -1.56759571042903   -2.92701382760646
C        -0.05320887547504   -3.27442038636698    0.23352376767472
C        -0.61060204409581   -3.17783777066874   -1.08198872806074
C        -0.67185335192782   -2.16349455423292    2.32501083336044
C        -0.93809756605211   -3.17321445525831    1.32545709339917
C        -2.04981031057733   -0.13242939779155    2.69606272754161
C        -1.93875884362560   -1.53695028489874    2.62676487667915
C        -3.25382234527109    0.49089067601130    2.18511487846141
C        -1.94506854354286    2.51733848295960    1.86739806565131
C        -1.44286636574488    3.32716719556748    0.79277668685808
C        -3.18139790817546    1.87795548980209    1.78566377539149
C        -1.38208042490182    2.92302547847679   -1.60896450312950
C        -2.11616919539530    3.35881769774992   -0.44438962908160
C        -1.39697322972945    0.99929936260900   -3.12551085101923
C        -2.10572809611431    2.12750950309898   -2.56634327776267
C        -1.55381844282110   -1.42728218458194   -3.06389792824120
C        -2.13884272600488   -0.17998186140795   -3.34124139464113
C        -2.03268544950046   -3.04257861818579   -1.26729060439347
C        -2.49603077313302   -2.23129561264309   -2.32955033466051
C        -2.31467524174298   -3.25494663445124    1.13674483713452
C        -2.94740291639427   -2.29009867502818    1.99832827045307
C        -2.90108654019771   -3.13441974750553   -0.14645525024931
C        -4.25397910136668   -0.30151287940632    1.49833630919748
C        -3.99372025740598   -1.68034909278471    1.29431611899552
C        -4.04222656055007   -2.27449505037242   -0.02478700698692
C        -5.10654753387478    0.27664661603511    0.52233890471794
C        -4.05222948232999    2.43268805838370    0.81183802629039
C        -3.49550849378583    3.14559742876183   -0.32372115645004
C        -5.16972503242671    1.69530833950552    0.34418414818986
C        -3.52135628510561    2.07730779550755   -2.50815221679842
C        -4.23299169646751    2.74541466565470   -1.46491017603498
C        -5.36409867494037    1.97921051167754   -1.03765977781699
C        -3.53587804038384   -0.30000630260278   -3.01235293742350
C        -3.73510640160475   -1.53436946834150   -2.29796528382814
C        -4.52176452357031   -1.51690931369935   -1.10849271062753
C        -5.23822223008797   -0.33341787886630   -0.78829560785476
C        -4.24760119277843    0.83457477686674   -2.72109276976096
C        -5.28791820512960    0.73765717909289   -1.72484937720132
