76
C76 Isomer 14129 Symmetry C1
C         3.62524870322148   -2.92960633097602   -0.68815802038019
C         4.24721466491936   -1.97071217911372   -1.46741811334206
C         4.93993297799609   -1.05014919981624   -0.57570853171842
C         3.79704411776834   -2.53964542707201    0.71558613722566
C         4.53470740814182   -1.32312560845075    0.75730446526044
C         2.55768373199348   -2.67495896519764    1.33223426536984
C         2.27699298056708   -3.26172799878593   -0.90865860228477
C         1.65314500515317   -3.30335016735652    0.38702482308672
C         1.53926156187155   -2.66112111669064   -1.94990123979604
C         3.48058404070766   -1.20291784845693   -2.38454931022660
C         2.13974006857310   -1.54414285790576   -2.65084304921548
C         4.79556365898396    0.23701244350723   -1.11086933136736
C         3.86659620679400    0.18102849448237   -2.22125848214126
C         4.74574363691578    1.29823502374737   -0.19654858493540
C         4.08303208862455   -0.26214142667797    1.61278932290133
C         4.39577161346539    1.04626080745001    1.19366853311916
C         2.06270563187042   -1.67489837020071    2.22744435307238
C         2.86970524135380   -0.48297839782007    2.40250228883303
C         0.66338079533167   -1.68737711082348    2.47286105688362
C         0.29054558234633   -3.22314991744037    0.53672547033001
C        -0.17451582892012   -2.62970290563109    1.76258187598392
C         0.10848666779863   -2.77222956438173   -1.83811101269474
C        -0.54956717726973   -3.19146536205495   -0.63487114190116
C        -0.65196221360942   -1.99617856527909   -2.71475809537699
C         1.27198744256475   -0.47644716836588   -3.09271420783369
C        -0.06769181417228   -0.80740662067930   -3.27543848301367
C         2.94523536024911    1.22486111854707   -2.42961061628111
C         1.61302772371516    0.91536893810990   -2.89702646920231
C         4.07748368606322    2.45406245628510   -0.61287838396769
C         3.14232369072073    2.41468579594525   -1.67580667409702
C         3.60663790090020    2.18115315519430    1.62317162109875
C         3.44077092614997    3.07190111506287    0.53046561457579
C         2.17893591203023    0.64679284497870    2.86300245850830
C         2.51268915264713    1.98065489528231    2.44704622519596
C        -0.00744062169069   -0.52037047001602    2.97156244416392
C         0.77453954767931    0.62507274994099    3.09939400452003
C        -1.43119085351681   -0.33025077783263    2.89647461317428
C        -1.53477737045027   -2.57651318578629    1.91661803298730
C        -2.18432171413570   -1.50497315528379    2.64073418594368
C        -1.96301534599318   -3.04705475056975   -0.47643940616206
C        -2.43352188351821   -3.00465551604355    0.86745330184421
C        -2.03626550013861   -1.77612645095681   -2.54176538323224
C        -2.76152979567152   -2.37684018629568   -1.48809199041869
C        -1.09598878891905    0.15891042030784   -3.37672656876419
C        -2.33425367672296   -0.45729327969317   -3.01190065367854
C         0.55190683346243    1.85282779210661   -2.70818887996285
C        -0.80871814664666    1.49878462353611   -3.04678446058654
C         2.00624308332443    3.16624521401996   -1.24939477236834
C         2.17500091260146    3.52515525422144    0.14959745682168
C         0.74552610250406    2.92525380067130   -1.75646207978499
C         1.28526418247045    2.68754596507128    2.22259739944527
C         0.21696313135954    1.88464536264370    2.73681112542982
C         1.06934061400792    3.40154356177606    1.02813243883686
C        -2.01871525197119    0.93129875590546    2.56444342901485
C        -1.10811839279438    2.02575612407977    2.32198694050751
C        -3.35446368697016    0.97376943735249    1.98602560126679
C        -3.51354504378697   -1.45987873958995    2.25213325787993
C        -3.68720930989621   -2.44352004940968    1.16918747061042
C        -4.11618681014748   -0.24049429361831    1.86358360402768
C        -3.97783612290856   -1.72667833426865   -1.14062984994176
C        -4.45889417170581   -1.84023256313874    0.19180199740747
C        -4.84679879444153   -0.51755668776859    0.66852437568386
C        -3.40868210058060    0.28783871413526   -2.48552673695159
C        -4.25482208539824   -0.37610699457557   -1.56769836553752
C        -4.79113188354853    0.34791871685087   -0.42271076468452
C        -1.88582088001362    2.26238248863051   -2.56296250659027
C        -3.18784893321330    1.69602628489676   -2.34172730271817
C        -0.37081602347912    3.38392855052203   -0.95510136559947
C        -0.24934196897672    3.43368759574545    0.47251562260116
C        -1.36153501269063    2.98248541271220    1.27411118714618
C        -1.63797625334321    3.21884777301771   -1.50969736876973
C        -3.63193384533472    1.97334318298261    1.03717596268030
C        -4.36859151336468    1.66520035693849   -0.18201819276030
C        -3.76929995753553    2.36806339252178   -1.23559979095946
C        -2.63430833661327    2.95859845310825    0.69264292057681
C        -2.76632547675808    3.24083147173655   -0.68036109476773
