72
C72 Isomer 2605 Symmetry C1
C         4.86838339252291    1.46604786657283    1.14976794846446
C         5.15930431735943    0.08257295376701    0.89258446818544
C         5.07343869079318   -0.12939098647872   -0.51048631207569
C         4.44128361228218    2.08049181895955   -0.08453596756050
C         4.59244069445865    1.11500528293676   -1.11894579232068
C         3.17802613418083    2.69537066638740    0.12652137884207
C         3.78483067172144    1.51796964808601    2.03922152948577
C         2.76376339567965    2.35159798624921    1.47551939657065
C         4.36127413714609   -0.70979376551573    1.78847032435007
C         3.43149469500854    0.18199361386848    2.45364418075552
C         3.89164222677034   -1.93860869904495    1.32926259071935
C         4.56053740717528   -1.35728631856296   -0.96975559135240
C         4.16347803950518   -2.31459311217845   -0.01961725332667
C         3.58005119555074   -1.40594635273675   -2.05131469461778
C         3.60011293834306    1.04951637162706   -2.10050182766767
C         3.12529306129860   -0.23018378242059   -2.59581917883402
C         2.19747826342654    2.67241963810806   -0.88778085004469
C         2.47066585542227    1.91567082396759   -2.05089740619450
C         0.82491969740736    2.82335320992961   -0.49877205633317
C         1.43539135223002    2.08898253263738    1.75831990259925
C         0.45548533484698    2.63342067230509    0.85399515692446
C         2.07964951349042   -0.14699635585943    2.60920369734378
C         1.06464554235499    0.88599046268706    2.47896869060222
C         2.54552861254400   -2.34443030411767    1.63333076720069
C         1.64692116791153   -1.48747147733401    2.29063109810167
C         2.98807412816975   -2.99408294475724   -0.52872732858954
C         2.59219914579958   -2.42807692701407   -1.76002807237043
C         2.04989524669297   -3.10674084500966    0.50067557382000
C         1.21534214130185   -2.28695172452540   -2.05175664450347
C         1.73593087383704   -0.09897508347492   -2.95448894784430
C         1.36764928007825    1.24347599767197   -2.69335503968927
C         0.77096450371242   -1.10558274897024   -2.76242629620108
C        -0.20760396831465    2.58417369769665   -1.46826222282287
C         0.04205978119092    1.60178383146951   -2.48575468212317
C        -1.51873854111826    2.78329783712274   -1.07738167163193
C        -0.90523646895973    2.52689929011614    1.23399435593392
C        -1.87144842710952    2.92092190604548    0.29398213770424
C        -0.29707335700448    0.55483238803957    2.58504030484006
C        -1.28974178126600    1.55745746265052    2.22595885920037
C         0.24667942443975   -1.77597012005055    2.19296402707241
C        -0.72527919647217   -0.82108087829589    2.60566361481007
C         0.69670990196278   -3.12782134092367    0.18764822199390
C         0.26716735463482   -2.86680917182221   -1.14984420366885
C        -0.18971060072902   -2.76226497194623    1.25347611964600
C        -1.13077035173775   -2.68981575437140   -1.38810189550497
C        -0.60888411648574   -0.73087638038614   -2.77462909009266
C        -0.98782127686541    0.64291078945839   -2.76560739372725
C        -1.58873773261768   -1.70237774733608   -2.33298971693221
C        -2.63078345464302    2.16646277917003   -1.74941073797305
C        -2.35775277214452    1.02025121465788   -2.52757702204471
C        -3.25644929968269    2.61118186737782    0.43036220884356
C        -3.76999454900540    2.23754176908834   -0.88031930937977
C        -2.64145693201104    1.27276706284267    2.36797832130059
C        -3.65846550878800    1.91519563916009    1.56224221789945
C        -2.12364763832748   -1.13842897158637    2.50965481409880
C        -3.08424611555913   -0.09031591661624    2.60732402896233
C        -1.53534724658756   -2.91464929757111    0.99157577635236
C        -2.01644102346549   -3.05039511682065   -0.35870095897907
C        -2.53444831261479   -2.26591556057431    1.76067643383399
C        -3.39099684072040   -2.69080491094157   -0.35337654897319
C        -3.75865201166236   -2.29429657172720    0.99821050750862
C        -2.94014283456413   -1.36844801210561   -2.33932993666452
C        -3.35646569260032    0.01024949324288   -2.53511721038418
C        -3.89237818934682   -1.97608414801340   -1.44100879134458
C        -4.79298161101822    1.29365811352744   -0.99046740248425
C        -4.58469295822003    0.21062450796797   -1.89347645896342
C        -4.93600834110969   -1.03162824243999   -1.20511611087250
C        -4.75415216483855    1.00452534895287    1.43986810937324
C        -4.37341347451367   -0.24483892323572    2.09038931233953
C        -4.72950276692647   -1.32355890672125    1.21273257189162
C        -5.34135492699534    0.72628498378791    0.21893040990625
C        -5.38289124722482   -0.73540715664958    0.07189156661628
