76
C76 Isomer 1754 Symmetry C1
C         5.54622882270241   -1.10565829683483    0.94503964331360
C         5.62539380081962    0.27565871593475    0.54796945665113
C         5.34545863040637    0.34312736322623   -0.82816787566641
C         5.04934253794470   -1.86548389261153   -0.17483336143022
C         4.92940685363309   -0.99497650562453   -1.27174059701146
C         3.86408902833415   -2.55165787348987    0.22994747394221
C         4.54330571885913   -1.18135558942150    1.94793849350282
C         3.57486044801382   -2.16334852717915    1.59189019442661
C         4.79297715779863    1.03924659501983    1.45132960565154
C         4.05207763973362    0.11233996122542    2.29710310534953
C         4.09500457426862    2.11079702686040    0.93786260478823
C         4.40631565343941    1.27147304457624   -1.33967768487141
C         3.95730684263729    2.28939576184558   -0.49566163345043
C         3.70534082861147   -0.84848305750415   -1.97406364906456
C         3.40200744109275    0.55392183428243   -2.10068288207664
C         2.76683740503222   -2.62674247366624   -0.64260784135032
C         2.62566156454946   -1.73318074706436   -1.75517959658979
C         1.56368320303401   -3.06127042955621   -0.03705329124731
C         2.25639647518142   -2.02069293951606    2.02784606373639
C         1.31430464768413   -2.81013673891208    1.32097337989819
C         2.67754640669775    0.30350000616280    2.61348580095841
C         1.76227560180884   -0.81247783983218    2.62922077731958
C         2.83701874989472    2.46620454203309    1.52828815695427
C         2.09837150944276    1.58936420569529    2.35314319033490
C         2.67393103639531    2.83796891463818   -0.73298941381112
C         2.10999965965492    3.17256872096134    0.53723423809662
C         2.07573663698211    1.00208556238121   -2.21288416925849
C         1.75468537433900    2.28250874856853   -1.64928405580192
C         1.28953539469081   -1.32069702608800   -2.12337649953963
C         0.99885748283927    0.04833713729570   -2.37341723114628
C         0.44117720995407   -3.23439618080033   -0.89798285495492
C         0.20998332262797   -2.21731129624950   -1.87393600649689
C        -0.61345752058032   -3.92246558152477   -0.31701481358624
C        -0.02063552377470   -2.86577190731757    1.80491395017265
C        -0.83433844701380   -3.76518274672521    1.09916294880002
C         0.33884835577526   -0.62531359145043    2.72419687229175
C        -0.55809442175512   -1.73606442862872    2.49318181829425
C         0.67943115983904    1.79104361146907    2.46417436452709
C        -0.20739719836631    0.70945573929558    2.76658445414022
C         0.77764881586698    3.47083617084050    0.68518279717275
C         0.12174079783931    2.96044920451141    1.84796596903387
C         0.39950917211788    2.71063711170211   -1.57500267933025
C         0.02156758857283    3.62070781926196   -0.52697117686457
C        -0.36823817160109    0.49708585919454   -2.37905970622641
C        -0.62343693698907    1.89603348949461   -2.15585557898752
C        -1.15410473685770   -1.83150215721155   -2.11155910248504
C        -1.45834214307615   -0.44338858393860   -2.28896583933048
C        -1.89063578517998   -3.89201459066062   -0.94839722096382
C        -2.18406377818162   -2.73618594035650   -1.70304979829809
C        -2.23326385137235   -3.74398863874298    1.30816033842294
C        -2.89129088355021   -4.01162153609804    0.07877420139196
C        -1.99959942441580   -1.56990912930890    2.48112140090303
C        -2.81375264860671   -2.60070684472523    1.95421411152536
C        -1.64421484374947    0.90360843704700    2.71179122220275
C        -2.53934027103354   -0.22355579067630    2.54227856059514
C        -1.25237202909297    3.19764631971624    1.93123138449065
C        -2.14942402566661    2.18848556339184    2.42733657421769
C        -1.31099173487420    3.99614690608533   -0.37056803990268
C        -1.89643876084172    3.95044049842529    0.93136695974918
C        -1.96423984482262    2.33218719283784   -2.00966907890461
C        -2.27854059747183    3.47439664849970   -1.26136668391670
C        -2.80960767095078    0.02127132492812   -1.98586512246552
C        -3.04856039619987    1.38713493733580   -1.88522324024354
C        -3.47155453503582   -2.22371677758741   -1.23541035750791
C        -3.85981820627174   -2.98080779499032   -0.10262718209709
C        -3.96417815353163   -2.26323242784093    1.13856391383452
C        -3.75006922064860   -0.85173854581229   -1.30197523776926
C        -3.79512385741889    0.02126567541699    1.95384978304909
C        -4.35139564002057   -0.95808050579752    1.05973513702639
C        -4.49137188907854   -0.31167112242085   -0.21706174143762
C        -3.42142691714320    2.41137214029692    1.78339162896618
C        -3.26056589537458    3.45731021039475    0.82216864419105
C        -3.51234782628820    3.20174813804797   -0.52367449696048
C        -4.00685139766871    1.94110556976783   -0.94295613105595
C        -4.15525852648753    1.30012830497546    1.41578995533347
C        -4.51151983812256    1.08779304252139    0.03240269684558
