76
C76 Isomer 16443 Symmetry C1
C         4.53758317172436   -1.52355250923872    0.15728618212604
C         4.03873513562641   -2.32153576359129   -0.85886993463874
C         3.17492219868164   -3.33840199019557   -0.27090388717744
C         3.92047711558927   -1.98977774284411    1.41475930897393
C         3.01513370271896   -3.02930348066792    1.11044331354662
C         3.50695057659111   -0.88267257039437    2.13856303990378
C         4.46704170899454   -0.11872729619340    0.11000177200832
C         4.07924825444986    0.26307481088615    1.44797979052439
C         3.86822713536438    0.55997493994631   -0.99413063515460
C         3.35400613471568   -1.71040188238102   -1.93983512196530
C         3.32620703150221   -0.29105207926189   -2.03727084531597
C         2.04911136973122   -3.44172886728834   -1.09073371954842
C         2.15327430053848   -2.48281614411825   -2.15303323963575
C         0.79152327314416   -3.73254510250494   -0.53448748576954
C         1.71579502012479   -2.98846600548463    1.66605582684638
C         0.71146600078337   -3.67707022376711    0.90314282156448
C         2.19044853335519   -0.78534583396488    2.69959007405403
C         1.30250915435771   -1.89122319414661    2.50420673925867
C         1.65648788275835    0.52277704734255    2.96299940148823
C         3.56214920285102    1.48207055381101    1.67423764939223
C         2.47093018874213    1.63675988880698    2.61954096743817
C         3.29159008579273    1.86953126714619   -0.76019716285538
C         3.36249054329556    2.38869714075051    0.55974296816526
C         2.21960588875382    2.39415974925841   -1.59191897328159
C         2.23876237393014    0.21613576510915   -2.76693537836347
C         1.77418853758578    1.54428436550599   -2.62300715300177
C         0.98148082719540   -1.92816265820170   -2.68977060633526
C         1.11938256953763   -0.60907616698599   -3.15302263576977
C        -0.37993023045814   -3.44153853952835   -1.31491986599982
C        -0.32903814016401   -2.41314300818622   -2.32960923244954
C        -1.61446443850552   -3.73370080397553   -0.71420899922591
C        -0.55509586837252   -3.71590313892878    1.47383280595234
C        -1.65331654427512   -4.03797331650112    0.66410463360791
C        -0.11016370710098   -1.68808014575446    2.77033130802860
C        -0.98158084671151   -2.72744779939782    2.42436867454610
C         0.22107072666391    0.73990967967571    3.07183309124073
C        -0.66949133662493   -0.37497450129843    3.00797506421630
C        -0.29959504136724    2.06522501629681    2.80526521196888
C         1.91316974608647    2.87584232417144    2.29404308369853
C         2.43487384185332    3.32682938857451    1.02278138264558
C         0.53162514741601    3.09519475931672    2.31140184100180
C         1.25457699843407    3.36749719371811   -1.09173542984078
C         1.35053963587279    3.79317723625544    0.25353458324963
C         0.18963227634749    3.80903981737543    1.10681598843977
C        -0.06603123065043    3.39675200407007   -1.61990067659867
C         0.41447777768246    1.55736775904402   -3.09576741067119
C        -0.01894720964977    0.19808815246152   -3.33259715476132
C        -0.47040393271893    2.48461443826350   -2.64848801680596
C        -1.48944194752258   -1.60793162634083   -2.57634450684214
C        -1.31595822070808   -0.24797849874012   -3.04834346421638
C        -2.82252483390985   -3.03743338044471   -1.06115664350157
C        -2.75968465796238   -1.96213773807259   -1.96563883914915
C        -2.82151532632661   -3.41079059327355    1.21586654591151
C        -2.40409400008911   -2.54156776598999    2.24256705077722
C        -3.62146273589402   -2.94716565275301    0.14774091125831
C        -2.10621379138755   -0.17788948305558    2.80070098115340
C        -2.98559010768502   -1.25959527103745    2.36877074910002
C        -1.64681500188311    2.20182980394321    2.43737698271225
C        -2.55797968749838    1.11732428413554    2.54324787473124
C        -1.10417139536577    3.71346423855325    0.58184630659220
C        -1.22149282951589    3.60675418702414   -0.82677293780185
C        -2.06672153839390    3.04559182208263    1.37282744607588
C        -1.85126187350335    2.11486732778300   -2.48042120404570
C        -2.29361107953887    0.78502313366969   -2.73254782804422
C        -2.33266083776735    2.86861310509969   -1.38965514092768
C        -3.76694241539940   -0.95918489854606   -1.81235458888643
C        -3.49217255540290    0.42641181746616   -2.12051939558524
C        -4.38885837376468   -1.82413611819031    0.39851700393816
C        -4.11445635114454   -0.99537545137024    1.55206800910635
C        -4.63032706805117   -0.96762385082982   -0.70730320812214
C        -3.65423709895114    1.39932132017413    1.64929851482763
C        -3.26410530193237    2.48435974450402    0.81347418823625
C        -3.40449967647217    2.38611712789247   -0.59716314469340
C        -4.09535938624909    1.25881752788559   -1.11116345590969
C        -4.41934092128813    0.35929734261251    1.14843500831784
C        -4.75813652858592    0.38363501283319   -0.22284717373316
