78
C78 Isomer 6452 Symmetry C1
C         5.35314990724352   -0.93319748073056    0.33112249500127
C         4.63282871966112   -2.00249967302985   -0.22531098136298
C         3.66636026470654   -2.44418834957612    0.73633998057881
C         4.74628966706528   -0.59874093567410    1.61100948743497
C         3.73274908847414   -1.55235214275429    1.87777269928465
C         4.42486676619983    0.76680927678353    1.63474782426082
C         5.21738236476063    0.20257007545719   -0.51745773654512
C         4.79860262018754    1.28732554542909    0.30851954307856
C         4.17072860948335   -1.56448772330167   -1.52573985906398
C         4.45842672799571   -0.15100878762566   -1.68246045439996
C         2.95454857290172   -2.02849761040203   -1.94306146469533
C         2.41448212592190   -2.92652352754529    0.30893376604518
C         2.16520020855478   -2.88371573521712   -1.08752404231776
C         1.28923570223845   -2.85302313668435    1.20076494924362
C         2.56169339021866   -1.15716364221432    2.53949285916375
C         1.40738257087034   -2.01269704048472    2.37051970572516
C         3.24632097281340    1.20995383120340    2.28082749890725
C         2.37716376547357    0.23317252415985    2.87611167309787
C         2.66878952520989    2.46794289074352    1.83177786321990
C         3.97813739785443    2.21606629092267   -0.26600694153334
C         3.03241092433977    2.94257457277445    0.54531566117910
C         3.45503063749882    0.72231863066301   -2.18143808027370
C         3.38949784118360    1.99796449400993   -1.55803523764992
C         2.03210868471961   -1.18982927106326   -2.66546947623301
C         2.20137168088517    0.20203519482971   -2.72279330310396
C         0.83998106127535   -2.79809320648773   -1.53890929202457
C         0.73919680382322   -1.75794955440256   -2.52815493168566
C        -0.01651768866904   -3.14174439810512    0.69907565147105
C        -0.24390991585448   -3.05772425365914   -0.71204846306190
C        -1.16867756537137   -2.94409898296849    1.53759073737041
C         0.23901900593349   -1.62900882031028    3.02609031842490
C        -1.03576762778636   -2.15076171683724    2.68791073335332
C         1.06893573380813    0.65224510082458    3.32682443891187
C         0.05646978820313   -0.30304431269551    3.51735391769920
C         1.39020988607736    2.83721360715110    2.27810081335657
C         0.60736578861066    1.95524954136352    3.09356582115552
C         0.48725985946372    3.60492924020289    1.49515856591148
C         2.05339879139131    3.45557252772361   -0.32854486056519
C         2.20542597730012    2.75862905135300   -1.58913635366137
C         0.78836606048355    3.85273181214319    0.14032622556247
C         0.98883096928484    0.98934169134109   -2.79836353272457
C         1.06037168088197    2.33920499510454   -2.29892515858563
C        -0.43859619503683   -1.03693278175878   -2.68760744637492
C        -0.31525902903203    0.37438651337700   -2.89534085673360
C        -1.52661397100813   -2.70851339721157   -1.25972714703344
C        -1.66196583274525   -1.65564861193450   -2.21684035849772
C        -2.45163363229219   -3.00353358275372    0.99438792245780
C        -2.62839100028276   -3.03620278047962   -0.44837370646994
C        -3.54363352633880   -2.25886145024353    1.53913823844965
C        -2.02350965339033   -1.17314388856709    2.99901463284539
C        -1.33524114031291    0.00260733628973    3.42062635291490
C        -3.27580730267524   -1.12838443139129    2.36884593369631
C        -0.77837611716494    2.23842655756080    2.87493098099819
C        -0.84951675305675    3.25199398091235    1.88305685473471
C        -1.79385428316814    1.25952889145615    2.98723612879190
C        -1.93951170609735    3.29008651763392    0.99702544214915
C        -0.27698485669082    3.78701092609893   -0.77314418686153
C        -0.12741508996726    3.00977910839858   -1.98048870803188
C        -1.61558377734950    3.66530217372815   -0.33642038767596
C        -1.53183403290664    1.13049682522073   -2.73207527443699
C        -1.38885081849281    2.46758199022271   -2.32685314602937
C        -2.32934575351449    3.05228102378071   -1.41948726288974
C        -2.91050115877565   -0.95377666473589   -2.34889410471914
C        -2.82536705933747    0.48810877868535   -2.53298432001934
C        -3.88382534112226   -2.55158960261407   -0.76449227443882
C        -4.51354866691395   -2.14982469761934    0.50191965224094
C        -4.06067861007807   -1.51617417766242   -1.71842721927703
C        -5.20437016316468   -0.98979859454375    0.30063546221202
C        -5.06977672121796   -0.66904674667354   -1.13828774643074
C        -3.85013555000784    0.17379871810451    2.04848136318609
C        -3.00931270281803    1.35600135329057    2.20341704586566
C        -3.07777571115992    2.42807769839260    1.24578880869531
C        -4.88392438897385    0.19236659534933    1.07087286525740
C        -3.51429107955826    2.44474656501351   -1.19678935436834
C        -3.85918286471324    1.27296244502194   -1.96199849144136
C        -4.92261931987171    0.68299283131638   -1.22697641620063
C        -3.99396161935353    2.28707809114898    0.16638677402002
C        -4.91152191672778    1.25131589477171    0.13857088946531
