76
C76 Isomer 3629 Symmetry C1
C        -5.25409308608916   -0.29594907429069    0.54516441862279
C        -4.71833838642438   -1.54252717951700    1.03381403251163
C        -4.38222646542305   -2.30463586718626   -0.09850610474049
C        -4.96737727910402   -0.20092345053080   -0.88323444560945
C        -4.51961268939732   -1.44244737000530   -1.30117123400311
C        -4.11283479631599    0.93310527721811   -1.12850609265288
C        -4.52297781852603    0.73033406760355    1.15551108877966
C        -3.93467408579830    1.56762850869214    0.15166973381033
C        -3.67871315244057   -1.27095757261813    1.99049857164282
C        -3.62015439254492    0.17243731012968    2.12148404612268
C        -2.46163747218379   -1.99213343588814    1.98255143222963
C        -3.14818515378859   -2.94495435701430   -0.17423900913989
C        -2.23156826175748   -2.93446990404063    0.91759793544079
C        -3.32776536549912   -1.56071670231478   -2.05697525134218
C        -2.58963526310371   -2.62972180304889   -1.47299947349995
C        -2.98679240920897    0.85141469419201   -1.98707877125697
C        -2.57697774075503   -0.43589011708531   -2.49184029116792
C        -1.99331986720779    1.88905859095427   -1.86455071990369
C        -2.77222160924833    2.26700652304857    0.44694765583735
C        -2.00216872313946    2.70559406291210   -0.68809205198621
C        -2.42648546201192    0.82195265921549    2.39282990536507
C        -2.10023179282099    2.04309388215162    1.69151512754901
C        -1.29259453489516   -1.39506150726885    2.59349384293870
C        -1.34341945171634    0.00764044761054    2.88881947397541
C        -0.01864311860384   -2.04761613345390    2.52330836480600
C        -0.91420439281593   -3.36871827998319    0.64200822956776
C         0.12470112177736   -3.14948548914247    1.60746161788964
C        -1.25041522557730   -2.81845010208239   -1.73121705567852
C        -0.52422366281597   -3.55461473245944   -0.73696397408733
C        -1.20087753345388   -0.65353316515898   -2.85838204296510
C        -0.57519307364484   -1.91758597207321   -2.61260959121704
C        -0.78004577117311    1.79029301691620   -2.62984496472444
C        -0.36625813762975    0.49169618349606   -3.10241619482084
C         0.22406205441264    2.77149248378245   -2.41300186905983
C        -0.89970151399582    3.51619164040843   -0.39701585718590
C         0.10552644547927    3.67121569527872   -1.34963647655689
C        -0.81360186857721    2.63233155005642    1.88293084058305
C        -0.27292803084382    3.48196092090825    0.90492459062620
C        -0.15277308724614    0.65547208818570    3.19148616679867
C         0.11671423686975    2.00119690942744    2.73568747483827
C         1.18599903539054   -1.38784681184861    2.97344567496496
C         1.06336630488895   -0.03624484621200    3.32994785732490
C         2.51816002927645   -1.83765056499427    2.59579989230628
C         1.41908344488358   -3.61596689723806    1.29876103855253
C         2.63065749991693   -2.97087164341883    1.78037145361211
C         0.79252027157973   -3.86052322176232   -1.03473801871328
C         1.68897512068365   -4.12098001383189    0.01632637823881
C         0.84761907984811   -2.09936003965767   -2.74863455004358
C         1.50290093428897   -3.12705021955477   -2.05087964582778
C         1.01171969098599    0.26976090607247   -3.31475953731465
C         1.62485426925475   -0.98704356177583   -3.12807571292192
C         1.64134828679738    2.46420738040253   -2.49308240651309
C         2.00807468262657    1.24616044405116   -2.96400489512021
C         1.38623180764967    3.75950053733878   -0.65476770913791
C         1.14889987726609    3.60059465623959    0.72723826063048
C         2.33761660254194    3.00548722826346   -1.33623120223114
C         1.50958413947270    2.14647858590969    2.58087195589671
C         2.10535771911292    0.93068645856241    3.06669401412348
C         2.07765388505446    2.84584622268057    1.48002760746686
C         3.58582133705837   -0.88131943547647    2.48920199626936
C         3.32399671509220    0.54086925104762    2.61900017350737
C         4.54591685673776   -0.99130575329386    1.47993041583139
C         3.61996468845580   -3.05441877903568    0.73359207034057
C         2.99333028887718   -3.66181268091264   -0.38478879917683
C         2.88044009710433   -2.99626295740834   -1.61691321500286
C         4.47257815278600   -1.97974531401482    0.48218496778911
C         2.97391418719888   -0.80377846366044   -2.63810542805549
C         3.17108346721869    0.58110451490645   -2.43781276411660
C         3.60124212481893   -1.78107467342122   -1.82845965423919
C         4.45148416218574   -1.30759254127517   -0.80461491274977
C         3.31358309760222    2.25065436176561   -0.62538433794841
C         3.23775702838622    2.28590760810999    0.81685111041207
C         3.93524906320591    1.25923532216320    1.51497921576063
C         4.68832453281119    0.30729473647107    0.83079819318699
C         3.85491210325942    1.08547366188946   -1.30209061940137
C         4.56664623292080    0.11186224589365   -0.56010194603743
