68
C68 Isomer 363 Symmetry C1
C         4.86550770948754    0.02321505840608    1.60497856642987
C         5.21816357711013   -0.14007333946154    0.26410532006252
C         4.75350412558557    1.01524761207226   -0.49057217960253
C         4.10873309831561    1.24832762665515    1.70162929052607
C         4.04177381261219    1.87945283424108    0.39812746419064
C         2.88209881212131    0.94441821134107    2.31785253173030
C         3.97516482335762   -1.07084356846106    1.96905637532132
C         2.80927383178966   -0.50328253673603    2.51856732753897
C         4.54081808044681   -1.30046293696497   -0.25512150013057
C         3.78521476986762   -1.90733943622550    0.82123050062406
C         4.07865535664894    0.50716082488783   -1.63219172876408
C         3.86573917060977   -0.92711179706353   -1.45434536452420
C         3.02663623605905    1.23842400473392   -2.13628991922360
C         2.82643337651401    2.48680562745501   -0.01578090818994
C         2.50205474630214    2.33802516481101   -1.38807739330528
C         1.69688576079784    1.63525928186856    1.99005969142505
C         1.67753678768782    2.53797586347687    0.88289348531473
C         0.46598482380882    1.04598130928148    2.44014991735513
C         1.57560997351723   -1.14291829780794    2.36822545293102
C         0.39892327399861   -0.36489234164904    2.62664143654155
C         2.52298744573505   -2.43686939694481    0.54419390138131
C         1.44608364129805   -2.26383092570146    1.49739952211856
C         2.62777832533149   -1.50109966960927   -1.78516206093655
C         2.10608319769301   -2.47069060692874   -0.84590968108677
C         1.90600677008508    0.59300506712055   -2.77130233382264
C         1.65429013996195   -0.76714393387560   -2.58700752670811
C         1.17011884885776    2.53400486035483   -1.83382015139750
C         0.80105151411764    1.49251892821727   -2.73047718111469
C         0.39662177904683    2.98896823587576    0.41628938997312
C         0.19968132282003    3.10957167040497   -0.99965384165979
C        -0.73339568391051    1.79669411212133    2.25798633084565
C        -0.77328206464208    2.81508704052751    1.24174351015535
C        -1.92089205498417    1.20678221601626    2.71088008669806
C        -0.85346576849808   -1.03141711950747    2.62051547055633
C        -1.97012750144445   -0.21439914196131    2.92329678265951
C         0.13806480474075   -2.76536634894670    1.21510428243641
C        -1.03372420810298   -2.25805963105836    1.89144906087302
C         0.86136856862188   -2.98314164891390   -1.10516732604353
C        -0.02887213775251   -3.39211691316673   -0.04144543598144
C         0.27872521943513   -1.22154659653143   -2.72490647531889
C         0.03360758308992   -2.49989350704158   -2.18989619333409
C        -0.54404096504836    1.07470035193720   -2.86221709144211
C        -0.85073847930197   -0.33227736758491   -2.88073893502783
C        -1.10069216018038    3.05625434665698   -1.53358176141229
C        -1.49284174235596    2.00850576819513   -2.43444203104431
C        -2.05657368116079    3.12142668822479    0.70538684147378
C        -2.18662531141203    3.29314706911911   -0.68275187729977
C        -3.22356067253929    1.61629252226805    2.23750840246813
C        -3.28436336146313    2.48222865160074    1.16171023988517
C        -3.27362241360895   -0.67070541000935    2.68850201278805
C        -4.07383454862259    0.46429966292083    2.25783799189243
C        -2.36161635290196   -2.55593450018065    1.39026780758555
C        -3.46951471995948   -1.76587404494353    1.80407846401315
C        -1.30873115988795   -3.49905382083199   -0.59660298520184
C        -1.27263694235889   -2.90492501270126   -1.92150159270069
C        -2.46366512789764   -3.06717191150372    0.05876131379428
C        -2.20066910791510   -0.73033019834258   -2.51390089506983
C        -2.38272388266041   -2.05564059046780   -2.05354438699496
C        -3.24578684976119   -2.34677215221403   -0.93062578734097
C        -2.84636255449571    1.62160139946666   -2.11052178516664
C        -3.32198932599535    2.51218193775073   -1.13244237442947
C        -4.05518964525939    2.08574510791262   -0.01013404968686
C        -3.19847045604384    0.24691483830807   -2.07834887962103
C        -4.76682267808381    0.06735520849227    1.12104157535473
C        -4.45083997983190   -1.32729890465330    0.86174123511656
C        -4.17679596997428   -1.42256124732674   -0.51971185796391
C        -4.63234000504091    0.80856490544054   -0.09501527453405
C        -4.19937379437685   -0.10109915284571   -1.12700281597962
