80
C80 Isomer 2286 Symmetry C1
C         5.73309549148849    1.22530268274813    0.33917003226458
C         5.72643141822350    0.73561575183234   -1.02383557403434
C         5.63313569838357   -0.65707141366110   -0.96930809454996
C         5.45890243566897    0.11218526167075    1.22748927977978
C         5.44668578516499   -1.04494355568831    0.44320847148443
C         4.28424744066067    0.40503447824800    1.99297496280578
C         4.64200149074922    2.09902713621794    0.45518711380527
C         3.79873453569557    1.69063540884426    1.54609220454142
C         4.72267337243231    1.46711560820169   -1.76579576141518
C         4.03808452754859    2.33481988547448   -0.83274268768617
C         3.92925579564971    0.77476267207656   -2.67295830238193
C         4.66418800283808   -1.36402685506150   -1.72853559718149
C         3.93050981548498   -0.66800335113528   -2.69681020384539
C         4.36641415550530   -1.95125822845999    0.50494321443851
C         3.93043745238083   -2.23510958021091   -0.84016378979249
C         3.31953258842358   -0.58832250400204    2.24053708834815
C         3.37471266897789   -1.82778363085806    1.50521301836553
C         2.02654751696868   -0.11812365321319    2.66272298233010
C         2.43975607750882    1.98988359284348    1.50842921251031
C         1.55695781147115    1.18737713573957    2.32387356709644
C         2.65938128295723    2.56337038742648   -0.90065829100377
C         1.89870583074664    2.59907921780280    0.32486070994456
C         2.57175739215168    1.19404247222782   -2.89109434269226
C         1.92370847552559    2.12049712135910   -2.05946481973742
C         2.60025419188542   -1.09056273307829   -2.98181908716551
C         1.80585464265420    0.06000157953982   -3.28411990349142
C         2.60849059822163   -2.63631435908822   -1.10288905466118
C         1.96430697103543   -2.12797099556529   -2.28430527625925
C         2.16514647757298   -2.56789616489550    1.30306187895796
C         1.77656648005433   -3.02766017008892   -0.00098102196953
C         1.04622187476161   -1.08185917454752    2.88645674352583
C         1.13327027918710   -2.34343443015408    2.22383205748568
C        -0.32978690737302   -0.76631272090734    3.01832020079937
C         0.17622409028020    1.47679657609174    2.33385505821239
C        -0.80931912349670    0.51646186701358    2.77614774291345
C         0.50859921102581    2.78278261379425    0.25882408182580
C        -0.27365311449240    2.48499502209763    1.42445776549481
C         0.49501096712698    2.15834997774480   -2.07489282020126
C        -0.18791449277908    2.79641781666198   -0.99197364974832
C         0.42014881693241    0.03600807679420   -3.22680954739337
C        -0.27388687807248    1.22613338538548   -2.82028816741856
C         0.55241791916561   -2.25301705513427   -2.42350696296560
C        -0.21568969819993   -1.22481676876530   -3.04354707280360
C         0.42352667820221   -3.41494412209660   -0.25527135519613
C        -0.12229329152752   -3.17000592816978   -1.56094762936917
C        -0.18504803812352   -2.81367293583075    2.01784737088994
C        -1.10851792475311   -1.88464606112040    2.58165115384767
C        -0.51898788415315   -3.49843868445509    0.83392110416979
C        -2.43713900120038   -1.74398128856333    2.12650469473033
C        -2.21982861598987    0.66492058024591    2.48795824693793
C        -3.06699490153227   -0.43798940009208    2.12977972376829
C        -1.62042706802278    2.77458298428999    1.37702404502800
C        -2.60137868222973    1.95888496590808    2.07389014459187
C        -1.59189647772821    2.96182384475997   -1.04845237217217
C        -2.23401659135386    3.26348889727793    0.18916223229272
C        -1.70016622842352    1.22780660181507   -2.77404316270938
C        -2.36677549581675    2.30247511563420   -2.07753424550863
C        -1.64259718483980   -1.24713565117705   -3.05086251256645
C        -2.38375435884511    0.00000019634293   -3.07925298995482
C        -1.50151152289649   -3.33147207271252   -1.78622481985988
C        -2.25748587223259   -2.42419825445357   -2.61360504242806
C        -1.90237040187395   -3.58695034414538    0.59254677320092
C        -2.86850127212005   -2.74529653081582    1.24521480135035
C        -2.34885136364663   -3.73935151326651   -0.73739771932931
C        -3.60849360899130   -2.39245155068287   -2.10051300993920
C        -3.94486368955568   -2.46308293178314    0.31902981959376
C        -3.63713244907841   -3.12539204215560   -0.88702697711025
C        -4.26462945709206   -0.22392175867344    1.33104499244032
C        -4.61494284173099   -1.21881921775822    0.32022849482303
C        -3.84278274571642    2.18165609219266    1.49777017895184
C        -3.62939740816133    3.07478668547998    0.34799612419055
C        -4.68589954868335    1.11650526062038    1.10264144485171
C        -3.78011240444006    2.23698101310988   -1.93037899511237
C        -4.40885000410786    2.63945889463123   -0.68970496128188
C        -5.21363905762227    1.51708066046325   -0.18309898043312
C        -3.76954222384013   -0.06414185175483   -2.80889942833700
C        -4.33135934353937   -1.23016945463231   -2.14838019632602
C        -5.03977817132557   -0.77315673358069   -0.97585713826122
C        -4.44204069328536    1.05719645452097   -2.31496576840228
C        -5.28964022181891    0.60036169730578   -1.19895139989382
