56
C56 Isomer 550 Symmetry C2
C         3.80908828425701   -1.73323229277501   -0.39890378765696
C         2.84235468295734   -2.51682058525704   -1.12583132643770
C         1.95205126781692   -3.14643202353892   -0.21223421124565
C         3.43678046224339   -1.72964966009421    0.94784931415353
C         2.34015560670717   -2.65252097012925    1.10725217677900
C         3.30461424371248   -0.36014697297940    1.39050386720964
C         3.74866139161451   -0.37295156294808   -0.86915902916574
C         3.54307367385407    0.48948240971225    0.25368402922661
C         2.32219324098412   -1.66909776156028   -2.13834176101765
C         2.83416639517339   -0.30514149346593   -1.93369078685563
C         0.99990454552663   -1.84324092041027   -2.47939130785063
C         0.57772606111117   -3.30215444594186   -0.53752356650593
C         0.16698153791194   -2.77149260401603   -1.78412679381592
C        -0.42542801178413   -3.30182599569468    0.52993066138166
C         1.33812917108090   -2.32301560199279    1.99253714033393
C        -0.01592829988759   -2.76695641539376    1.77513088330928
C         2.26662726195559   -0.02865614251471    2.28848541004100
C         1.30599307710916   -1.02872977474206    2.63683659813883
C         1.80390089486959    1.29907708739838    2.26122955186708
C         2.85687195799786    1.70589340169853    0.07060308975504
C         2.24608993715177    2.21252035726821    1.25699015809684
C         2.00330556498252    0.83493357324085   -2.10488903212202
C         2.20223130458478    1.96418565233314   -1.20781674403772
C         0.20123374130439   -0.70722438815921   -2.86424251369317
C         0.70826922885313    0.61188226542343   -2.72239649398426
C        -1.18809192229748   -2.33126904994744   -2.00273067936353
C        -1.15888743217701   -1.03852596409048   -2.65050945832910
C        -1.80009644085264   -3.15008922276168    0.20418750513441
C        -2.18932272525005   -2.66058708045983   -1.11659694531492
C        -2.69180418028508   -2.52002412054269    1.11609321582203
C        -0.85092894588492   -1.83878061464194    2.46792747216454
C        -0.05488928203543   -0.69995135064732    2.84972619190904
C        -2.17359849198958   -1.66844133454445    2.12638647149838
C         0.42378485412150    1.62524428516181    2.58705651133458
C        -0.56514991594146    0.61760913450240    2.70439128552494
C         1.25317463620935    3.22501257952207    1.16390586966901
C         0.09418055474957    2.83302686056253    1.97311975221296
C         1.22958950370401    3.00520566336332   -1.24730587516585
C         0.81225605012219    3.68147916717097   -0.04738639774491
C        -0.28290624077017    1.61758181501838   -2.60770952724776
C         0.04399183866572    2.82777047658967   -1.99687036969070
C        -2.12182258233343   -0.03970308873288   -2.30472168588107
C        -1.66224875788172    1.28918216665626   -2.28097985040604
C        -3.28805805746970   -1.73984124642241   -0.95964989641545
C        -3.66033198923333   -1.74069901895364    0.38714407751225
C        -3.15910939592166   -0.37118590101996   -1.40588155289725
C        -2.68880286938639   -0.30628892084670    1.91810808998612
C        -1.86065742634443    0.83614590517790    2.08619738866820
C        -3.60310327722328   -0.37896412394991    0.85374004905404
C        -3.39955257006137    0.48091668176932   -0.27136350577217
C        -1.09185482912819    3.00591194989450    1.22308424332783
C        -0.67609835061650    3.67993341155505    0.02135051024284
C        -1.11587861817988    3.21929318075380   -1.18874046752046
C        -2.10655431131376    2.20428454021062   -1.27920434388249
C        -2.06207511555612    1.96258317296769    1.18625456642430
C        -2.71620093152692    1.69948491122375   -0.09150817075723
