78
C78 Isomer 10511 Symmetry C1
C         5.29226944491979   -0.58782735427384   -0.42812556143129
C         5.04506362012459   -0.76799820566559    0.91077387902137
C         4.84313579725967    0.54592662519484    1.53497282804081
C         5.21290905302814    0.86485528411687   -0.67452910712627
C         4.76341531393402    1.52848229236719    0.52129205144477
C         4.49957246088277    1.02561938488067   -1.83450194589280
C         4.47045654126942   -1.26543841317433   -1.39434052718700
C         4.14083630863921   -0.29453839867186   -2.36827942236707
C         3.45482961537736   -2.16905865259309   -0.97517700701748
C         4.02360335609836   -1.64057137449186    1.37546125282553
C         3.27012456889421   -2.41029161636834    0.43952899661042
C         3.84381965042883    0.38339310536375    2.50387733586714
C         3.34114330571006   -0.97740545534332    2.44557652620751
C         2.92470915897546    1.40650050646249    2.65260797911282
C         3.61889616932060    2.39765855518366    0.47429830334050
C         2.82617719871543    2.42325546928827    1.64922634453016
C         3.34668760749792    1.86629701130839   -1.91062135739032
C         2.89041812277217    2.58200282383349   -0.77047320336547
C         2.85172282383295   -0.18652281827821   -2.89577369037925
C         2.40784381848729    1.17374369017178   -2.73187175850078
C         2.28108838959192   -2.27053980935673   -1.82297145901139
C         1.91513073692053   -1.22210249752329   -2.74164437822444
C         1.23779885776340   -3.07346949147531   -1.36090281004202
C         2.03302525753871   -2.92739578512665    0.93535135258871
C         1.14950015162568   -3.48643471587123   -0.01486396212622
C         2.00985663754317   -1.26843786307595    2.77653803832808
C         1.44326369420506   -2.42643712733046    2.14731531528859
C         1.60890105634299    1.10662438188109    3.12935417991981
C         1.13438531608673   -0.21289614093916    3.23842891886739
C         1.46316128240078    2.83682243916086    1.63180623546084
C         0.73493213697749    2.10229035315028    2.64072319570837
C         1.49915948331303    2.94274288388747   -0.77711907557336
C         0.80326711373953    3.19763830592170    0.45853222325400
C         1.05525770517917    1.47027813819582   -2.72427034207081
C         0.66070916818219    2.55469170820174   -1.87500269343565
C         0.53844564759560   -0.91095162572730   -3.01549237896174
C         0.11357412368458    0.45368562180525   -3.10126486334627
C        -0.10186421588828   -2.98192267054811   -1.89024632856503
C        -0.45471543672707   -1.90431697184305   -2.72821938149694
C        -0.23319384983674   -3.74426009080434    0.25731313354675
C        -1.01372267314705   -3.48191232272128   -0.93219655604650
C         0.07877106017897   -2.65728488549286    2.38792728555465
C        -0.75170939758488   -3.39315786188159    1.47585631048204
C        -0.29212114955570   -0.38450139682713    3.25525859370625
C        -0.75988751325527   -1.67997954417582    2.98342929986340
C        -0.64713597421804    1.94416467876351    2.60603983114500
C        -1.21041735377801    0.70812789074187    3.05645667740974
C        -0.63196388030877    3.30400890669220    0.53730481708046
C        -1.35205657526744    2.79709611839263    1.68864277436401
C        -0.70696837542504    2.82404981068876   -1.82325061749553
C        -1.34150871765932    3.37528141307843   -0.66195923241935
C        -1.28377572098073    0.78642368465839   -3.05149629350248
C        -1.67141867133516    2.04015210906103   -2.50563960791412
C        -1.81813704044368   -1.57075656409336   -2.75010649196655
C        -2.25174907520157   -0.22374036503807   -2.98947412329333
C        -2.35231236957774   -3.04082286640947   -0.85940658306170
C        -2.77081926366836   -2.19057213052065   -1.90454198937266
C        -2.10810845362269   -2.92269731682512    1.57830816897683
C        -2.11486838850672   -1.89941077590618    2.55504153733938
C        -2.95652354112916   -2.84325154640057    0.44850585911756
C        -2.61153123780260    0.47100477304672    2.83178179513853
C        -3.07561869378488   -0.87729819681919    2.56839794575563
C        -2.72844773632332    2.63733087501376    1.62503565593625
C        -3.37438554622191    1.54144744220046    2.30683280234938
C        -2.73378406660781    3.10104579935677   -0.75923184117874
C        -2.95120899678592    2.23636387931348   -1.88535135338944
C        -3.46972529849439    2.90790724802204    0.40770890277965
C        -3.53707950547375   -0.03761351923721   -2.39234727457961
C        -3.86852400744417   -1.27005604108810   -1.74748937386885
C        -3.93882725188676    1.21708981700885   -1.84127536235185
C        -4.05375722988863   -1.97897061701384    0.58468904841141
C        -4.18466069768696   -1.10562519148522    1.70672275913436
C        -4.61102151651924   -1.27010664598839   -0.57063715527529
C        -4.58861741451636    1.28965783415059    1.60880416312259
C        -4.59273727112722    2.07015328638679    0.37351288662831
C        -4.82988777023229    1.19164279775284   -0.72152459394873
C        -4.98035339126320    0.00206501020424    1.29376611547066
C        -5.19071648586092   -0.06894708850292   -0.13938161655333
