62
C62 Isomer 132 Symmetry C1
C         4.84450567106683   -1.27587794244448    0.43709928830441
C         5.00674821346266   -0.30746852216924   -0.58504349734234
C         4.54887696474910    0.92649126096948   -0.08274888393096
C         4.13717190554017   -0.62033683720058    1.55343626224309
C         3.98223685126709    0.75085340687490    1.24555522795679
C         2.97801948304817   -1.34929675179064    1.92416628401815
C         3.93210231210581   -2.23706705100778   -0.03954969569820
C         2.96280995283976   -2.47696894112597    1.00208498465007
C         4.06747150734678   -0.64154089109463   -1.67033432793509
C         3.42289087031624   -1.86413671050978   -1.35192820464498
C         3.70300304799109    1.52310215270632   -1.09190793668440
C         3.26336355302973    0.47388267026083   -2.00524779692094
C         2.79923312216299    2.42580320278436   -0.65935060047328
C         2.79350915807439    1.42865550302073    1.61505725271150
C         2.49989262190600    2.54321543081973    0.76978539856550
C         1.74834511715091   -0.71269878069674    2.26738279667891
C         1.66143964221078    0.72158471848097    2.19810087006651
C         0.51604641439770   -1.47790859102983    2.13302434773181
C         1.76418842751171   -2.95127675897115    0.60087227001326
C         0.58780663586572   -2.65653572603026    1.37908569776620
C         2.05538350091452   -2.03532373495705   -1.66649420783792
C         1.36282917947370   -2.92359937143783   -0.79289349960044
C         1.87254091734873    0.34937789466279   -2.29791716079427
C         1.26081498757561   -0.95051463352373   -2.23518888975813
C         1.55158194932799    2.59940120397205   -1.38200791508698
C         1.01094266388349    1.50522867025287   -2.11470222770317
C         1.25867347061867    3.13007790280015    0.84167326181898
C         0.73634999343026    3.34225183213979   -0.51550911855247
C         0.33281873928872    1.31578095641238    2.19169352757737
C         0.19698445765025    2.59444222078111    1.60388536184104
C        -0.80143569179225   -0.88507210726619    2.25765509874581
C        -0.89547304966377    0.53403118724820    2.30539084283208
C        -1.97228181161490   -1.66121760199949    1.88523627921637
C        -0.50629787273716   -3.03221183318063    0.56602926583234
C        -0.02131511908004   -2.98435449094412   -0.79811089383972
C        -1.79696755956789   -2.69883155506948    0.89166626835171
C        -0.17766567224785   -1.04820802046371   -2.27436841184922
C        -0.79399211532644   -2.22185085061237   -1.71316313528189
C        -0.42235183972036    1.38162652467407   -2.17618757897282
C        -1.04315585884372    0.10169965854763   -2.40214437092430
C        -0.62949940487531    3.17798257451433   -0.49158946958537
C        -1.00735549048554    2.90821620775952    0.87933904412249
C        -1.23136692574328    2.36645351874640   -1.49919694672314
C        -2.18916890660066    1.13948512841922    2.02083567413959
C        -2.20574633203393    2.30349490798558    1.15662649066587
C        -3.24598041405649   -1.06841619689268    1.91918475370608
C        -3.35318112996845    0.34995968377984    1.99216919076053
C        -4.32499534316902   -1.54271459451464    1.05237673331156
C        -2.69003864565723   -2.76448215540923   -0.22457270015648
C        -2.16215396444829   -2.29277646728305   -1.48473857014878
C        -3.98243916399211   -2.28231867138580   -0.10095277328539
C        -2.49669364067454   -0.04074739969019   -2.32089192021770
C        -3.07636203584248   -1.31372371269517   -2.00676897427957
C        -4.29258886969539   -1.45804243486042   -1.28687626852764
C        -2.57486001879714    2.13465013549409   -1.25401276465506
C        -3.13203515220379    2.34694057957742    0.05779292486414
C        -3.30003487477228    1.06512603909286   -1.88267064575300
C        -4.51577572887614    0.72688654828419    1.17762756875129
C        -5.11885937310752   -0.44027128139719    0.64557605591863
C        -5.01589773852682   -0.35057176415942   -0.82555301492759
C        -4.32146294306911    1.63782841185086    0.11930345481220
C        -4.50714864436567    0.91483224890081   -1.15509007588307
