76
C76 Isomer 18517 Symmetry C1
C         4.36320443607127   -1.64145169060365    0.52063104461062
C         3.47279458401412   -2.09042506545693    1.51749348462897
C         3.33510346421964   -0.97567287826185    2.41982510663786
C         4.71678855094733   -0.25420361553825    0.77345013703102
C         3.99718444702517    0.19956894347196    1.88343907697261
C         4.70902558571424    0.45485141165346   -0.45460862542476
C         4.04095666054653   -1.72894252052140   -0.84638693099035
C         4.17576417881195   -0.42841179026389   -1.46975219005383
C         2.97425714490759   -2.53628178631489   -1.19207824889441
C         2.33750527033296   -2.88946633753449    1.18361233661499
C         2.21882918748045   -3.21399409742053   -0.18147632492797
C         1.10369119285332   -2.76494385887006    1.95067047664703
C         2.15133665432131   -0.81208427357260    3.06895432129827
C         1.09352100667364   -1.77962493346651    2.94520182716127
C         1.56206480080311    0.49361583844362    3.22216975901242
C         3.32367559483915    1.46744764849998    1.85712649912896
C         2.03328546661621    1.60998392192281    2.52044036111141
C         4.30395386099640    1.78193246439046   -0.40044922419189
C         3.60052168630648    2.28670289040883    0.75504213007433
C         3.63472709631127    2.28626415271984   -1.54435742850751
C         3.18585126717585    0.02225902173510   -2.37565560231595
C         2.99446748128772    1.42713986383365   -2.44408588991197
C         2.05886577569474   -2.12930689885016   -2.21731250701218
C         2.05026713720436   -0.82188962085979   -2.72499407856781
C         0.93285069647858   -3.48373815024657   -0.73108445718602
C         0.84843405247450   -2.84962453707442   -1.99700802058333
C        -0.18568239994863   -3.18975182088097    1.42624419316012
C        -0.21733158024416   -3.64998482948109    0.06241319477202
C        -1.40896406707825   -2.68434628554866    1.99509774551023
C        -0.10692318864489   -1.11412651613920    3.32109811504913
C         0.17820813294570    0.27512890354158    3.47540457542882
C        -1.36162351520806   -1.57174276861334    2.90938858550045
C        -0.77919339845720    1.25787877546843    3.21606276429539
C         1.03812845991184    2.57454074724432    2.08098710087828
C        -0.33464032711225    2.44979224859886    2.52524324390078
C         2.57528202256424    3.19295075527305    0.27732584546049
C         2.66361343847816    3.26317768321937   -1.11466472043104
C         1.30702034444638    3.32497551267427    0.89659899562438
C         1.67936041724954    1.97711230410675   -2.72548342218792
C         1.50198672217293    3.12857353775781   -1.91157669510222
C         0.76192376360121   -0.25774078002695   -3.10035748453519
C         0.58097846055144    1.17269009659067   -3.04730115931485
C        -0.37190877396141   -2.41621355959018   -2.53347844851377
C        -0.41171080704543   -1.08406606204327   -3.09929222387093
C        -1.42117645724558   -3.63880523532936   -0.67829733188757
C        -1.51003995020435   -3.01340560751895   -1.97170413560417
C        -2.62938768229515   -2.83070987442023    1.27215141631908
C        -2.62865685170746   -3.38759462194579   -0.00464916314100
C        -3.64567362727140   -1.78352678695002    1.24419701480818
C        -2.38852848944817   -0.59587535439546    2.93144295223332
C        -2.10378470071033    0.78111157197710    3.08766393146935
C        -3.52336393670958   -0.69330424682524    2.05253759709469
C        -3.08541613421896    1.52922385418550    2.34494609677297
C        -3.90340493208839    0.62623620643282    1.60297381362013
C        -1.32789205573412    3.19877837505453    1.87865098455461
C        -2.71521877209800    2.75788400413951    1.82612705085832
C         0.22254377811344    3.75397200191727    0.04577344477277
C         0.26078632751726    3.48044853924492   -1.36996243651926
C        -1.04466699366995    3.83752616096592    0.63186904599762
C        -0.71972445264829    1.77668038166478   -2.85851044710492
C        -0.88521086901356    2.95671377680069   -2.05279914229762
C        -1.67954119226946   -0.46395670543149   -3.14297583975746
C        -1.83418714511889    0.93558857509486   -3.01202042046405
C        -2.79453609133100   -2.36717775622780   -2.05880587484178
C        -3.50752986439508   -2.61395098657756   -0.86753214294179
C        -4.10032212103048   -1.58826992745239   -0.12238362818442
C        -2.86454578921664   -1.09026214076904   -2.59386086087096
C        -4.22827729321337    0.86200804985989    0.24318075597567
C        -3.08325516496707    1.17238805347272   -2.33571510740799
C        -4.22108970470240   -0.27487367860385   -0.66760383793849
C        -3.66529597738941   -0.09411011441940   -1.95935663197494
C        -3.24669775286425    3.09468790915166    0.56449813866508
C        -2.19838315697580    3.76452544707142   -0.18061415146858
C        -2.14726071011165    3.21480289811475   -1.46442743124894
C        -3.88307003178290    2.14814500574647   -0.25768347389851
C        -3.24664318952808    2.27955018159664   -1.55662742357531
