66
C66 Isomer 4330 Symmetry C1
C        -4.12247769987647    1.18588157169123   -0.14674396814547
C        -4.13534704229312   -0.20215191356417    0.10208946418159
C        -3.56887321347016   -0.43074616759273    1.43736693892189
C        -3.61893668090378    1.83228290306936    1.02680249645749
C        -3.25461056679183    0.84441153993726    1.99527702114408
C        -2.70922957899892    2.83164362229187    0.64035624995130
C        -3.44430606743388    1.74338869251712   -1.28098957257612
C        -2.51425051879775    2.72710543794038   -0.80387585816096
C        -3.05223060088676    0.87281756577390   -2.29394737970732
C        -3.80948826068559   -1.06318467348841   -0.94122066974954
C        -3.41858633958354   -0.50087531157338   -2.17945516592883
C        -2.97859405586257   -2.23175970743192   -0.67702412759454
C        -2.77149565161299   -1.56044141927447    1.70211480545713
C        -2.52971087309214   -2.53080813963728    0.62850790159144
C        -1.75085753269673   -1.39254936841115    2.67305261382125
C        -2.07734167618406    1.04274607209161    2.76711306039310
C        -1.35280771939651   -0.11246843028764    3.12772372845610
C        -1.62313790937363    3.08501055019762    1.46460381633223
C        -1.31326895576849    2.21399915007012    2.56666962520765
C        -0.41108195200910    3.55983115113029    0.88946695746169
C        -1.22084637316705    2.83802152437697   -1.33428772987640
C        -0.20334019674197    3.45844205481713   -0.50937226846772
C        -1.69945836844933    0.92294132369265   -2.78307284468392
C        -0.78963157079683    1.87525003511493   -2.33896497465372
C        -2.32417946432070   -1.28776670809931   -2.65910539609264
C        -2.09089773224002   -2.38103704436851   -1.78275690003892
C        -1.26054627647603   -0.45406084659277   -3.01797466213770
C        -0.78142821877898   -2.88091331215910   -1.65097668088710
C        -1.39338744818445   -3.35684812431612    0.69577096520687
C        -0.58235070585282   -3.61099848305009   -0.45135180187445
C        -0.57716304398456   -2.22994533250246    2.70281522914583
C        -0.47224011328603   -3.29514057258183    1.83303502962102
C         0.08533023696795   -0.11088682935450    3.25089796396698
C         0.56980511364602   -1.42521927487097    3.01126700960251
C         0.10887909297022    2.20813810923627    2.70940585437262
C         0.63257360215952    3.18309982461866    1.79439725569980
C         0.85694785550670    1.03447371773647    2.96755380751710
C         1.93120715340105    3.08080299254768    1.36033998692889
C         1.13611144965207    3.38051419432070   -0.93800725446477
C         2.18020042761569    3.41366431296917    0.00017790521770
C         0.62427393534567    1.56558923008223   -2.52297589972042
C         1.55093051843890    2.45843705405459   -1.99514267239484
C         0.06657146261616   -0.87171797480544   -2.82850046973563
C         0.32527726352973   -2.17223824285269   -2.25326149058776
C         1.05144759968489    0.19103518059171   -2.80079772210152
C         1.66025016820063   -2.44803008784274   -1.78842884654192
C         0.74398794913848   -3.85204204097876   -0.01147879151429
C         0.82039318292740   -3.64345476909236    1.40750828006201
C         1.85354188385847   -3.27519002154404   -0.63726511991608
C         1.84736894527526   -1.65487751914157    2.43307210529477
C         1.96457377860208   -2.84793801781870    1.67384481162830
C         2.71225477288122   -2.82372323444553    0.44259420226652
C         2.19486020700506    0.85553453132333    2.40715554933766
C         2.75317898855341    1.94167248084293    1.71404008467625
C         2.67835445543050   -0.49770640064469    2.11223196250393
C         3.26522328837012    2.59068799044006   -0.45773627574676
C         2.90660876564153    2.05601870588340   -1.71974131297523
C         3.66758821594230    1.74534686200750    0.61046297251298
C         2.37341114757283   -0.17635856359973   -2.57052425265523
C         2.66854415726742   -1.49260878945833   -2.03535748699274
C         3.32197313009022    0.75901229230989   -2.01841201289737
C         3.59511406060432   -1.80020675219033    0.22075352970923
C         3.65333564652368   -0.65613272451964    1.11107822962937
C         4.09724169086426    0.45992999046654    0.30282486995896
C         3.72409893968895   -1.32626903722669   -1.11172609943146
C         4.09364332202407    0.06156517117448   -1.05989657598485
