80
C80 Isomer 19541 Symmetry C1
C         4.97093283786387   -1.23880423914279    0.21329289183244
C         4.80831315833898   -1.03936794366234   -1.14597415443456
C         4.90767820405774    0.39679182963587   -1.39303657781190
C         5.12283219297930    0.05863098283112    0.84806234662489
C         4.97746082613018    1.08024834172142   -0.14387396477634
C         4.30925220509510    0.03606407917869    1.99402360770580
C         4.01181035069440   -2.00548905955292    0.93208985834622
C         3.65617621424353   -1.26194808948142    2.10168360850788
C         3.01638320135772   -2.71808327632370    0.20850320842026
C         3.66735778309093   -1.54733698960236   -1.83474687285591
C         2.77158230004655   -2.44367835939241   -1.18853271193345
C         3.92321716174586    0.71841607206765   -2.33880721939197
C         3.17154154732236   -0.48436784478516   -2.65778717057096
C         3.21509298703589    1.90367360701231   -2.19602732235885
C         4.10328017817699    2.18621898524082    0.10443207588091
C         3.30935508856779    2.65780693296687   -0.98079297696630
C         3.55122528696099    1.15499359962476    2.30390476194126
C         3.47658640538183    2.25624557188554    1.38405228202040
C         2.27231220449577    1.00836438226333    2.94833630863566
C         2.38481384862725   -1.39029852994820    2.69292927477267
C         1.64990077571842   -0.22753478784502    3.16701637794306
C         1.90670515587959   -3.08616683453520    0.97944513955427
C         1.63294471037387   -2.48207335993759    2.23156971752551
C         0.65491371039958   -3.44437875058269    0.39699698140632
C         1.43384950559820   -2.53303602605964   -1.70453482662685
C         0.37423439294641   -3.16790854840151   -0.93953996362402
C         1.82580723382703   -0.43036528277143   -3.01032341533424
C         1.03496796499924   -1.58911510374259   -2.70000654666811
C         1.86776904665738    1.97338623968539   -2.67329856616988
C         1.16497618420892    0.85147528861131   -3.13030032893156
C         2.02744837347007    3.26209902122770   -0.78202670074183
C         1.17040640947965    2.91812494863328   -1.87751136950260
C         2.19278303425284    2.84894450432888    1.56243796879898
C         1.48500943674292    2.12370208182377    2.57808930696163
C         1.44907476012923    3.38831724266297    0.49621941697911
C         0.09739658175663    2.12354859894245    2.67290635216136
C         0.21349417482243   -0.24902457416849    3.30124151630675
C        -0.56170064544145    0.94775723021615    3.17349193663951
C         0.22857052088178   -2.55875412084914    2.46524183984069
C        -0.36295806036468   -3.27700592391067    1.39624428786490
C        -0.46920903549602   -1.50489403584280    3.08885533925796
C        -1.71837147291915   -3.16516326832757    1.07731813197814
C        -1.02808638881364   -3.07365068594591   -1.30668703785265
C        -2.09679839547698   -3.19358342659939   -0.31900044206261
C        -0.31684516620151   -1.50179604942516   -3.03194218455072
C        -1.31312416788273   -2.36429236278609   -2.47349442650770
C        -0.26836144998621    0.94336266387608   -3.15900396390744
C        -0.95141662146503   -0.27160912819935   -3.35058387315042
C        -0.22222653636482    2.94536290089437   -1.77774451251212
C        -0.99479831091991    2.02287040393910   -2.56263728894652
C         0.02855191137077    3.50222784424323    0.61857457942659
C        -0.60162125154449    3.05769407782334    1.83216152915616
C        -0.76713127237744    3.50730230483181   -0.57721563108474
C        -1.99721733937476    3.04642976765236    1.90230581703905
C        -2.00884443463097    0.88497693817784    3.06776771963853
C        -2.72161429331915    1.97029913321368    2.52630435272222
C        -1.85915140658685   -1.54245711047495    2.91235410557503
C        -2.49322318206154   -2.44540739671794    2.00729574715231
C        -2.65839383785790   -0.36643909866146    2.98859956951167
C        -3.74869698007769   -1.87726494975709    1.64136874922049
C        -3.86446671622033   -0.57997132661429    2.24051632226893
C        -3.38739748966562   -2.74737420555040   -0.63274204499982
C        -4.24929321710723   -2.12440443071345    0.36854372921836
C        -2.58259482547385   -1.75636228877953   -2.70628210566930
C        -2.35719018054286   -0.40862869404663   -3.14063819520561
C        -3.64236408135604   -2.05067904297551   -1.86784761208149
C        -2.41948961335531    1.89383899679254   -2.32860310052323
C        -3.12741796991983    0.66855555832604   -2.66619603933059
C        -2.16273528120733    3.49024530203488   -0.47081878857289
C        -2.75633257724590    3.48208300130016    0.80425122757243
C        -2.99740466845592    2.73028084004864   -1.36416595403943
C        -3.95861016279868    1.77815812035172    1.79871974887543
C        -4.51024810884404    0.48740521623739    1.57340259368004
C        -3.97531675597731    2.72274668771966    0.75018856246550
C        -4.16716798695542    2.31788449184993   -0.59860981740863
C        -4.99097660674612   -1.08981279203029   -0.24431687499262
C        -4.57883556317269   -1.02063691107086   -1.63100290810892
C        -4.31933050110088    0.32017818247908   -1.96015975198794
C        -5.06117770599637    0.21703635718755    0.28000355644516
C        -4.76986760442334    1.10441651967426   -0.83292920567977
