64
C64 Isomer 549 Symmetry C1
C         5.02585577729261   -0.95338891735629    0.34656214518690
C         5.01923631106075    0.25709828878143   -0.43776284668372
C         4.64333411075039    1.29492243878355    0.42308236054613
C         4.39953862052249   -0.67834518201433    1.63806592804137
C         4.20470451235730    0.69722274893633    1.70624123750058
C         3.27748619291204   -1.54579074394882    1.81141612391821
C         4.23467254657403   -1.90839827295269   -0.30650287314749
C         3.31507593146790   -2.43718643641623    0.66379612260825
C         4.22051287753990   -0.00147491837359   -1.61473740352308
C         3.70390492583473   -1.35997218849835   -1.53328724271726
C         3.33695090867088    0.97132257617635   -2.04503827918641
C         3.66231723727017    2.23208068274027    0.03659326277652
C         3.14747569194745    2.17349253975602   -1.26526099672144
C         2.92944073945114    1.22140270592072    2.01257306789153
C         2.68533912479735    2.31361977556178    1.11125527364548
C         2.01211786983056   -1.04999871297533    2.24124516234742
C         1.83100074962722    0.37315758480397    2.36732219343507
C         0.82551460137604   -1.82527518774321    1.93435226091748
C         2.14272401989778   -2.92612230452178    0.18064913640247
C         0.96175254452379   -2.84368540498345    0.98120067161172
C         2.38685235440679   -1.67679941878272   -1.94449390857789
C         1.74063019810737   -2.70058965335848   -1.19499818892080
C         2.03953950741505    0.62934325304203   -2.59186037773025
C         1.50832889791886   -0.66481439168848   -2.53656304001447
C         1.81989234454144    2.62561590011685   -1.48637666117898
C         1.15859370980885    1.73250807644381   -2.38802457969876
C         1.40207479813189    2.77830695247106    0.90245863388478
C         1.05046078917296    3.17972528782564   -0.44535793943585
C         0.51365853360887    0.93421019574627    2.30567321757379
C         0.35540185476584    2.23898312207292    1.74653542215727
C        -0.50588672946745   -1.30399929201222    2.14757189904637
C        -0.66324684315625    0.08031005267862    2.41264007565835
C        -1.65176135586341   -2.07281930673468    1.65561990601844
C        -0.12117803985294   -3.11014976733424    0.10174152196569
C         0.35376575336401   -2.84973266216261   -1.23532781162360
C        -1.42429744321873   -2.90514115005637    0.48663330244974
C         0.05615053877123   -0.81096965496372   -2.56192811382833
C        -0.48128604127242   -2.04265023658541   -2.05520797667533
C        -0.24785411661334    1.60967588832111   -2.43226621434163
C        -0.84542922206699    0.30868784065001   -2.59463976079591
C        -0.30017013917449    3.36113050992867   -0.74249637256572
C        -0.96421511215199    2.62368570582350   -1.76912201665762
C        -0.94463062882985    2.72747814571370    1.50564975923207
C        -1.21737722511195    3.46163016914099    0.33296492215817
C        -1.99268634536172    0.65562800338376    2.33083580307319
C        -2.12353821677009    1.99230698178646    1.87063486625127
C        -2.94796587782404   -1.58210079744183    1.81943744954858
C        -3.11748696498873   -0.18590950583584    2.14852795635878
C        -4.00678907279457   -1.94707860414228    0.88408343652295
C        -2.33594666569903   -2.84234617918274   -0.61045762194958
C        -1.84088797213579   -2.17062909450656   -1.80316249172050
C        -3.63777771046571   -2.43563064763181   -0.38798966963079
C        -2.27609507688650    0.16679632606815   -2.33147713873175
C        -2.77982446635037   -1.14283346415861   -2.14112913386195
C        -3.96954065422711   -1.40609857339951   -1.40594337397089
C        -2.33979677295440    2.42674844584659   -1.36653323533920
C        -2.51809639047260    3.05993346625554   -0.12543488814764
C        -3.15529001937739    2.33702386350467    0.92320093275585
C        -3.04351363533489    1.23499968011181   -1.69899237900016
C        -4.25314691640279    0.27514918694073    1.39978944921648
C        -4.79711780971963   -0.78870207213286    0.64803158841865
C        -4.66123788091125   -0.39634888400407   -0.76074475045594
C        -4.09833405649257    1.41051053075455    0.54420822661682
C        -4.14289917176867    0.93227469981127   -0.83447602890344
