74
C74 Isomer 6263 Symmetry C1
C         4.17602685065209   -2.18279180799922    0.27522565136143
C         3.08968650858336   -3.07897063848644    0.45831056306225
C         2.36446563262257   -2.68368837264811    1.63178179776415
C         4.07169785687696   -1.16306729206678    1.23841240463745
C         2.96604179036447   -1.47013932603937    2.11122603315428
C         4.08254703429975    0.10429744049934    0.56908395502022
C         4.02317001291735   -1.55188180028369   -1.02553201923112
C         4.05549456115266   -0.14449081548874   -0.85546958131443
C         2.36080739599114   -3.12575961838808   -0.76381482787615
C         2.91087514434482   -2.13799346739649   -1.67238295025658
C         0.99426064398282   -3.36252034385985   -0.74125792732468
C         0.98025856853807   -2.85679241095838    1.68696388442027
C         0.36052726017281   -3.50049979782185    0.54967473466671
C         0.18827465362493   -1.95856065195675    2.48905810189525
C         2.16657074430407   -0.44630411851281    2.60717806279407
C         0.78886586321640   -0.74038540552839    2.93809135532237
C         3.37951445935417    1.17529386892992    1.11073170481516
C         2.57168754678741    0.92120586724729    2.29062115354174
C         3.05015777571443    2.26269370722958    0.20388254981192
C         3.30553100079696    0.68235993893480   -1.70685308887354
C         3.00325826000183    2.00804253412211   -1.21374517924766
C         2.05854659714050   -1.34554496695602   -2.47353573045927
C         2.42926966606547    0.03210288878382   -2.65314481171904
C         0.21347189266152   -2.86691584969297   -1.85781164260635
C         0.68730160243595   -1.76355366923671   -2.63326910088395
C        -1.16780514998637   -3.11110243097668   -1.81488858499202
C        -1.01972315119182   -3.64987259838783    0.55906047268049
C        -1.72698231411419   -3.70776342963110   -0.66366371651707
C        -1.25906389778926   -2.07727066498502    2.41708456279717
C        -1.85220481275378   -2.98416481219823    1.51970133349138
C        -2.07392108826233   -0.98996857740663    2.80247338149390
C        -0.06620969768835    0.36714729853896    3.28825869499752
C        -1.46667178683788    0.23464534496445    3.20299288232745
C         1.74389774209953    1.94748528204887    2.72052452322143
C         0.41408913186472    1.68348782161437    3.21096483466054
C         2.25749472444079    3.30357828321175    0.72387166814213
C         1.71629166742105    3.17469407746873    2.01436645209221
C         1.23907675263309    3.97031721426058   -0.06860563584055
C         2.13838571302113    2.80697734910323   -1.99729028744019
C         1.18421488114632    3.72184056885566   -1.40633555122695
C         1.49034805321530    0.84190674298906   -3.31575934580274
C         1.48407899186927    2.22793497830879   -3.09533262810905
C        -0.29873660648752   -0.84587975325748   -3.15713239188995
C         0.13888487308252    0.41966704390902   -3.53443964124803
C        -2.14794361288761   -2.20180093545903   -2.36436603679526
C        -1.72198524505447   -0.99025097140003   -2.91040677062890
C        -3.02969547965355   -3.16093675322672   -0.45152511147732
C        -3.11652112318717   -2.69493804027040    0.88040774217062
C        -3.32953966677970   -2.29325308205716   -1.54145009142981
C        -3.34305594717221   -0.70524511540597    2.20067869896823
C        -3.85366830821516   -1.50936919545286    1.15519441859517
C        -2.31018777096853    1.30358403104209    2.78167494442256
C        -3.47436335718481    0.72621276603337    2.18370399892442
C        -0.43205736392903    2.73603127045997    2.73704083454775
C         0.36073863446948    3.64253074140509    1.99878077709073
C         0.01290843415750    4.05167450173362    0.69556527303970
C        -1.75928971522823    2.51111647270623    2.31982879944939
C        -1.23979531625627    3.68255013989521    0.14557661741376
C        -2.19766011225882    3.05294821717360    1.04243527671652
C        -0.10817978735641    3.53389493392182   -2.02959229414416
C         0.10642427829250    2.68314870625837   -3.12230611878908
C        -0.71692870145883    1.57883619561611   -3.38102191500052
C        -1.29891832224477    3.40834510209923   -1.26838676414247
C        -2.56641249287881    0.18021867980752   -2.72850391373326
C        -1.97324497681373    1.49505056278120   -2.76841263204048
C        -2.30158905869214    2.51227076852062   -1.78804972132440
C        -4.09660161131580   -1.17585223220744   -1.30345211236502
C        -4.48183626226404   -0.84067812382610    0.05430145015013
C        -3.76164119693915    0.04053175265948   -1.99975349773238
C        -4.04456610392684    1.37095819672124    1.10130336963875
C        -3.32665285864093    2.47117472288505    0.46981066035127
C        -3.39687401232516    2.24834657764419   -0.94892109904186
C        -4.61006733374491    0.56294657567218    0.08180610312288
C        -4.19154895782716    1.10915790341280   -1.17923700126918
