78
C78 Isomer 2649 Symmetry C1
C         5.65836255819068    0.94889622713933   -0.77273657030326
C         4.80131177087883    2.05381357689055   -1.14378004107811
C         4.39627829763725    2.64843114412214    0.05179316691647
C         5.55457692392060    0.73971449286976    0.67131089951290
C         4.82708030762647    1.79363724559612    1.18858638742155
C         5.05876184867737   -0.58783747629125    0.92470383511240
C         5.13067796356442   -0.19374042050779   -1.36666809030703
C         4.90967055659593   -1.20807619229344   -0.36417663903304
C         3.77711251354901    1.56502640446646   -2.04378668185855
C         4.02127822079801    0.15636371695456   -2.22723321662961
C         2.44096966307035    1.98494411063584   -1.92497501931535
C         3.05013265363414    2.96201619844732    0.25676707451979
C         2.10673468566567    2.80228344527395   -0.78355302166814
C         3.68839169652561    1.58149812847261    2.02061363497509
C         2.65865845378209    2.45206487393779    1.55008999614429
C         4.04655314586995   -0.81482892388619    1.89905244819149
C         3.29213081426695    0.29608761607715    2.45722215017719
C         3.36290256760387   -2.04150660940405    1.74856277508413
C         3.94533999712266   -2.17864816740613   -0.61425135886168
C         3.39070111453027   -2.78018341320176    0.54206244250155
C         2.97872456202176   -0.74507289943406   -2.42057632197693
C         3.08231587754286   -2.04321955099750   -1.77316730050899
C         1.39140106522146    1.13887783007287   -2.46455987739953
C         1.66961154626149   -0.22041111841026   -2.74808977339288
C         0.02295753674513    1.56826202505241   -2.34294141235161
C         0.75982966753416    2.89442822860014   -0.39630521318923
C        -0.22166353919146    2.60880362769425   -1.39910275416693
C         1.32600817444958    2.24766512834615    1.86596912959478
C         0.36396167646082    2.78793447653826    0.96282632562647
C         1.91282653248377    0.11246281868135    2.86348921882944
C         0.93771698617563    1.14868364992915    2.68962385147182
C         2.10268581830886   -2.29524978032720    2.38098719333879
C         1.40552463467821   -1.23273201175736    2.98404873362030
C         2.18921619554607   -3.54837598691630    0.48089278810707
C         1.40060725895333   -3.30197358482193    1.65308234057679
C         1.96067297001143   -2.84934796769858   -1.82711571770081
C         1.53873828992036   -3.68387130690500   -0.72146631304510
C         0.55672993288731   -1.11237200542787   -2.90129200876126
C         0.77945390630101   -2.44866636690439   -2.52488688466466
C        -1.09679202091761    0.76264395847759   -2.72693895486686
C        -0.80458557127248   -0.62291439694403   -2.97578748344302
C        -2.46457322008110    1.18349598859500   -2.44777125050705
C        -1.51348333924824    2.96438409409580   -1.09013255734097
C        -2.63021487663196    2.41483933595919   -1.76969257153349
C        -1.01087191745997    2.72538824844979    1.29943929381602
C        -1.87939426872344    3.20768704866255    0.29532373099162
C        -0.48719978392392    0.93073987620704    2.85513798234271
C        -1.49598222168312    1.80049339964290    2.27062448561755
C         0.02745215086586   -1.43597416875804    3.13263870950362
C        -0.89413877826111   -0.34957814372043    3.21278382349050
C        -0.00770326496811   -3.37002265055414    1.61628547109021
C        -0.66010947451435   -2.52350753691941    2.52824356466947
C         0.11363110255487   -3.81956540353588   -0.76070928097461
C        -0.29521662378414   -3.21802542298585   -1.99295339099078
C        -0.70140709388833   -3.68908071141264    0.37938397072112
C        -1.85650505973183   -1.53289769432351   -2.77110846652599
C        -1.58022139273558   -2.79150184524736   -2.15147779244224
C        -3.54823322115075    0.21783148852236   -2.29043066814419
C        -3.16339458526869   -1.13890723706920   -2.34858281027958
C        -4.67470338798205    0.49580616090277   -1.44127526847859
C        -3.75616512518997    2.66095149271995   -0.91542185356767
C        -3.24131523978097    3.03325013801460    0.41511402068741
C        -4.75469456840545    1.75090712708320   -0.74698833624452
C        -2.89716613900630    1.41990716233471    2.23103545238809
C        -3.78415388170423    2.15805370350678    1.38811712171125
C        -4.87577975567008    1.50226935489316    0.71468882808813
C        -2.19173208741626   -0.83144717735603    2.86281390422054
C        -2.02739614620867   -2.14813453638056    2.36032278166747
C        -3.22791592140065    0.02060707278332    2.45418380945926
C        -2.08449987655842   -3.28917504353039    0.19566823184626
C        -2.53202014013346   -3.00853929145510   -1.10925379144461
C        -3.60322821464291   -2.10291595741487   -1.37922055002337
C        -2.79105316128043   -2.60328332913231    1.26690125053576
C        -5.07929163858984   -0.46778802724514   -0.48288997732038
C        -5.06950804992364    0.15464411562740    0.84761688579899
C        -4.24454780195575   -0.63104178902684    1.70467078190052
C        -4.44056926427834   -1.70132077349554   -0.34823227600762
C        -3.95526098487047   -1.85605981317794    1.01285300407940
