66
C66 Isomer 1437 Symmetry C1
C        -4.47185665335210   -1.47272175756715   -0.51978125269335
C        -4.57087762763769   -0.09702720819238   -0.34226765432949
C        -4.10657423388750    0.25224019011389    0.98001667369007
C        -3.86093175060407   -2.02530694245589    0.65402487557206
C        -3.56646711554023   -0.94919603551252    1.56813419295819
C        -2.76206306227236   -2.77879950847059    0.23438743607838
C        -3.54509577466276   -1.69084025909450   -1.62661421635887
C        -2.56234670137211   -2.58428510515402   -1.20984946559465
C        -3.92478206797608    0.54243545565728   -1.48151163244317
C        -3.13819683672432   -0.45105837147961   -2.19455487566925
C        -3.41433608114906    1.78043716716598   -1.29232067959917
C        -3.51203768802925    1.51109065469961    1.18789037436149
C        -3.41180773783661    2.38747310298683    0.04637860977502
C        -2.45273456137764    1.57617137860851    2.13196175915808
C        -2.31966318058448   -0.90425803402512    2.25383330563810
C        -1.83778921988835    0.37027352627175    2.60042560927336
C        -1.61839223805195   -2.90322459985082    1.05397065156806
C        -1.32374275239577   -1.94620420256952    2.07481060746209
C        -0.56182555874848   -3.53601603378064    0.37496209452167
C        -1.25343250778069   -2.47030476598656   -1.72880443898916
C        -0.33297676632728   -3.27044939614186   -1.04165189827035
C        -1.77015567692520   -0.19733394791892   -2.51122726130468
C        -0.80113309664486   -1.25720050001361   -2.37573436665836
C        -2.19378702175631    2.15792029040117   -1.97366308610260
C        -1.29566148862933    1.16737976172600   -2.45953768643535
C        -2.42633831358895    3.35630608299036    0.01180518775136
C        -1.72686235733682    3.28383757603571   -1.27192904941721
C        -1.42020971023881    2.56995359363765    2.05321234933047
C        -1.41818561427405    3.48615333826763    1.00819008262173
C        -0.43391572499357    0.61992723019110    2.79858039372544
C        -0.17716931169506    1.97976959953889    2.47872726797949
C         0.06861644470885   -1.70838384306723    2.40727120246987
C         0.55119442906167   -0.36738844349483    2.67276849509557
C         0.67860396892641   -3.60251242584966    0.98561112686258
C         1.03385757053995   -2.63243438580192    1.95314556734711
C         1.04634513068236   -3.14842688422771   -1.25576869916481
C         1.69062540517735   -3.57485521916334   -0.05089428962050
C         0.61474719454703   -0.98155316010957   -2.42065180851021
C         1.54785282324807   -2.01757722715687   -1.98860955007873
C         0.11890456095311    1.44284618387802   -2.41458477956661
C         1.09059798584599    0.37895150561946   -2.50706479502896
C        -0.37683729024816    3.49153991550786   -1.07489482911155
C        -0.16474331261020    3.72144228261438    0.34588939662354
C         0.53805502322389    2.68910441267226   -1.81743809935391
C         1.07461814658836    2.37226001878084    1.99241430670116
C         1.04393204918429    3.32781721416359    0.90371276183105
C         1.91593715238920    0.05703622647787    2.40146553884787
C         2.17292469025877    1.43887305277727    2.11057799696532
C         2.39785945737163   -2.23257888474815    1.67962788885544
C         2.78551449824700   -2.88829273717366    0.43444000325194
C         2.87118223903064   -0.94815558636528    1.94932463195944
C         2.88334722774112   -1.69565315839330   -1.72834944568402
C         3.53461929139449   -2.18943360276035   -0.52257970712886
C         2.51229024750000    0.67797839365642   -2.30850940833109
C         3.41046374498692   -0.37979586828281   -1.98401180963407
C         1.84986212305620    2.84727311779819   -1.39214111980296
C         2.10700248084147    3.27647366676326   -0.03801096079021
C         2.88826300521838    1.96086516970021   -1.80385219380921
C         3.38736837080892    1.79780197687571    1.42050982591627
C         3.32004963735271    2.74033678507257    0.34608044089915
C         3.92660194823045    2.12025270010620   -0.83827582567807
C         4.04733362804573   -0.54540831137041    1.20717036196327
C         4.36696631611950   -1.19684158977502   -0.03701583934305
C         4.48501156164944   -0.17660128028693   -1.06558905460404
C         4.32279092940173    0.81510593114311    1.03519977508405
C         4.65358975280849    1.03379177434120   -0.40083101303217
