70
C70 Isomer 969 Symmetry C1
C         5.22510160586224   -1.32155211997537    0.17133463238049
C         5.39634626981330    0.11143572146045    0.03050807301025
C         4.98815541085424    0.44876867924813   -1.25993047486816
C         4.52794697308027   -1.81773382853632   -1.00056788305194
C         4.40720511544693   -0.75350383698399   -1.89417962562244
C         3.31929902155200   -2.46067160609338   -0.58247427628036
C         4.36983435911050   -1.52494645296000    1.26031921607919
C         3.26779399800264   -2.35617003974841    0.85586542640445
C         4.74160604542100    0.75187632520004    1.15165984813225
C         4.07387044737297   -0.27368970165595    1.92125116908789
C         4.03170970231547    1.92201222792251    0.92761332812495
C         4.09329227509170    1.52491651952705   -1.49174127912419
C         3.77402717210853    2.36546383508392   -0.42298500469844
C         3.15328684954483   -0.38738844842512   -2.43827670690683
C         3.00455853176250    1.03634637662728   -2.31965228073940
C         2.11256014244766   -2.24803428048559   -1.27418301030878
C         1.99672583580789   -1.18820975628598   -2.24305689026091
C         0.91693909411208   -2.61493415599852   -0.58686134918910
C         2.06165300468871   -2.25037867082813    1.52453067108600
C         0.89405017031900   -2.69962297881353    0.82732766768061
C         2.81112760968321   -0.07434499752109    2.49980784867844
C         1.89403393891692   -1.19899945141291    2.51527122883390
C         2.84818521183312    2.21068860173021    1.69183184660533
C         2.22319893327031    1.25294633350494    2.50614464268055
C         2.50663003787590    3.01042943216585   -0.42680004856207
C         2.00852729388244    3.07297414391088    0.91065929504842
C         1.74047929468904    1.62346519064953   -2.30648764519487
C         1.57598263279755    2.78236475792280   -1.46381587262123
C         0.71034097030052   -0.59935673519605   -2.48638581474123
C         0.57877712470347    0.81347732943988   -2.59903066734304
C        -0.31393894070524   -2.45375180001394   -1.29438130822034
C        -0.46810412440223   -1.38995167005299   -2.23160553266759
C        -1.45954654570426   -2.96582228464260   -0.64964582403729
C        -0.36378712016197   -2.65788654900238    1.51014181183561
C        -1.52687355023115   -2.94531951988388    0.80043687398239
C         0.61562744646859   -0.98266105906108    2.99096454217588
C        -0.50268800416362   -1.80745890283684    2.62213338512934
C         0.82572088532864    1.45102794727408    2.83855647549709
C         0.10801946754318    0.32955026768780    3.27407017497942
C         0.65364985159696    3.27164893383368    1.19192095593811
C         0.04989465050428    2.53820534893539    2.27785351752190
C         0.27806422593310    3.21663595722821   -1.21385074456736
C        -0.15371585037031    3.62301650451595    0.08469491858396
C        -0.73495528999861    1.39466938056437   -2.51269293454178
C        -0.83637405757305    2.66626972380282   -1.91059683498482
C        -1.78394721095750   -0.86527865426888   -2.51185646029686
C        -1.92583755970590    0.57726268240081   -2.59384411701063
C        -2.71491841043813   -2.68602923102420   -1.15498827760985
C        -2.90779144009161   -1.64319604413420   -2.10246603223272
C        -2.80505679934505   -2.43817233824403    1.17866226685444
C        -3.60308285553893   -2.46060216677639   -0.00959336615528
C        -1.71032125020942   -1.08561760506704    2.81527162226203
C        -1.31411563138707    0.24205513505369    3.21619165883131
C        -2.88903672741974   -1.32649337929746    2.06589024494795
C        -1.35660453185383    2.47193225551812    2.30785802010944
C        -2.05652641692119    1.31627181180988    2.78303170614780
C        -1.56911822019847    3.51495979963528    0.12175092801841
C        -2.00310378277412    3.04446925735506   -1.17439130734097
C        -2.18328295226806    3.01693818993604    1.25941331812053
C        -3.15368499596450    1.16686458833478   -2.18159471749210
C        -3.14974231812551    2.31622332204728   -1.31310654143154
C        -4.13099777387831   -1.01203556592292   -1.70015689109136
C        -4.46005853243106   -1.44297530390198   -0.32124383096269
C        -4.21871349269503    0.35144988285708   -1.70920391809286
C        -3.74736274375250   -0.19110798913483    1.70763835601317
C        -3.27441843639513    1.10898629976028    2.03797807100407
C        -3.36902110382480    2.21463903856578    1.13347311383483
C        -3.94836422702630    2.01790399111547   -0.13025329572602
C        -4.55644059653629   -0.28106343929127    0.52489766091659
C        -4.61569010699277    0.81781477085193   -0.36505375256192
