56
C56 Isomer 19 Symmetry C1
C         4.65100846070530    1.01225267186022   -0.39413457675111
C         4.97805835501596   -0.24726033800801    0.09385821062080
C         4.54293028645821   -1.22457976353278   -0.86221564898705
C         3.86582456213881    0.85727202260029   -1.63284064281473
C         3.79789954414817   -0.52030686824122   -1.92552331622087
C         2.66226227831956    1.58431529551586   -1.45374866458102
C         3.81180333045368    1.69255056931174    0.57116817037248
C         2.66488674147699    2.14606828131034   -0.09854508159293
C         4.23116216247729   -0.42952480870641    1.36344133949026
C         3.62407817598698    0.82589709431643    1.71655065248282
C         3.58076656515778   -1.99750528328839   -0.19178324192784
C         3.38281864055632   -1.53787488932821    1.18917873770342
C         2.49934513916961   -1.10706454212199   -2.04651749071024
C         2.40103007794292   -2.09943405532670   -0.98735395037013
C         1.43376074959493    1.07310330871503   -1.92328034231695
C         1.34528375710473   -0.31421396283439   -2.25952536796889
C         0.21613576200857    1.65828686485669   -1.42716381528209
C         1.43066482777945    2.27721742695444    0.59516232642909
C         0.21955252318196    2.29197623330712   -0.17363298490466
C         2.35800666989255    0.80026603260083    2.29373451115494
C         1.34212950472784    1.73424693709391    1.88662145199359
C         2.06534913952108   -1.56446049822477    1.73776114274494
C         1.64973564150182   -0.44705172333747    2.49099220446569
C         1.17095797825381   -2.36412382835286   -0.39972780719881
C         0.99388591899918   -2.23197734289249    1.02263898440717
C         0.06011602576936   -0.96057457343292   -2.08986111530902
C         0.03156182386899   -2.09879572855451   -1.24756478584252
C        -1.03670698339166    1.16391694833922   -1.95548540829543
C        -1.16248492425416   -0.23199578035976   -2.25658962666109
C        -2.18393872742985    1.86775884263298   -1.56789304139237
C        -1.04004996075682    2.36166769193438    0.53367444560637
C        -2.17703063169358    2.47163741133269   -0.24999232990111
C         0.06195481906979    1.21216333341865    2.30424133294849
C         0.25265104903608   -0.14988090575320    2.63595249812731
C        -1.15196903732889    1.65410115421355    1.77877083615427
C        -0.34577325799067   -2.14620977425688    1.48889875592106
C        -0.78222457343234   -1.05374574973849    2.32480742571285
C        -1.19843556903595   -2.53715594276826   -0.77992865237682
C        -1.34998165737665   -2.68972250044109    0.64320764394348
C        -2.45730517713118   -0.88506468749870   -2.08468734560425
C        -2.43308397202776   -2.11769834694033   -1.35893833330475
C        -3.47644019348900    1.31866992257910   -1.78016645553537
C        -3.64282629395840   -0.08899812271040   -1.96261215382793
C        -3.44994067764487    2.20855939205575    0.34361782768683
C        -4.34143823809340    1.75663654847759   -0.70456209349321
C        -2.34086266679147    0.86659244235506    2.04855386911777
C        -2.13387779732527   -0.54565517845031    2.27571965528901
C        -3.54809986645693    1.33040468968818    1.45060056488386
C        -2.69613074700334   -2.47877760691906    0.91955049905007
C        -3.42277008151303   -2.35412935700053   -0.35275590388283
C        -3.14601359013731   -1.43503587579324    1.76716761838969
C        -4.73255170199243   -0.46855437081068   -1.06619331706207
C        -5.09534750227819    0.67910689837062   -0.25126480728694
C        -4.62658896958652    0.40059870530333    1.10924088255604
C        -4.50796449968770   -1.52651637165497   -0.16719355394144
C        -4.36978321251032   -0.95237794186497    1.21457026809217
