76
C76 Isomer 2926 Symmetry C1
C         5.55493917319477    1.31003302691906    0.39608861187485
C         5.50904965085402    0.20952453790141   -0.55117216677089
C         5.32505730423537   -0.94690035172124    0.19510934427711
C         5.04930140945531    0.82184630044628    1.67928179282893
C         5.03621136343126   -0.55978568419206    1.61186640585003
C         3.81118992465922    1.48812828080050    1.98019831441354
C         4.66533261672453    2.28083983457215   -0.05328240024917
C         3.65475184197858    2.49150435764368    0.95615349058180
C         4.56409859667708    0.50916552896904   -1.60061482884500
C         4.20579555359432    1.89314238574838   -1.37136461794160
C         3.54021256269197   -0.40487364489045   -1.98297872408303
C         4.36440669574463   -1.88684555696283   -0.19125042915730
C         3.50153677016206   -1.69092662999039   -1.31788753556091
C         3.91653333709809   -1.29083747039993    2.04521084376223
C         3.74415731372614   -2.31103761301400    1.04421769711841
C         2.66405483030275    0.77289377279254    2.42903957628933
C         2.72804780849334   -0.66334010511434    2.53442151428860
C         1.35831351193326    1.36634645663022    2.23477767759774
C         2.38289446028802    2.90766194408311    0.57018467892019
C         1.25693653105609    2.50596716556199    1.37188262740169
C         2.97478364548758    2.33574907047502   -1.74616332600791
C         2.16484390967438    3.09125400467056   -0.82371342361983
C         2.27200610936453    0.11030857486723   -2.51493339111192
C         2.07764624628021    1.49745824260284   -2.49555688009434
C         1.06800648469100   -0.68912346367588   -2.62365246293517
C         2.30079311030117   -2.47059519441043   -1.37148282758282
C         1.16027612031950   -2.04757264014305   -2.17131934674479
C         2.59025851742754   -3.00325840752717    0.99347978274351
C         2.01119200190804   -3.32173256649354   -0.27712708156411
C         1.49716525459494   -1.42260609941043    2.49973958075516
C         1.52471810662471   -2.69837333329908    1.90440289290886
C         0.15433381075063    0.62951130427010    2.52256904693570
C         0.20338579057425   -0.79791126443743    2.60208661341849
C        -1.12669786143217    1.27459150474699    2.39601463730484
C        -0.02395885902190    2.89162121846981    0.92356946908972
C        -1.16597573581905    2.49854530066134    1.67468593860938
C         0.85554478002923    3.02760276410166   -1.31460790208058
C         0.77249115889067    2.04948599665028   -2.36361274040404
C        -0.22689432278838    3.15796062615327   -0.45989427647759
C        -0.24689473974764   -0.09027080636273   -2.76652430113187
C        -0.39498978111860    1.31614257273947   -2.54776415914239
C        -1.46941108196990   -0.85243865912972   -2.67732896632279
C        -0.03627969655952   -2.76068419193141   -2.06126427324071
C        -1.30828556389545   -2.21534320888495   -2.40598109048988
C         0.69147608187737   -3.72643008014430    0.02870025692258
C         0.36268838079629   -3.28641336877953    1.35852181535490
C        -0.27470937038647   -3.64772667800163   -0.94846913130552
C        -1.00509751083145   -1.54739580680593    2.34552929685225
C        -0.91354804219741   -2.80423522353971    1.65470205729103
C        -2.35970063080118    0.54127539470295    2.54553801906578
C        -2.29198431196066   -0.89816460666649    2.39988486797073
C        -3.58541122649578    1.20241217594252    2.26777329989048
C        -2.38981809064525    3.02365310734179    1.21618292616163
C        -3.58611215845694    2.50973843226996    1.70883575578990
C        -1.49737938387482    2.89303872976053   -1.05485757754911
C        -1.62643754094412    1.89890143483083   -2.06401762289847
C        -2.57044796705282    3.22646827453011   -0.22470758816167
C        -2.77876281668386   -0.23536895851765   -2.42007030991686
C        -2.87063303050392    1.19374113226194   -2.15579307712839
C        -3.82759165222159   -1.03674858571999   -1.93364165803742
C        -2.30854068480276   -2.91517920157784   -1.64339262070541
C        -1.62658417446009   -3.58762445014123   -0.56456242313784
C        -1.96847772428839   -3.23660938212664    0.77072349615443
C        -3.53739522710832   -2.36096321421483   -1.44224820807923
C        -3.41134611707613   -1.57552102672869    1.86911017966851
C        -3.23107064368885   -2.67586192868098    0.97252665863517
C        -4.11262397684559   -2.48425233035318   -0.13476840582267
C        -4.68338406624278    0.49882628476265    1.61468504026344
C        -4.84628542647803   -0.50276644574463   -1.04595040016331
C        -4.57573467295194   -0.84809323943792    1.39746403907052
C        -4.93265584611877   -1.36861949938311    0.10280396823544
C        -4.57745256696009    2.56741687528174    0.62906654657913
C        -3.85969712735546    2.84061651635006   -0.59165111243633
C        -4.00294510382525    1.72746809067875   -1.48657099407360
C        -5.16845387205780    1.31827181981706    0.51466998910017
C        -4.96376216022370    0.84931787754756   -0.84952046900173
