80
C80 Isomer 13897 Symmetry C1
C         5.38327793447369   -0.85443343231921    0.18535420614456
C         4.75018249835360   -2.00957859661243    0.55766989963197
C         4.18037648378426   -2.61455161974702   -0.64951630624023
C         5.13093064174053   -0.68473602299233   -1.26810490845314
C         4.16353973751927   -1.65498021887742   -1.69380522874252
C         4.87110661137500    0.64186576734905   -1.45548321131273
C         5.05861600356973    0.35667384949581    0.85885695202421
C         5.02997489561628    1.34636207655416   -0.17279851624861
C         3.99573838490382    0.34870141177072    1.84381531377332
C         3.71566259349820   -2.03858111067518    1.55048445007837
C         3.22010513119089   -0.85511491712827    2.13588933987470
C         3.01793426539323   -3.26640054825362   -0.29135950100156
C         2.76834461411966   -3.01040366610333    1.10679427503657
C         1.92908345143469   -3.22040164405453   -1.19065825578606
C         2.89720932868227   -1.24181548286915   -2.25106071078949
C         1.76115864364946   -2.10905961976518   -2.08186129599491
C         3.65194876935491    1.08488565632557   -2.05247725891275
C         2.62612925952415    0.16487759842973   -2.41697607827368
C         4.11987770608406    2.38618814145923   -0.16038943440910
C         3.30426742096814    2.28670473638065   -1.37704805289449
C         3.29838577284117    1.55182689243394    1.98379116859204
C         3.44101255429765    2.62460790383273    1.04216414969215
C         1.94443567471657    1.61173421621260    2.46825325486957
C         1.78583153610212   -0.78871185704306    2.47799845285469
C         1.12792654210125    0.48045204720629    2.65380115356986
C         1.46689360118509   -3.03504638230698    1.58558904970093
C         0.92250257405097   -1.91177507448959    2.29737691564587
C         0.80917672649842   -3.80595566798542   -0.63081191620936
C         0.61269345734391   -3.80741794972487    0.77411638678516
C        -0.46284855864070   -3.67529879352553   -1.23935744373007
C         0.41022798109949   -1.66679322702765   -2.34185187735059
C        -0.70735685976140   -2.55594426354651   -2.04309538649050
C         1.26123528476791    0.64625218015156   -2.44590550044477
C         0.14590498068256   -0.27068871713767   -2.53443162174950
C         2.01243969535178    2.76067310603150   -1.40042439014204
C         0.99014641741378    2.00517801347359   -2.08983162290608
C         2.22748047864818    3.32596517206190    0.98259377178247
C         1.35754040523618    2.80892133871233    2.00103831460863
C         1.62709800104630    3.58583169417482   -0.27765359461071
C        -0.02077425525866    3.01093890705779    1.96901551870312
C        -0.31750602852036    0.64605306021143    2.60389172346255
C        -0.90525833566231    1.93974118680406    2.33872819215460
C        -0.51726426177547   -1.79988391505955    2.38811737625484
C        -1.15212081494405   -0.52762812649555    2.54226335388240
C        -0.77086774784551   -3.85076417995865    1.02719797409256
C        -1.40645097615048   -4.07469045638706   -0.23962265241468
C        -1.33331665118708   -2.92111177605929    1.92983351804366
C        -2.71901769887816   -3.76445185403392   -0.41293455099036
C        -2.08220350963496   -2.11074262934514   -2.13031406445655
C        -3.08613330640982   -2.86260307454959   -1.47915180615864
C        -1.21986499308364    0.22475955123035   -2.53430317260868
C        -2.33321538602507   -0.71649185834725   -2.45303796985260
C        -0.35231270036766    2.49390370281344   -2.04881904423691
C        -1.46966279940542    1.62531371632975   -2.34896730352972
C         0.33027917050850    4.00852259424820   -0.23432694597660
C        -0.42061344051761    3.97276134707912    0.99609929522804
C        -0.58524019781023    3.68198139322976   -1.30427156686113
C        -1.75528458339283    4.05224541118375    0.64345042146200
C        -1.86195862358148    3.96687240793781   -0.80321314266181
C        -2.30636956216947    2.06935619839509    1.98566220451546
C        -2.71302987807033    3.17708503782877    1.19502947792853
C        -2.59476555539898   -0.38188756551540    2.34656694984585
C        -3.16981677111317    0.91220039369869    2.00336990438330
C        -2.72753953914595   -2.77524261556617    1.81539059061430
C        -3.43670471072221   -3.39529667897619    0.75185938449409
C        -3.37141388467225   -1.51829513863730    2.08762785333495
C        -4.32043885003746   -2.25379253081651   -1.04520907478085
C        -4.50367404710217   -2.53439409105592    0.34403059045995
C        -4.56393730061123   -1.46046388831059    1.26530489843675
C        -3.63652865956118   -0.23853969082655   -2.25546168435530
C        -4.62808857625473   -0.99096550743224   -1.51089918514233
C        -2.80423963842597    2.08116333166774   -2.01185770425102
C        -2.96810692709866    3.18289330433698   -1.12232099020843
C        -3.66232603797068    2.96022888408087    0.12892782902005
C        -3.85860102525932    1.15231261839209   -1.96839096236784
C        -4.38812543393365    0.96078683228636    1.28775525119321
C        -5.01288274040296   -0.23878433800951    0.79453172472645
C        -5.24563852067184   -0.09004431916993   -0.60444636097547
C        -4.54424965669119    1.93327641659482    0.22996175233297
C        -4.86092618496137    1.23766494927423   -0.96875254471288
