70
C70 Isomer 721 Symmetry Cs
C        -5.03125037109924   -0.66137314444666    0.30103915377178
C        -5.02531392539319    0.71989378820877    0.32057277107344
C        -4.32743231913976    1.18750487499930   -0.87097142952163
C        -4.33790616387476   -1.10208931513549   -0.90384778248724
C        -3.85989142986062    0.05093329327046   -1.62131832827822
C        -3.38198350361962   -2.04756907603967   -0.50912273627271
C        -4.26643137518342   -1.13757636747307    1.44477806527999
C        -3.33729299460067   -2.06418140762996    0.96502107786967
C        -4.25625003019381    1.15679645963788    1.47772908204566
C        -3.75065800511667   -0.00290392157028    2.17298389141689
C        -3.36266131327853    2.11259515839573   -0.44957480718126
C        -3.31863906803707    2.08766974103004    1.02434925129987
C        -2.16327187504067    2.25512599269518   -1.15274247168007
C        -2.55421150119365    0.05261187579755   -2.15809341898619
C        -1.77550279315229    1.26551988484470   -2.11767146147508
C        -2.18400950271103   -2.18133596510053   -1.21659675599687
C        -1.78698914350762   -1.16820726002517   -2.15278021280185
C        -1.18702425510791   -2.99616945292450   -0.56741538453194
C        -2.09208342817975   -2.21594927733762    1.59821928345027
C        -1.13202406900173   -2.99914659783192    0.87624930269389
C        -2.42364313417267   -0.01562771552004    2.64120271742316
C        -1.65813659584573   -1.24160492225715    2.55234136616121
C        -2.07208901214156    2.21036424024176    1.66197359396278
C        -1.64730282714670    1.20535978978701    2.58755175350377
C        -1.15912406327249    3.04219820009611   -0.48045072244911
C        -1.10484309950397    3.00471379536972    0.96264561138822
C        -0.00266318432036    3.30584976865576   -1.18454700114053
C        -0.42505615672285    1.27103136400256   -2.58253105181166
C         0.33381211556715    2.44231109155485   -2.30786949027362
C        -0.43660426190300   -1.17328512370938   -2.61814385073536
C         0.27520815884499    0.05014687376598   -2.89455709622489
C        -0.03311438213953   -3.25032055433900   -1.27913983468148
C         0.31104221405919   -2.35844856925585   -2.37773377831480
C         1.18648059342526   -3.65563767182292   -0.63089643882197
C         0.09780074107677   -3.20722375555061    1.48522971065489
C         1.27042164538972   -3.57755324158268    0.75559915422420
C        -0.29275720838172   -1.26507703944639    2.97069924349541
C         0.49400686552707   -2.36884763854491    2.58243858263260
C        -0.28154610142579    1.20449124054509    3.00647590893299
C         0.38083417372649   -0.03843612904269    3.34932299147848
C         0.12691288292750    3.18426447865351    1.57730012866629
C         0.51507263608099    2.31166534876354    2.65027144356191
C         1.22010055050090    3.68213976117646   -0.52522457766121
C         1.30292563034669    3.56436920044577    0.85850600476472
C         1.72277035280787    2.42776102681587   -2.39971406012919
C         2.29366239518705    3.17722855894130   -1.29899782409151
C         1.72511269361580    0.04340830268614   -2.89065694767332
C         2.43541998950209    1.21990648744058   -2.54489384348643
C         1.70075625222416   -2.35334094356984   -2.46825146714420
C         2.26438516024668   -3.13830186644127   -1.38994499284628
C         2.42462212123600   -1.14864304234799   -2.57927745265542
C         3.30146033777129   -2.39909950077271   -0.80991585607492
C         3.47081750851491   -1.18801273523869   -1.60229083140747
C         2.41402161008149   -2.97260097270631    1.38256863696396
C         1.91714606340551   -2.32221695306878    2.56964015650505
C         3.43815305786673   -2.35928822509706    0.60917795652236
C         1.77533346271000   -0.04636043449650    3.47787778818752
C         2.55478917963012   -1.20307186950262    3.08761067316944
C         1.93829303326068    2.25283303812915    2.63688385568207
C         2.44091865391659    2.93155065238962    1.46820496846435
C         2.56514237845656    1.11381835206401    3.12228699370368
C         3.32234605663265    2.41191395063678   -0.74028946265614
C         3.48082122437938    1.22177042827866   -1.56716515757853
C         3.94391388541185    0.00654296279686   -1.01099100756281
C         3.45885530603093    2.33053110860858    0.67730825065373
C         4.06633620050889   -1.19831653961935    1.15385306330338
C         3.73583662810705   -0.76408162732695    2.45093280041000
C         3.74265953218505    0.68179701188071    2.47188639492154
C         4.30431167679034   -0.01484269454552    0.35928699465102
C         4.07620412631597    1.14912344871414    1.18859891174376
