78
C78 Isomer 16750 Symmetry C1
C         4.51888809570478   -0.82484673821842    1.66532306895118
C         4.80221093572405   -0.89294048525034    0.31534598276671
C         4.87364755545492    0.47488901674385   -0.19836437107655
C         4.27826608429999    0.56935416380167    2.00414925740309
C         4.46382781274076    1.36389509553115    0.82917481337514
C         3.07040350137607    0.61031153380184    2.71145865965252
C         3.46827316269272   -1.62152516450041    2.19437730158544
C         2.63355153118116   -0.74398234263449    2.95265061346591
C         2.87536503950155   -2.62244313862706    1.38258115489144
C         3.99541637331002   -1.67993128552291   -0.56731669003328
C         3.06072183678793   -2.60714855515312   -0.05363174378378
C         4.21603922135722    0.48017169055552   -1.43755353754986
C         3.65867693382530   -0.83600849929244   -1.67693326298693
C         3.46440354335828    1.59281706793702   -1.77819029336032
C         3.52898800614906    2.39075663187745    0.56171979468909
C         3.22842073387759    2.61572632235448   -0.80810981609496
C         2.10346179346817    1.62328873686539    2.50572082045229
C         2.44849369648351    2.61378084372887    1.51785289354115
C         0.71930901221861    1.36180921410045    2.86833457438437
C         1.28442979307157   -1.01975785563673    3.18749792919156
C         0.29749408903535    0.03237786959137    3.22338720766500
C         1.63712302440411   -3.05949056337081    1.86191360045289
C         0.90805711139640   -2.32813279969635    2.82618503672164
C         0.69327806086878   -3.75608721906858    1.04053056933402
C         1.96393869535025   -2.98907737085259   -0.90614422985627
C         0.85069955086016   -3.75423674513187   -0.35427164148554
C         2.43782058802389   -0.98858237872451   -2.33504542706472
C         1.72503130070699   -2.20500177801837   -2.07809186830513
C         2.25920076345997    1.44024576422797   -2.54380793097508
C         1.72186903347598    0.18534995667522   -2.81529464725216
C         2.01832204354478    3.26706965138013   -1.20261815721760
C         1.39303194574550    2.54449179053407   -2.26248298226065
C         1.41530879224409    3.46413469264460    1.12346630793057
C         1.23093974888748    3.85925601223046   -0.23683099753168
C        -0.28541443908651    2.33030368601519    2.52304570920069
C         0.11819167474837    3.41500125758067    1.72157668657158
C        -1.69827649120429    2.00518822015103    2.58895863517545
C        -1.09907186032657   -0.33790363747453    3.21145516109782
C        -2.09523634201148    0.66782890084343    2.96811815255341
C        -0.46089874719323   -2.67394207542562    2.69821283743212
C        -0.59453905643560   -3.63052181211813    1.64886460673397
C        -1.45480989061598   -1.73957956898432    3.01712758898502
C        -1.77620587693245   -3.66957532678584    0.87756491574831
C        -0.34934139855393   -3.90997691125590   -1.10716253557430
C        -1.64563348981719   -3.82811179002032   -0.51671514162738
C         0.47675544270435   -2.31072636110522   -2.73780368510555
C        -0.44176452417839   -3.28429197164452   -2.37642895246816
C         0.29694547508837    0.13512343830816   -3.05444293847223
C        -0.26024605364955   -1.13400769828555   -3.16457403073463
C        -0.01106091885855    2.47689551702364   -2.37444988269523
C        -0.59111647837645    1.24086333495229   -2.80426605793183
C        -0.15635865787411    4.05241177425256   -0.48575631539221
C        -0.79349202634014    4.01511138841384    0.79796057793193
C        -0.77975200698826    3.41610130143028   -1.58761481630351
C        -2.61459808346535    2.80625061009493    1.86786937893314
C        -2.14074414708125    3.75041626454766    0.89700523275740
C        -3.82601130546393    2.23929722045192    1.30077494611287
C        -3.41628270902526    0.24994646066959    2.61753490685959
C        -4.19622323898545    0.97008296009742    1.63094988625139
C        -2.73055967500054   -2.09275977222078    2.50466487511025
C        -2.87138423500465   -2.93554571042483    1.35871657137674
C        -3.71390998945996   -1.09738254680527    2.41575977611117
C        -4.58385071124884    0.03763485658142    0.59212012027908
C        -3.81536669284414   -2.28424768944298    0.45138404378841
C        -4.41064792155783   -1.24017857731665    1.14922340858812
C        -2.50831785529563   -3.04004191225411   -1.39240573412024
C        -1.76684739136386   -2.72813856354398   -2.52421892318473
C        -1.65477662928621   -1.38335290365718   -2.95609857428212
C        -3.46030612202113   -2.10566234845586   -0.91276455197966
C        -1.99411255965295    0.96365698187815   -2.53402339795214
C        -4.17591709069002    0.27136812071173   -0.75331005915030
C        -2.50782754673230   -0.39214504408828   -2.45469155106680
C        -3.52790145495731   -0.77890121418871   -1.49537457952341
C        -2.16620704869739    3.18635202979351   -1.47767051557884
C        -2.86317797368151    3.56234736463036   -0.31117605340207
C        -3.91404259740305    2.61531958044872   -0.06857604553024
C        -2.76026476551796    1.96404774029162   -1.94188724337149
C        -3.85930600024887    1.61891129144795   -1.06245842177087
