78
C78 Isomer 3917 Symmetry C1
C         5.41541121830549    1.47748818414915    0.02459397895841
C         5.26725275751965    0.68651265279820   -1.18688397667926
C         5.24183473537686   -0.64619363443115   -0.79803937972008
C         5.17782752493312    0.60749697968274    1.16489287291638
C         5.19328119508422   -0.69808265229574    0.69726051981106
C         3.99049105834902    1.04330052865426    1.85752581112072
C         4.38274536787330    2.41384758373780    0.01937419063758
C         3.56321073753751    2.24739767084625    1.19492613318157
C         4.13980876550572    1.17129529577648   -1.94213347668382
C         3.68404265319095    2.33932110702544   -1.23238183078661
C         3.15658864777692    0.29125780540181   -2.48015846258843
C         4.26862064412986   -1.52997759329765   -1.29056194101085
C         3.23854253892612   -1.11976030986290   -2.19497225699457
C         4.19530444618706   -1.61570333817780    1.06862936656630
C         3.86760635975768   -2.31534756405087   -0.14861904759128
C         2.99021561569216    0.12923463605990    2.27021886004556
C         3.11223337537694   -1.26828106445466    1.93551478451814
C         1.66457400790911    0.64841670535712    2.49752382591466
C         2.22804200058428    2.61495216811661    1.14760770975613
C         1.31296626975364    1.94979320956454    2.03314609850335
C         2.36197887182555    2.73405821816369   -1.28433332689889
C         1.68339823151390    3.13588893021742   -0.07835011111948
C         1.86082806989509    0.83685898708694   -2.79179111801716
C         1.56575134049236    2.15569421361826   -2.32831984552532
C         0.73844604349051   -0.00081367851905   -3.13745016691492
C         2.03656552812619   -1.91380620072110   -2.27584095404074
C         0.80738583712175   -1.39987927662246   -2.83995754572831
C         2.73051667500700   -3.04038462912591   -0.21300384189597
C         1.91518238955408   -3.00858567743980   -1.38919335971646
C         1.92386650212586   -2.09437232442640    1.89605503461295
C         1.86673840411087   -3.10916041550839    0.92599446953880
C         0.59467415853194   -0.26408021981687    2.80700480081714
C         0.65947351948735   -1.64545239768974    2.43157832127696
C        -0.66265723811409    0.29678471070695    3.05414367179904
C        -0.03277235148926    2.42390524094566    2.05582347338626
C        -0.95408879533065    1.66502008186364    2.77333060935816
C         0.31863843400903    3.48243982285923   -0.13762342880907
C        -0.53063844513810    3.32223659926900    1.02714094839682
C         0.28172941773227    2.67299588750868   -2.42969734333356
C        -0.28331623560005    3.49469868138253   -1.40719238794516
C        -0.55554469176044    0.60672942978776   -3.35295159208323
C        -0.76744269980839    1.96958476825524   -3.05698771079170
C        -1.72488181958664   -0.17701784046214   -3.32884221514922
C        -0.42025540622550   -2.15647957206345   -2.69844898387545
C        -1.64763600587586   -1.56269721578432   -3.02528374313944
C         0.65647582868307   -3.50936593531259   -0.99092957403861
C         0.62475430449375   -3.57076956110353    0.43650866724877
C        -0.50453995964569   -3.23244086159025   -1.72678535857070
C        -0.57093103909854   -2.35885290600499    2.17261021904563
C        -0.56390771374082   -3.36342913036190    1.14013752197693
C        -1.87301123927480   -0.43565521715723    2.93812419810802
C        -1.85056019775644   -1.75684028749208    2.47297855314896
C        -2.36474163084829    1.78538053745056    2.57907352402198
C        -2.94029312806069    0.48493551001206    2.63074458622782
C        -1.90583573098376    3.49363070324472    0.87771340636002
C        -2.84769484473759    2.74449726037366    1.69075259237354
C        -1.69831637260511    3.45972677210430   -1.56871347378246
C        -2.01934188802320    2.49087093427554   -2.57708443760242
C        -2.50213704900351    3.60050427334814   -0.44569659072499
C        -2.99114833151338    0.32220773239926   -2.87822327411070
C        -3.15164228029460    1.65859691608343   -2.44859657340584
C        -2.90051053240147   -1.93595320717436   -2.42477513179775
C        -3.68992653285500   -0.75230912052046   -2.24545516731095
C        -1.69778292081118   -3.54288723529900   -1.06571672216397
C        -1.71862205358242   -3.64502583701439    0.37438896634011
C        -2.94994823740700   -2.94406294848283   -1.47328635905558
C        -3.03656023719739   -2.17112842887517    1.78861516737515
C        -2.96351516603537   -3.16969650434322    0.80978900812844
C        -3.76661256381456   -2.77769500978073   -0.33278546087285
C        -3.99174363435219    0.11720186816788    1.74270621616237
C        -4.43603237341056   -0.53461135266794   -1.04084961213970
C        -4.02028235819489   -1.21772507033253    1.32822648567758
C        -4.37936313930162   -1.55606110031222   -0.03788548331247
C        -3.97280112703900    2.41541653162559    0.90557712033041
C        -3.73826755490882    2.91797897426762   -0.43381918718251
C        -4.03393800342413    1.89476694225530   -1.34872415220184
C        -4.46188022605546    1.10369083884021    0.81736421122588
C        -4.57088172066369    0.78696942529230   -0.59125131955528
