64
C64 Isomer 162 Symmetry C1
C         5.34762626075142    0.69716190809211    0.31903413041980
C         5.28653139959529    0.29112114482937   -1.03328284640193
C         4.74284010173800   -1.03830935492218   -1.07507119892799
C         4.75606265965213   -0.34188135141511    1.11409788390023
C         4.40800997250932   -1.44817121409873    0.25478513287062
C         3.74227340829634    0.20633150938120    1.96276927942108
C         4.48052186753944    1.84016057969271    0.47738504277235
C         3.66537991255295    1.62274599546685    1.63312732964759
C         4.30391919186321    1.12376490029833   -1.68519167621745
C         3.82658463463044    2.11977004410238   -0.76238263015831
C         3.70000581065522   -1.06089823899565   -2.06108808675395
C         3.34763777017314    0.32102354475952   -2.36580144898586
C         2.68771935844139   -1.96588660308367   -1.88021105601213
C         3.22308958029045   -2.17385686068649    0.50933134453199
C         2.53502462277041   -2.66828779520216   -0.63291432788656
C         2.56345877209344   -0.50454491526348    2.26668718495597
C         2.38279067354590   -1.80150439595864    1.64438659257369
C         1.36943503387180    0.24554635890593    2.65306329779261
C         2.43460658803787    2.22334297592091    1.65135162383016
C         1.34207839819567    1.61784930615102    2.36532948798285
C         2.45914489270745    2.48784744976914   -0.78704826155290
C         1.88266197963807    2.81733488866932    0.46461519763125
C         1.98617726400045    0.69302008165255   -2.43522330718722
C         1.54738677793646    1.87664539525709   -1.73875390084009
C         1.36487003255996   -1.68429887979552   -2.37648081577819
C         1.00032162363606   -0.35647642887684   -2.65244064117096
C         1.17306403005679   -3.06622848781652   -0.57508587528661
C         0.44323486473672   -2.52978704737833   -1.69425652711481
C         1.10216055740094   -2.35652324164587    1.72312899531908
C         0.50550276485173   -3.08674390560434    0.63187024875931
C         0.07895525242533   -0.38165580168838    2.78159221139972
C         0.01274371072285   -1.73477278795073    2.41625822998736
C        -1.15463171286101    0.38246489523420    2.71333905404075
C         0.14110023528842    2.21138036462028    1.88230868021255
C         0.48044964344423    2.84436208169229    0.64077351441947
C        -1.12823853183074    1.68286293397445    2.10139875082298
C         0.14560955727727    2.08611232395307   -1.60266883587807
C        -0.41074361055454    2.68981761441832   -0.42407565385448
C        -0.38841012693912   -0.06474234314160   -2.65640949087698
C        -0.77680349444334    1.27611440285817   -2.35155673291605
C        -0.92133587039446   -2.24820227643431   -1.63389911721968
C        -1.35682115497681   -1.10801151659186   -2.39490172037286
C        -0.91405142161070   -2.95120306845183    0.66678298068433
C        -1.20885105376637   -2.29015280781284    1.90216169497066
C        -1.68941303793818   -2.61720361295398   -0.46603335330255
C        -2.38147700663586   -0.30902200857733    2.59852480388768
C        -2.40348233950220   -1.64283102209725    2.06150075205550
C        -3.51858466290841    0.33165158019361    2.07553077347894
C        -2.18941861271536    2.16759660322368    1.24307446276316
C        -1.80702722423029    2.59830500840288   -0.08135723690493
C        -3.47211916078221    1.57576211285194    1.40218578469743
C        -2.13903280504728    1.57656921216672   -2.24450042416072
C        -2.67867002842980    2.35013812451800   -1.16266976094672
C        -2.71156836434471   -0.78756898604339   -2.33211621318416
C        -3.11495699307303    0.57041137687635   -2.56362662945044
C        -3.02846516106251   -2.08751309321900   -0.27468417993572
C        -3.43370923902416   -1.74247742583447    1.05195635272745
C        -4.28046974043443   -0.61693837186569    1.25894166722263
C        -3.60982725974312   -1.34775920386574   -1.34700695955166
C        -4.40372599753729    1.48950648564221    0.31766331362274
C        -4.03214340631155    1.90012638930999   -0.95373134046650
C        -4.31707800112048    0.82068911256505   -1.88606941828025
C        -4.86252951856458    0.07535464246009    0.21124559870230
C        -4.63139366710404   -0.35543830063780   -1.11366173052750
