68
C68 Isomer 2593 Symmetry C1
C         4.70791022905751    0.11007890903364    1.29186764595547
C         4.29884401509780   -1.25370537838612    1.33676282235721
C         3.15481050555534   -1.31972932514357    2.17329133747933
C         3.83633202542976    0.89255912874225    2.11593156073230
C         2.82490244487203    0.03498702367746    2.60126727701674
C         3.41337265012743    2.02599032669917    1.35815041365276
C         4.51860251412889    0.58219657733547   -0.03454362257153
C         3.81931222534921    1.82890051011395   -0.00356769215387
C         4.11920846692158   -1.66787462090039   -0.03290663985176
C         4.06718493746669   -0.47835173298829   -0.87642750703053
C         3.22215811509394   -2.65954446258512   -0.25639609933202
C         2.12734928163620   -2.25139254145672    1.92821717062589
C         2.40236995704507   -3.14729409213334    0.84342530613168
C         0.76019549698843   -1.92214097775946    2.25774350584005
C         1.46997952772397    0.44561884178796    2.69196397779797
C         0.42986808237571   -0.55048354426504    2.65008240343437
C         2.16665139696455    2.59093439388815    1.63857634597417
C         1.18166181420243    1.83540723062855    2.37899670993304
C         1.74185331034989    3.47695721779015    0.61425991461506
C         2.93794433658607    2.14135717956575   -1.05330215046543
C         2.05399168542584    3.19863874395617   -0.75855245163011
C         2.99134590715736   -0.27686138661657   -1.77664158839989
C         2.50167507845571    1.08067761355361   -1.95537503159480
C         2.38255337971424   -2.62348357130519   -1.43499000003867
C         2.11482468071171   -1.39740275764592   -2.09386989491988
C         1.33931450120288   -3.81503392351044    0.25469447991097
C         1.33366975375607   -3.52006950866667   -1.19449056271004
C        -0.29074702444216   -2.74919430843298    1.74918894230201
C         0.04029559837299   -3.70112046814572    0.72929715474710
C        -1.67258461632805   -2.35436871581350    1.84962827563356
C        -0.94197598041314   -0.12686113336564    2.68283904047136
C        -2.01593552960728   -1.08785840913609    2.45620086068384
C        -0.17725200442441    2.24299625627414    2.31841812407467
C        -1.21311423818901    1.29211559835840    2.59171128653165
C         0.43671814823319    3.97750067855191    0.67448336065742
C        -0.49738644480261    3.40988484551701    1.53009913232126
C         0.85243853657295    3.42584103538054   -1.51724542603606
C        -0.11907778836948    4.01809804796407   -0.68347952586086
C         1.24795987174365    1.24505392731722   -2.55071464374194
C         0.42027828303193    2.40994257926748   -2.37094847715112
C         0.75375375342621   -1.18951986907498   -2.53866470265989
C         0.36329634005331    0.13712080409942   -2.78854883196468
C         0.02204868945337   -3.30309938024613   -1.59421856381760
C        -0.78323929918145   -3.71397252992448   -0.46488165891134
C        -0.33342467620419   -2.10542995956974   -2.28572420725914
C        -2.58294722877661   -2.91634006728246    0.90735933850814
C        -2.05598125283637   -3.30890898844746   -0.37784554316025
C        -3.79185898585102   -2.27440995184803    0.57871262108567
C        -3.35290767961394   -0.61693754249083    2.28293882467328
C        -4.23006738863742   -1.20463609756787    1.30842553568009
C        -2.54261529327829    1.69316986636742    2.25119729112800
C        -3.56666944817799    0.77858374027295    2.15717506947035
C        -1.73634257375406    3.43725861606810    0.77660239427395
C        -1.44273166525922    3.58238353621988   -0.63905540184882
C        -2.74061308744754    2.63616485641361    1.15571158961623
C        -0.94620310544621    2.00399606887565   -2.37459850970774
C        -0.97162283436331    0.58944625285326   -2.66735347428194
C        -1.91689364838902    2.55101372014179   -1.51257547030105
C        -1.69725885676796   -1.64226102933282   -2.17072178402179
C        -2.60755398901372   -2.43381576196168   -1.40044860080170
C        -3.75219916345186   -1.88671182718229   -0.85175275139704
C        -2.03811410944680   -0.24513017463531   -2.28967663209496
C        -4.62996680567051   -0.16474609314906    0.33697729052670
C        -4.30240670573681    1.03953265378735    0.89724176423200
C        -3.59883680058273    2.01355108921617    0.16472551774847
C        -3.03557959053353    1.72252669998492   -1.10548883713001
C        -4.08681450532588   -0.50702680949393   -0.94766033947416
C        -3.18075321996134    0.36323237076022   -1.61549766350213
