78
C78 Isomer 22750 Symmetry C1
C         3.40852155253942   -3.10652499922179    0.82354924032919
C         2.23054087663545   -3.80118539051579    0.58739679071229
C         1.31303818739664   -3.47029400106959    1.67369560007253
C         3.19237694983235   -2.24730972675731    1.98285074058826
C         1.86316936643114   -2.39195539568708    2.42397659796067
C         3.74472243868263   -1.00003610161218    1.74353587766770
C         4.05492738434029   -2.32747545561254   -0.17422649420517
C         4.41258905545079   -1.06868117123214    0.44781911406204
C         3.50331817989152   -2.31027200817762   -1.46022115447983
C         1.69915042267093   -3.85451764749416   -0.73854551467920
C         2.30262598279430   -3.04697025318021   -1.72983880732311
C         0.31651985950686   -4.04620065933443   -0.84273492577545
C        -0.05919521600758   -3.59189990632342    1.54162830386746
C        -0.52102810173054   -4.16831761347557    0.32996642583168
C        -0.90172238657002   -2.64511577901078    2.26177237311388
C         1.07976643917966   -1.25064804702434    2.76008403256203
C        -0.34360416279028   -1.38839889262386    2.72977152534652
C         3.05199855580973    0.16469084492939    2.17492766157460
C         1.71336525788423    0.04228914541768    2.69421469462783
C         3.48453348860389    1.39101032686118    1.56305963478444
C         4.46385395702305    0.07721627629696   -0.30087957280640
C         4.14090557774050    1.33513160212216    0.30533174503882
C         3.39294810231615   -1.06065980602647   -2.16206113890245
C         3.94772703128666    0.08935504659019   -1.64993921841962
C         1.46237913117248   -2.23208328595276   -2.56032235286890
C         2.09844988119703   -0.97611688318423   -2.77242552587001
C        -0.47322088100508   -3.41425385331694   -1.83475135682403
C         0.06130895200583   -2.33519380865936   -2.56861168419149
C        -1.85193069871542   -3.96216265069132   -0.06709670076285
C        -1.83848630086898   -3.40637302635835   -1.39085453141035
C        -2.26753454142944   -2.74650586601525    2.01436376147928
C        -2.75916283927172   -3.47431851395916    0.87122986647965
C        -3.14744341998627   -1.62463160799853    2.23087537005479
C        -1.18725547222526   -0.21330239042655    2.79570750716419
C        -2.60893605111523   -0.35604137062472    2.57055819007903
C         0.85561522871529    1.20744130762781    2.74177707921942
C        -0.58816640694036    1.08496432981770    2.74737420529625
C         2.72674832805924    2.54553434407502    1.83547927595363
C         1.43071765090287    2.45126126866486    2.43976294541584
C         2.67515342889530    3.59557913067653    0.88952702272234
C         3.66601925969847    2.17154051421795   -0.74863321641229
C         3.30044798969705    1.34037551101698   -1.86376638490350
C         2.93120582007812    3.30245507994862   -0.46811053606487
C         1.35877096552099    0.21823670323404   -2.84402444302733
C         2.00791630720800    1.44331843367042   -2.42723169120299
C        -0.73983961936792   -1.15745361781822   -2.79674978446532
C        -0.08706436344660    0.12068919189292   -2.90898940194287
C        -2.70879724278465   -2.38371449880635   -1.76748005492121
C        -2.14994167790045   -1.24855381349340   -2.49198564559043
C        -3.86394251530819   -2.77413355611728    0.36937687584181
C        -4.21511986240666   -1.72882843840742    1.32233734732286
C        -3.84607990377095   -2.19140056625118   -0.91069836856244
C        -4.69271443350655   -0.61503379001452    0.61078401491836
C        -4.47639689073211   -0.89645561175117   -0.79849545834657
C        -3.35989255030862    0.75520170325145    2.12811932116712
C        -4.37415005117075    0.63751332914776    1.11434450470126
C        -1.38951688761828    2.22297423103160    2.32744188309500
C        -2.73001591879619    2.02184276743443    1.97975327385669
C         0.62438057609238    3.54436809693610    1.92659699942792
C         1.38684168009433    4.22489284715147    0.96376418175398
C        -0.76202555073089    3.39787522275232    1.76429926810266
C         1.75227392354154    3.59560138732570   -1.24758508906832
C         1.22064238076148    2.62030808834449   -2.11565935107041
C         0.88344841257273    4.32908660970298   -0.36295618147374
C        -0.84409597854851    1.33071795814335   -2.74771997884108
C        -0.21365561005416    2.56659256933763   -2.31805970049423
C        -2.87877391140988   -0.05773668630646   -2.46021887068142
C        -4.04382972200205    0.11833278217378   -1.61499998138637
C        -2.24010432845644    1.20487728412273   -2.59956270174456
C        -4.21017139678547    1.74044916868292    0.21229690605036
C        -3.33143703738735    2.68051400494109    0.84516476858280
C        -4.04945032441978    1.48140606948136   -1.14964883260390
C        -3.02226499001253    2.16777750310891   -1.87368188170084
C        -1.32252726588353    3.99336889592648    0.60332443324220
C        -0.47336323134738    4.23811945480627   -0.52606748577056
C        -1.01323727158276    3.50745004801434   -1.64126169659446
C        -2.56235537778797    3.52902281950152    0.08139942372077
C        -2.38146819004652    3.25037479215336   -1.31914306839959
