80
C80 Isomer 5127 Symmetry C1
C         5.35471562217856   -0.46777942960309    0.34661116396440
C         4.76074080020372   -1.45533744940997    1.22500992623542
C         4.28788456902629   -2.48229772156070    0.40904816242616
C         4.94653049843897   -0.77658359327435   -1.02657890356710
C         4.37794637534413   -2.03555118496507   -1.01188048182116
C         4.14133645356413    0.30210821145969   -1.53609878040198
C         4.78308615346672    0.75532844031628    0.66603166493459
C         4.18329199803879    1.32053799691174   -0.52292083484637
C         3.81712385609179   -0.79922681421889    2.10737009693560
C         3.92058382424246    0.60327302031665    1.82607767226246
C         2.52516621372185   -1.31759745765825    2.34318846113930
C         3.00874603937840   -2.99988195362912    0.61078592299334
C         2.16125030946799   -2.53677760740644    1.67013888393833
C         3.12050603479855   -2.26821016373205   -1.61568047359017
C         2.39920628231681   -3.08664338695489   -0.69361621577153
C         2.89067738353612    0.08524651492373   -2.17292911707467
C         2.35951952722121   -1.25371076584468   -2.26213035760079
C         1.94789423762188    1.17291824653396   -2.20232340253230
C         3.16069455481789    2.22167567270596   -0.37140998278016
C         2.17219992722881    2.33328162981238   -1.40877967555817
C         2.83987555311049    1.44699458772442    1.96838397492579
C         2.72288766265097    2.50451322088912    0.98031164888204
C         1.43499788915649   -0.42402970662306    2.69482514924652
C         1.62407392412792    0.98724797878454    2.59665509664262
C         0.09166774124905   -0.91851001139962    2.80582223638597
C         0.80686124496964   -2.91189638237891    1.59849356757070
C        -0.20837617210573   -2.25485796481278    2.36431728260694
C         1.05428749575071   -3.27926031395390   -0.81608483779683
C         0.36618251386389   -3.58304884380435    0.40534276552568
C         0.94042207647209   -1.46909873108556   -2.42250522815873
C         0.33531194162295   -2.64252788232322   -1.87352801571150
C         0.61031694667024    0.93930891811859   -2.69246190692323
C         0.05828953219610   -0.39166065312104   -2.75993593315900
C        -0.27474596913915    2.02130823559512   -2.68500907319717
C         1.18110730349535    3.35165261993692   -1.25135140247974
C         0.00574910193733    3.25519283649262   -2.00786916848989
C         1.71083436780446    3.39367721570559    1.13899396620697
C         1.09219748860966    4.03527260844116   -0.00190667270801
C         0.51854300161114    1.89665500918054    2.68709405053721
C         0.71242003693425    3.20102432929155    2.16212998182900
C        -1.00156421539176    0.00402373987010    2.97992404224822
C        -0.82403021956233    1.42852552532530    2.85076201391526
C        -2.31346292444584   -0.49493628031347    2.89621638478268
C        -1.56035594906403   -2.73028383200773    2.25641281915128
C        -2.61447807564268   -1.86778254456588    2.59491199821621
C        -0.93063402864038   -3.96813597977370    0.24912487058622
C        -1.89519737096156   -3.75135207642064    1.30410995550057
C        -1.05821214673251   -2.89922925258904   -1.95679901639731
C        -1.57304060074320   -3.85563125993417   -1.02576988104211
C        -1.37040933854858   -0.59178591371030   -2.76631554540071
C        -1.92930025838874   -1.89186630122535   -2.48518042144508
C        -1.68390762560665    1.83049922111017   -2.69779359553339
C        -2.24856878901653    0.55175015924053   -2.68973778062457
C        -1.23958921369106    3.81968241331108   -1.57213453837762
C        -2.28162727150113    2.95006478515817   -2.01767461732533
C        -0.13252509612001    4.53191622507723    0.44299328262270
C        -0.37371676120179    3.98895341821757    1.78693753537765
C        -1.32090831667987    4.40261691292521   -0.29566278442784
C        -1.94140728803295    2.25451402282381    2.44509183988425
C        -1.68500770497157    3.52257783045063    1.86076308911872
C        -2.34085240245626    3.92866093486172    0.62582799737753
C        -3.39069723267134    0.29835898992143    2.42929234108741
C        -3.19465336519167    1.64410687050651    2.08548942071060
C        -3.89545405351116   -1.91787289652396    1.95209838624774
C        -4.30279169003917   -0.56089333647070    1.73004108748615
C        -3.15576102334257   -3.85246141322823    0.72601718130253
C        -2.95052781378282   -3.93012824179199   -0.73940253216231
C        -4.17240916029696   -2.89246820646813    0.98063845749404
C        -3.31520170327880   -1.99374329696996   -2.16905680085227
C        -3.81178849829203   -3.04302278392173   -1.33449160221213
C        -4.67367128292650   -2.46423025665914   -0.29387955385715
C        -3.56250501165986    0.43266270853893   -2.08460967818898
C        -4.77450929337946   -0.14812344389010    0.46372541809321
C        -4.05300326497546   -0.83716351364701   -1.80905693767727
C        -4.80963390150992   -1.11831073832921   -0.58552410881143
C        -3.40145944336191    2.73379660867199   -1.22404894786542
C        -3.37796060936471    3.17478331621817    0.15514062735030
C        -3.91373345224403    2.11644718823972    0.95840522667616
C        -4.05024556221996    1.48302045943645   -1.26248789691441
C        -4.49920238224515    1.17173096315507    0.07307105286533
