68
C68 Isomer 5304 Symmetry C1
C         3.05248863219387   -1.91031461043429    2.20499530976158
C         3.65578179833345   -0.67139368454369    2.16525181819605
C         4.29272014667978   -0.53135386102384    0.85477450077469
C         3.24809401129319   -2.54139990313491    0.89089389729094
C         3.84101716252098   -1.60247026651770    0.01947946447932
C         2.05878027718543   -3.17506147428335    0.55285068730246
C         1.69479510894364   -2.03879710598522    2.55496490448789
C         1.14309471276757   -3.02407627746009    1.65596390412411
C         0.91873707375466   -0.90235571714284    2.90106233205948
C         2.90718509722218    0.50058662902360    2.43321914811866
C         1.54136224228983    0.40839356583300    2.81603666319306
C         4.15427349212661    0.79451377012462    0.46637027022469
C         3.33955495395856    1.48016124349189    1.45980547149349
C         3.91223509692576    1.04469809218094   -0.89938549700818
C         3.18146998828754   -1.30441491151804   -1.23540448647808
C         3.32991817224344    0.00206762118929   -1.71862019363871
C         1.53634979117340   -3.09500080333298   -0.77298792069589
C         1.99579047163386   -2.04001172700574   -1.63196771185711
C         0.22025482702676   -3.58508686802197   -0.87441305604463
C        -0.22601217311579   -3.15731392902558    1.49093509453026
C        -0.65184193909370   -3.71026324939660    0.25702351152204
C        -0.51338721896305   -1.04925523362214    2.81134286364263
C        -1.07613443705815   -2.26099380600128    2.24416861117886
C        -1.31832374400495    0.13469879314799    2.92411470158554
C         0.71690039554745    1.57124751155929    2.59413617848420
C        -0.70546193170909    1.44392727376474    2.79599435423129
C         2.50690915571535    2.53657716452597    1.10890800087410
C         1.25368339757840    2.66868092936556    1.82201481826470
C         3.27257088023515    2.24825116975813   -1.20703524227234
C         2.60218782607701    3.01545872836541   -0.24469071218151
C         2.29726410718821    0.62710606155473   -2.52557107508571
C         2.33858341222755    2.00891110080711   -2.30309794795457
C         1.00179195036384   -1.39996306904196   -2.48624779404015
C         1.05555816580568    0.01564666178311   -2.76726120955267
C        -0.57435386423148   -3.20007661912340   -1.97935028243452
C        -0.25067982746974   -2.00662102265559   -2.65239000850676
C        -1.99791850614614   -3.48094404208099   -0.21131008701257
C        -1.94985819575683   -3.16191508184348   -1.60029234012916
C        -2.43533119436272   -2.28881516138817    1.88595904281427
C        -2.88025635708643   -2.79602511717682    0.59115308511412
C        -2.71028120616791    0.02178156934624    2.65605234004404
C        -3.23503327601922   -1.18599983474067    2.17994392321852
C        -3.45300879297350    1.06949942916489    1.98024078574164
C        -1.54486380284641    2.51280606510801    2.38275944784191
C        -2.87172922734947    2.28956159948944    1.83628771165219
C         0.34786238379761    3.60835914865931    1.28289464504749
C        -0.99310917668146    3.56536719842165    1.63776139307177
C         1.41897434332830    3.52539009066259   -0.89780429248159
C         1.18297019176183    2.76388286816802   -2.11875256026162
C         0.36579185192132    3.90943947455977   -0.14210246941737
C        -0.14433400201913    0.83198308005793   -2.79320469274349
C        -0.09031193950571    2.21047045293744   -2.38759551342177
C        -1.47127427038824   -1.23525512462566   -2.75286287039202
C        -2.51801292038745   -1.95670875173748   -2.07759133916094
C        -1.42845128294437    0.16564028818761   -2.74185875234493
C        -3.77430263135703   -1.81421588183819    0.00782410688728
C        -4.10311723065393   -0.92068955079770    1.04037281926640
C        -4.19269952436295    0.47296369972214    0.87417581790660
C        -3.49855627824647   -1.28642995713108   -1.30061247409194
C        -2.55951703349811    0.82529893144764   -2.20158476369499
C        -4.00610926686270    0.99098060836326   -0.41040661619403
C        -3.56755429285754    0.11700620152263   -1.46554855474128
C        -2.96668475096590    2.98443880556195    0.55923371049840
C        -1.82338278020265    3.78452529898404    0.45037968059400
C        -0.97834321622124    3.76678295081263   -0.66687354395029
C        -1.22489314689881    2.84650198981744   -1.73333501525479
C        -3.35331195186544    2.25757789628606   -0.56965324426891
C        -2.44950972783452    2.15503867887535   -1.67853274820611
