80
C80 Isomer 19933 Symmetry C1
C         4.68940100317186   -1.07113990605874    1.45286696128743
C         4.51304151223841   -2.21756878355664    0.71777182749477
C         4.64725672000236   -1.89516946812808   -0.70020580477145
C         5.01727109550525   -0.01016284188832    0.51033066736723
C         4.80854284441013   -0.48639838474204   -0.82750481928817
C         4.36211131010868    1.12728040860546    0.93179534155038
C         3.65905454211918   -0.57883442121521    2.33586947165565
C         3.56909016831870    0.80860452704695    2.12055955898392
C         2.47809504055031   -1.31844421040824    2.58323601601825
C         3.33939787736905   -2.99498067604334    0.91602992039242
C         2.42666887544387   -2.61624287818048    1.94816445312155
C         3.60922799999102   -2.58125740026479   -1.35067608719659
C         2.84427980294225   -3.34890893175802   -0.37585822075265
C         2.88516656074481   -1.91128257050639   -2.32684414103209
C         3.94865062137007    0.25447059091205   -1.70086404816092
C         3.06659973482938   -0.50248638649014   -2.50834327602327
C         3.83049878199296    2.03520570142872   -0.01477653677513
C         3.50177152751707    1.58241018853176   -1.33394578938466
C         3.06673382984080    3.03956408112429    0.60014411236561
C         2.40151667118397    1.52669904599918    2.42500194955395
C         2.34466035472627    2.79474963047684    1.83451009822923
C         1.23982098984925   -0.60374078040732    2.87125959494390
C         1.19271282360020    0.82614855932345    2.81788952930566
C        -0.01822553388185   -1.31723218249062    2.86317927538502
C         1.17039102083285   -3.19656642975958    1.81214707948285
C         0.00907532749634   -2.65322990815682    2.44128718237798
C         1.48267106650076   -3.63622783146350   -0.57701296046999
C         0.74999753423567   -3.80986378490520    0.60661422225893
C         1.49563657755212   -2.21907256261435   -2.52958719852435
C         0.76491834599644   -3.09973780021605   -1.72300740203381
C         1.80497281284097    0.02456419681770   -2.93589423885635
C         0.86657558906651   -1.04559861325547   -3.01616655829476
C         2.32437538508317    2.16345561995818   -1.95619030535295
C         1.39015800888946    1.33443650481612   -2.67496300706459
C         2.26761631786387    3.85655326523322   -0.19086376449108
C         1.79303883521766    3.35622092620600   -1.42731747163658
C         1.11830855740850    3.50319600029227    1.77694256091936
C         1.13296895593364    4.28663632153109    0.59318851472279
C        -0.06921733883652    1.51638410035284    2.72958396039077
C        -0.08293744822093    2.88588087286430    2.23249426838595
C        -1.30191573827318   -0.64669836053138    2.86249269333042
C        -1.30960479737664    0.78132811762908    2.78271082464152
C        -2.51268589959198   -1.40470194263001    2.57906127123276
C        -1.12515314290424   -3.22755702890741    1.80231506165959
C        -0.67197328704789   -3.80427307100655    0.58738075805449
C        -2.40391150726824   -2.69469787070194    1.94385535048851
C        -0.66579599276612   -2.96714886312685   -1.71227942148567
C        -1.38594231323039   -3.55351015660248   -0.59952079218020
C        -0.50687749504880   -0.84571319180424   -2.94350353589805
C        -1.31877830038321   -1.91164805259513   -2.42295119495202
C        -0.03058623974889    1.60267990199707   -2.72381791971159
C        -0.94710861017745    0.52153909306310   -2.94993669035390
C         0.38328629708752    3.66089742653414   -1.49946877635470
C         0.01851062189966    4.30894511371708   -0.25229843042698
C        -0.54045498637994    2.81244359114483   -2.12162445979517
C        -1.24780859085879    3.38562428159159    1.61821246082361
C        -1.20166439303567    4.04047662290879    0.33608520841415
C        -2.53407390041759    1.42878009007534    2.35218070613962
C        -2.46196614988902    2.65904969903430    1.66236803546163
C        -3.72213729227541   -0.71044285933840    2.32776809091807
C        -3.68916066568755    0.68471549799521    2.09657227174415
C        -4.73328885584029   -1.24467365355690    1.46094354873183
C        -3.28685481163013   -3.07915691984125    0.89515845997347
C        -2.74147402276482   -3.29651780089492   -0.40662189686032
C        -4.49484879040765   -2.36660076370697    0.70626895794761
C        -2.73219456275443   -1.66595845260317   -2.24019376886515
C        -3.48832631364141   -2.48725036723222   -1.34988264050339
C        -4.63631122193139   -2.01277594884686   -0.71123471028190
C        -2.32165858590222    0.71960605635017   -2.72558153561951
C        -3.23016107511183   -0.37031683949045   -2.46298604841016
C        -1.92751561333645    2.88931544270344   -1.68940123748181
C        -2.24319482749352    3.50669325344723   -0.45688344041326
C        -3.15485682810974    2.84886335619930    0.43211563297714
C        -2.81390742290320    1.87913488625122   -2.09832270513054
C        -4.56090667866740    0.99323724085073    0.95785226637528
C        -5.17758828858826   -0.17824120300223    0.55041342718404
C        -5.02798408715416   -0.64603070717124   -0.79698396003268
C        -4.33820097569027    0.16062438236840   -1.71336979648891
C        -4.10842554146575    1.92763496336769   -0.01937204921537
C        -4.00039381503779    1.50401124735078   -1.36036495172082
