72
C72 Isomer 8690 Symmetry C1
C         4.55015920373012   -0.90615776978566    0.07029280451824
C         4.47314614757207   -0.30976037773004   -1.17508460793199
C         4.39244493775123    1.12768590322964   -0.96856859398211
C         4.42701869668824    0.14843352375279    1.08510731836046
C         4.24916910119337    1.39397753750762    0.42342145300153
C         3.53155652582916   -0.29374516903881    2.05833868298705
C         3.68969138572233   -1.96928111942472    0.40618965117915
C         3.24154468659581   -1.68304094051457    1.75803536553699
C         2.76768523292122   -2.48742856332044   -0.52977954580929
C         3.44605320114376   -0.68967593945294   -2.07863546234789
C         2.61387208041008   -1.79444782425030   -1.79870606651793
C         3.46721340478613    1.62883170116726   -1.89905714452598
C         2.86211902513285    0.51541858020932   -2.61060878361577
C         2.68309557557000    2.69468959262354   -1.49200605552242
C         3.23583541954380    2.27827574179356    0.88674309255684
C         2.62255354689820    3.07188736236036   -0.11870402438681
C         2.51394847384558    0.56201367128969    2.58860234364918
C         2.42769883094607    1.88843326306796    2.03666897060258
C         1.34689986180777   -0.06547657332730    3.17422567883801
C         2.09378218952320   -2.23403054082907    2.22735353780727
C         1.21079964742124   -1.46783646046907    3.05727100468097
C         1.63157008931125   -3.20170626729207    0.02076707785017
C         1.32346729942150   -3.12514416604742    1.40030869009737
C         0.55086029166780   -3.49157736671761   -0.81133123197396
C         1.34871339510610   -1.82027720849793   -2.49084755547873
C         0.46870254747481   -2.87290609909468   -2.13030395038694
C         1.53514016406682    0.57762649303141   -3.03678686188303
C         0.78568307512080   -0.65535647875098   -3.11649172963366
C         1.38216493927763    2.86622694139229   -2.08338617811346
C         0.83959218744447    1.84555063680479   -2.89233569940215
C         1.32349284134007    3.65243882244797    0.06127624562529
C         0.56920800559958    3.58361925743708   -1.16800885880937
C         1.20455319562950    2.57490757632175    2.23007793802694
C         0.66774953396280    3.48615258878634    1.25146289065205
C         0.11849642777609    0.67602970710400    3.35508402397916
C         0.09352814632204    2.00834911462392    2.89097848668529
C        -1.12998571278884    0.01292461126908    3.40258975511031
C        -0.06057038557527   -2.08811764856620    2.91605801428769
C        -0.01947198562321   -3.06645766097661    1.85445512548127
C        -1.21646092699932   -1.37828172228873    3.11927104211829
C        -0.77657559044870   -3.64219910055478   -0.31771511802512
C        -1.12700921757569   -3.25050129569384    0.99589170436360
C        -0.86416530729747   -2.85227814863613   -2.50389353936632
C        -1.65720090205238   -3.32535382749279   -1.39432465998221
C        -0.64708804619855   -0.57820329379068   -3.34414382092265
C        -1.47118565202494   -1.68517425261024   -3.02869618263330
C        -0.55833002977500    1.86638018930474   -3.00029769678173
C        -1.29955742084281    0.67471779708673   -3.28598425702078
C        -0.83373705995519    3.48617990311575   -1.16637992295299
C        -1.37571183622974    2.73540834696973   -2.23226610582629
C        -0.76885504421821    3.44429157429123    1.29260199949615
C        -1.12063613797164    2.59514656676780    2.36551809729973
C        -1.54733958461263    3.50730469668482    0.10215815222885
C        -2.35435130809044    0.60987778706892    2.93133041218377
C        -2.35575502611541    1.91224993718532    2.38606548676078
C        -2.39490305603889   -1.64104639187944    2.32915436296147
C        -2.35163742608752   -2.48462099444085    1.20787660782302
C        -3.14995863088750   -0.42888847559417    2.34865399485445
C        -2.74655349001807   -2.48453770558897   -1.24614768931420
C        -2.71593618675776   -1.52439356614219   -2.34707757624882
C        -3.18425924302582   -2.10124637702689    0.06336772444080
C        -2.62273348295711    0.83711791992453   -2.77505006661222
C        -2.67353521572214    2.12654873687771   -2.14190407960538
C        -3.31511002594768   -0.26952841300372   -2.21046451489322
C        -2.83269137425208    2.94635617864390    0.16152807660997
C        -3.26542775570981    2.20386246454195    1.32483035845973
C        -3.42836777952929    2.31982929415210   -1.00038651720767
C        -4.01958584367799   -0.13590816337965    1.29823939810962
C        -3.98198450407883   -0.95739609713993    0.11965582306709
C        -4.09843706759717   -0.05481241826300   -1.03516459673919
C        -4.16438504247584    1.20840478571807    0.90216905913116
C        -4.23971601539452    1.23864561305874   -0.54308175696873
