80
C80 Isomer 14050 Symmetry C1
C         5.19370873887485   -0.42300920750883    0.11555372284410
C         4.68781130811262   -1.48445106527611    0.80088716944376
C         4.12104427171285   -2.43764268246179   -0.16871267877274
C         4.90341330004185   -0.68441576675485   -1.33095631203758
C         4.04154074617174   -1.81968109535406   -1.44478010494174
C         4.51595596662941    0.50625241612871   -1.86174003482578
C         4.76556398645118    0.89916560509892    0.44864926115761
C         4.58270059948810    1.53913133983316   -0.80990378792800
C         3.79439079597931    1.11373901528034    1.48586011364652
C         3.73401116333417   -1.31760440944522    1.85693678546061
C         3.25397660767755   -0.03055814755695    2.19904772686357
C         3.00845415568149   -2.99654242515292    0.41742048251348
C         2.79739434854143   -2.37334020813177    1.71190049314350
C         1.89252601314374   -3.29901797910956   -0.40233888465263
C         2.75665426424246   -1.70135416917548   -2.08624967041991
C         1.71016615965612   -2.57761295051779   -1.64001888799997
C         3.26809669139496    0.65302610482828   -2.54619149714313
C         2.35780140012117   -0.43061415047510   -2.64891273860766
C         3.54024965031236    2.41169569299082   -1.03457356107699
C         2.77186886611056    1.92353195666137   -2.16682170517653
C         2.96840376040931    2.29236844728882    1.35173736270418
C         2.86936139622305    2.97781279215975    0.08241106452270
C         1.84692112790000    2.41214128395367    2.19473309212000
C         1.91112643867248    0.01717745022674    2.76712430985402
C         1.31677643267775    1.27362147152625    2.87101491189712
C         1.50171196587574   -2.33047274624200    2.25316110107712
C         1.01473025627797   -1.11351493292847    2.83237375001589
C         0.79035592406354   -3.70343160052188    0.33915679393301
C         0.60683311427269   -3.24995503390774    1.68828597579573
C        -0.47837087462671   -3.81604349731077   -0.25639853055587
C         0.36766760270992   -2.38805472178298   -2.09229155351106
C        -0.67390187537100   -3.21684406068415   -1.52660166460007
C         0.95359010448405   -0.10457608220140   -2.80043554598231
C        -0.01886319717593   -1.14413189430846   -2.70433748360169
C         1.42355771941051    2.25787941610518   -2.30020445887787
C         0.48329656435876    1.25452931438500   -2.73813322210522
C         1.69474540732147    3.64362154290481   -0.26274432261916
C         1.01506568435950    3.33634305027167   -1.49470395728762
C         0.73986271634017    3.27417515092636    1.91414114229340
C         0.67767955261332    3.92279724892011    0.69437461228574
C        -0.09692614162179    1.44159478853336    3.01905229919282
C        -0.46583851120557    2.69686542014158    2.45509025223098
C        -0.41277046400750   -0.95467688259727    2.97408356941653
C        -0.98531968273179    0.36368944519676    3.05308491826530
C        -0.78364539340434   -3.14685431353441    1.90948194610208
C        -1.46303075082267   -3.67221372823338    0.76378066707505
C        -1.29681805534650   -2.02691665855518    2.59110401760486
C        -2.78542209645417   -3.34124978437658    0.45539622623469
C        -2.00156519879900   -2.98203588152046   -1.86486038969511
C        -3.08919849390276   -3.22905376113644   -0.93317550135503
C        -1.41219035693521   -0.82174259333381   -2.89293134645585
C        -2.35327130155950   -1.86079427562413   -2.68108443652801
C        -0.91187900532320    1.56195492096213   -2.66468880827756
C        -1.89298167197195    0.53167144960022   -2.84249102201878
C        -0.36197285473268    3.57045114939379   -1.31708667547803
C        -0.58340106348194    3.99121920555605    0.03014444189606
C        -1.30942798857902    2.79584530268151   -2.02424390533557
C        -1.73732705756693    2.90459307752440    1.90671081931686
C        -1.78403928266807    3.66285957244209    0.67184406470107
C        -2.36810762005558    0.64383699158297    2.73221738221171
C        -2.75407923693697    1.91400503069930    2.17734887484511
C        -2.66850746588441   -1.76279862603668    2.35450568294138
C        -3.44764727393457   -2.47959239536408    1.36692212308483
C        -3.20970466754509   -0.46622475968641    2.49834320478883
C        -4.50807733038225   -1.63162367029573    0.93688829872490
C        -4.38982397934835   -0.39553100986785    1.67593427200529
C        -4.15453951119475   -2.41653815867617   -1.32561586371797
C        -3.70610334333882   -1.58161637267419   -2.42765224582359
C        -4.86129681956736   -1.59090095368860   -0.42007797184003
C        -3.29017233599602    0.80054999112675   -2.52191123953797
C        -4.17619956088167   -0.28176095307071   -2.24463955816530
C        -5.03444491237157   -0.30206179367753   -1.06409631196640
C        -2.61307110069962    2.95670673767747   -1.54895045097213
C        -2.84303932462821    3.43028563897871   -0.22204072603998
C        -3.64223828814754    2.00880572201559   -1.87808183641664
C        -3.95277388663132    1.97125434811881    1.40584053154903
C        -4.74987127242530    0.80302937938365    1.11671323088743
C        -5.12854742139422    0.83692991852383   -0.29567134873633
C        -3.99821642860004    2.77163721400259    0.24516040769554
C        -4.59339170339624    2.03026079512637   -0.83206686125861
