74
C74 Isomer 141 Symmetry C1
C         6.05214395524523    0.18479367860605   -0.23943257375279
C         5.67413276032259    1.11546794167882    0.69365886251462
C         4.90837638288744    2.17523088888984    0.04580786596264
C         5.48070883818344    0.61197318425465   -1.53018204580098
C         4.68232192826655    1.80904114892359   -1.32561416671811
C         4.81244325979178   -0.48722728658145   -2.02877781106193
C         5.44338051815908   -1.09733067637909    0.15187353831522
C         4.83346609304610   -1.56789345600144   -0.99903567381618
C         4.80754441290414    0.49353647304155    1.69880379449880
C         4.60735016854010   -0.88410784800409    1.32957063804592
C         3.80534710734383    2.39836845149929    0.87014921583971
C         3.70188998685532    1.32608426039986    1.87869355791834
C         2.61492466800242    2.81720455830865    0.29707787436145
C         3.35854442144096    1.89549948382104   -1.84507776861478
C         2.40685236145246    2.67014302573027   -1.10076413239797
C         3.49024733388103   -0.41889427707198   -2.54107680531888
C         2.73834320922515    0.78273957933227   -2.54575622238124
C         3.55048572252307   -2.12725294685137   -0.95733132104802
C         2.79807221424700   -1.57872149790022   -2.05939237266973
C         3.29259790997901   -1.39415621284872    1.38320837547428
C         2.84596485559189   -2.19967077793353    0.27064388624909
C         2.41891851105065    0.78719252285417    2.16504315875695
C         2.22140093601422   -0.61107949503943    2.01920345535928
C         1.47419362843117    2.75944277413309    1.16705791646944
C         1.27894996005382    1.64549000961887    2.03516041168249
C         0.37270182502877    3.40722149098318    0.67857036014533
C         1.06224151173540    2.79781892736317   -1.57209270753896
C         0.20169102657615    3.53400596801894   -0.74879752171591
C         1.29596765267358    0.67219802971447   -2.66373732897848
C         0.45652096717343    1.80284054713252   -2.40620057129519
C         1.42491894567465   -1.67192644260491   -2.09383173471956
C         0.63904006366406   -0.59351367569697   -2.61391218017348
C         1.48274650172199   -2.51121610732862    0.15979150740312
C         0.82371449975180   -2.49446686089647   -1.09805944680697
C         0.87347180441820   -1.07105585281839    2.02648376313624
C         0.61989052499925   -2.26352029327562    1.27689643614970
C        -0.05930744776775    1.18186594902583    2.24078619280214
C        -0.27505195412832   -0.23022545074955    2.29988764459379
C        -0.90411882055706    3.22131149390918    1.24986023713426
C        -1.18366235364562    2.04059342979949    1.96575545835719
C        -1.17263538644707    3.62728468509341   -1.00389348980225
C        -1.83044572311262    3.71888228603450    0.28000337873399
C        -0.97027957710162    1.71559080433027   -2.51365112414746
C        -1.78001152562949    2.80626426683553   -1.99576791969999
C        -0.78216977400870   -0.72486815723175   -2.59003605385443
C        -1.60416574415766    0.43758972259096   -2.70632323269887
C        -0.55078084545189   -2.76793840580860   -1.21045928970868
C        -1.34649249454306   -1.98008382802686   -2.12068450471004
C        -0.65220820433740   -2.75526328571352    1.18715087187273
C        -1.14263554431058   -3.31102058614176   -0.04341784589782
C        -1.63023442268839   -0.73108593395065    2.19739804960424
C        -1.77187895194496   -2.11242583244973    1.84637099825550
C        -2.55099714477959    1.54913891410937    1.92089037682609
C        -2.78116019006979    0.12108040673657    2.00453411802875
C        -3.15173750923468    3.44079301277299    0.41184756361035
C        -3.54266999197885    2.38409049530330    1.34363591537522
C        -3.17851232786546    2.69930213157340   -1.90449674054877
C        -3.88481051763664    3.27487030277037   -0.80736464020580
C        -3.04790873687312    0.30813794873117   -2.56923845401250
C        -3.84518756394359    1.44462082555117   -2.25128944839006
C        -2.74348614552665   -2.09072204931219   -2.01023975955611
C        -3.58963525267814   -0.95088350083403   -2.22351957038687
C        -2.53849739579447   -3.36425082578416    0.07289596011411
C        -2.93279338654352   -2.62948291985651    1.28189192453718
C        -3.31864811936068   -2.87140733743785   -0.95665185184390
C        -4.00783323467573   -0.42586170689495    1.42152111378031
C        -4.68073496939806   -1.02750538069338   -1.26290946287814
C        -4.02791483350926   -1.78336864437983    0.96746520435926
C        -4.39148979267746   -2.07347070843562   -0.37220399429817
C        -4.72098303008661    1.82662674400162    0.77784082354257
C        -4.96951321982255    2.41163334930107   -0.50106675587947
C        -4.99872656279683    1.32768123549781   -1.43863386846197
C        -4.88033598397322    0.41623382414919    0.68983088461570
C        -5.19885178779865    0.12501348851178   -0.70134094263556
