72
C72 Isomer 400 Symmetry C1
C         5.43916654417063   -0.97923400833103   -0.11790196545683
C         5.50665807768295    0.17157347406857   -0.87530056229075
C         5.03308693644441    1.28962542553816   -0.07918490867412
C         4.81536397352434   -0.63611951503178    1.16211825544257
C         4.53665848681422    0.78277687891829    1.16902383981861
C         3.72776462010402   -1.48735682735383    1.33814798442347
C         4.56707630279947   -1.91593313327338   -0.81094954896002
C         3.64822255488346   -2.34682366182972    0.14193350272658
C         4.61168229624369    0.02994702112003   -2.02518421431443
C         4.01375873223732   -1.27565417135369   -1.98481442762094
C         4.13798848761077    1.99234457220394   -0.91810752036190
C         3.76865667832760    1.14869787827583   -2.06445262427576
C         3.13378882160310    2.69142091849247   -0.30162637694644
C         3.29092377815418    1.24515950002238    1.68580508275567
C         2.79615887771328    2.41302171673049    1.06311033584748
C         2.49383053832612   -1.06467304103167    1.92971899823488
C         2.26656886060238    0.31791310767967    2.18067071982309
C         1.37800773032109   -1.95429663510761    1.81527618678429
C         2.39285588883110   -2.76330176214136   -0.27485047079328
C         1.43023029679256   -2.93876648494689    0.77279947798282
C         2.64454721200076   -1.41273028871257   -2.27908518764573
C         1.92195292096214   -2.43720649947508   -1.57038701481613
C         2.39426834395081    1.03577574194244   -2.43386398798494
C         1.84171317339629   -0.26269747063064   -2.66080534434818
C         1.90514215011667    2.93721932919897   -0.99336510854272
C         1.48203461748358    2.08138839875094   -2.02884061383617
C         1.44821759664249    2.81423933068547    1.23533972618923
C         0.95617197322039    3.31254861014617   -0.00368934768190
C         0.90126847889329    0.74629849420243    2.40321770911544
C         0.55491464065817    2.09537511301256    2.05141359711737
C         0.08465490786203   -1.57169855903120    2.30090946610644
C        -0.19017926288698   -0.18339934426621    2.53722679421010
C        -1.00324816947119   -2.45120003145406    2.05316641123412
C         0.29140440557650   -3.60588975793436    0.36740121192412
C        -0.85219942384186   -3.54444944965829    1.17898217787172
C         0.55096346751499   -2.67385403142193   -1.86929579015575
C        -0.14746146191914   -3.53601170443966   -1.01132835227186
C         0.42223190660537   -0.40460113197503   -2.81960362699105
C        -0.17651225008616   -1.70019765759186   -2.64287883701544
C         0.07105869756761    1.96439802325179   -2.26337071561992
C        -0.44431433617979    0.75301736993891   -2.81564348099475
C        -0.39777007575815    3.38259486168055   -0.29428892805684
C        -0.83281649122547    2.85130137273107   -1.56035172678115
C        -0.78546778922091    2.47759687654899    1.91861237570387
C        -1.24812869205689    3.26727112619613    0.82173913312705
C        -1.58579451994472    0.25970677704768    2.49935631887718
C        -1.86012046600308    1.61725825353330    2.28886424707257
C        -2.35496391328906   -1.99152881968935    1.89924683401461
C        -2.67424263282774   -0.65299338750535    2.14765082186848
C        -2.02626147848741   -3.65129360525984    0.35261585946520
C        -1.58248934522958   -3.57948895784614   -0.99398045518726
C        -2.97979867770508   -2.73595298926846    0.82684571835304
C        -1.57302610577277   -1.83109518859294   -2.68687434489093
C        -2.28661849474354   -2.76673511615937   -1.87882206712998
C        -1.87256896775194    0.59339293850536   -2.93553412957489
C        -2.42932523495096   -0.70046447254704   -2.90808620177540
C        -2.20836944528774    2.71917908790227   -1.72152211183416
C        -2.74340997936395    1.64966426728318   -2.52500880908831
C        -2.64464090516028    3.05887831762252    0.65591975390839
C        -3.05871910989932    2.09360936213956    1.63483861376821
C        -3.14375380204450    3.00464167494593   -0.65507123399543
C        -3.86776208745223   -0.18018159453878    1.54217236049570
C        -4.08633039898295    1.21012931021141    1.32836221132613
C        -3.84070861287041   -2.08056018764265   -0.08874631116782
C        -3.51798508086148   -2.14614914963949   -1.46958274650482
C        -3.68992933078057   -0.97372823733755   -2.28475257676437
C        -4.44411752658317   -0.88467475634450    0.40120556386980
C        -4.05609216282614    1.39448293701906   -2.09656329245840
C        -4.29235718859047    2.21061894186281   -0.89733743670930
C        -4.79065276955388    1.37030661001901    0.08426359473345
C        -4.50310082679478    0.07252387346714   -1.84181913439719
C        -4.98375595923353    0.04604413646783   -0.49108335027638
