80
C80 Isomer 14581 Symmetry C1
C         5.31942632118203    0.36863906882292    0.12519285458318
C         5.03371464090699   -0.51815503138965    1.12653976086899
C         4.38129586629108    0.20379404950868    2.22550490328958
C         4.91711323731104    1.70352117406013    0.61283737343100
C         4.16489414592900    1.55033945459108    1.82941030446768
C         4.34639236149504    2.35609702436289   -0.44957910588779
C         4.77096409449161    0.17152734746098   -1.20280510751751
C         4.32385732464503    1.44469861367654   -1.60787210984449
C         3.97117668788986   -0.96344681447554   -1.50469686227496
C         4.29169411362086   -1.70413884627431    0.86337560947068
C         3.87498198923932   -1.98693187579512   -0.47386319082760
C         3.33639718800715   -0.59553537296198    2.66069921049718
C         3.35712158488442   -1.85427707796988    1.92967564362308
C         2.08927909860132   -0.03035973167517    2.98736603095448
C         2.85771309764861    2.09430032431127    1.94628087839580
C         1.86138668740098    1.35025072398560    2.68120091707753
C         3.07837284787758    2.97358424421877   -0.34195102133331
C         2.34378178352549    2.91299592665763    0.87085928670310
C         3.10383245087794    1.61599697298808   -2.24923467430388
C         2.39487434109558    2.68402230774208   -1.57799418453112
C         2.83040072968717   -0.80403946891401   -2.39555404344010
C         2.36426168756945    0.51379925747770   -2.72270953693214
C         1.87898154690460   -1.88317639416409   -2.54206620731818
C         2.83241728020663   -2.91130450928185   -0.54783099147799
C         1.93765278217028   -2.98126340739538   -1.66645952454627
C         2.20023661500899   -2.62635699801700    1.80158529715825
C         2.09880673834514   -3.33650770941918    0.59361011845999
C         0.99260490877448   -0.95795129237899    3.11835804375943
C         0.99166352269452   -2.26708290714125    2.50747948345539
C        -0.22292948712276   -0.38476289028145    3.44462450980659
C         0.50748925337118    1.84287448719133    2.70985049059579
C        -0.45635620191506    1.01773854045465    3.28918935821110
C         0.94391115071393    3.20027160284855    0.76966704026255
C         0.03177433761046    2.86097261311927    1.81086867833747
C         1.03915925979801    2.82809512393421   -1.68424353178206
C         0.39244477728617    3.40731589332536   -0.53781274602583
C         0.97373940465087    0.78364008947806   -3.02192782675689
C         0.29739105229410    1.97255353279440   -2.57662667524792
C         0.60070045804722   -1.63344338664726   -3.10793229065320
C         0.15558488611069   -0.29062433148363   -3.34209324029183
C        -0.54599642851411   -2.40885403820475   -2.82157321361267
C         0.76465128954949   -3.67453778776862   -1.25876576466254
C         0.84076750133607   -3.82832662932479    0.16469243904342
C        -0.48773528393073   -3.44676518336434   -1.86571104206985
C        -0.24099656232175   -2.89883854811816    2.17533853982668
C        -0.29090874578549   -3.75123211727292    0.98895839966394
C        -1.45133699072374   -1.06841386370757    3.27476219632364
C        -1.48787335280035   -2.32031007613942    2.64336554995806
C        -1.85803525973370    1.19923130336083    3.09685880922530
C        -2.48073949962410   -0.07747510669982    3.13228339340764
C        -1.38778672489942    3.11587232601237    1.66998527101758
C        -2.36407462946913    2.28379793539051    2.34632147230972
C        -0.94963461372223    3.65422993365865   -0.66633436999391
C        -1.80791901315421    3.73292202744628    0.46246912650750
C        -1.11842600693383    2.05307565394795   -2.56282885773849
C        -1.69316491069533    3.10528116073927   -1.79135925079303
C        -1.26049449177087   -0.24583959892347   -3.21281883114086
C        -1.71325724367299   -1.55080285311273   -2.88351240397120
C        -1.94967992274845    0.89973413303837   -2.81200646095817
C        -2.85123658126167   -1.73816347178461   -2.09198607685328
C        -1.63477417933903   -3.68521013985110   -1.09369475365191
C        -1.52104925884733   -3.94012388693705    0.31352446283011
C        -2.84798966348852   -2.92486615899461   -1.29841341042105
C        -2.72257065825111   -2.64298254707206    2.00547774637235
C        -2.73101965288474   -3.52308352640173    0.91400715644164
C        -3.56529189274147   -2.95115447557725   -0.09538457621034
C        -3.62074237507505   -0.34954581735364    2.34506051868932
C        -3.73244817565928   -1.63016662010915    1.77126252386899
C        -4.16454432213551   -1.77282223248350    0.41463357197170
C        -3.65506455511265    2.06501364392093    1.77693863301159
C        -4.18314030718070    0.73514070052547    1.65145767787615
C        -3.12329365431745    3.55404354529452   -0.05716443540334
C        -3.02986846696230    3.08552872956596   -1.44745822650439
C        -4.02742525556324    2.75220898761252    0.59195671124206
C        -3.24078350909784    0.72478723978624   -2.17537085108116
C        -3.62590827728038   -0.57231074399680   -1.68170402554928
C        -4.34306831795833   -0.64928883438230   -0.42395441102634
C        -4.62731540407021    0.54730834912383    0.28318684500244
C        -3.80914759325082    1.88748881570148   -1.57127881945948
C        -4.54088157503452    1.77177944511079   -0.37214418590435
