66
C66 Isomer 960 Symmetry C1
C         4.64959131863076   -1.35315290529045    1.33224561491699
C         4.12862631569626   -2.37211330941110    0.46051949910933
C         4.22021327800933   -1.87563145123961   -0.84953270196186
C         4.85482103889504   -0.14126486178970    0.54437299129976
C         4.63453838473938   -0.45417741579949   -0.78576716797753
C         4.06069852103514    0.92452779405589    1.09282497575327
C         3.62593657093096   -1.03886891823714    2.23489744539895
C         3.32344210088018    0.36549148761879    2.18744458893569
C         2.82333134703270   -2.77188073523690    0.93677509360776
C         2.51945137767305   -1.94139566769333    2.08076758416201
C         1.78589611485938   -3.05206858912690    0.03650772927784
C         3.12958237248768   -1.95377036444072   -1.71788503290469
C         1.98450432895875   -2.72489934047848   -1.36267608644965
C         3.73659417999315    0.29894070851155   -1.60024152965443
C         2.91389700887389   -0.63841191928434   -2.29495027385631
C         3.40435138070558    1.84698531637290    0.23636049250430
C         3.16798820233788    1.52415877730004   -1.15782915607887
C         2.41306964760115    2.60041850336374    0.90622870854419
C         2.01994764608357    0.79885225337248    2.51294141820582
C         1.71345088844990    2.08662950978098    2.04574923686670
C         1.21386517941341   -1.51928917911346    2.34293640701622
C         0.93910046504804   -0.14024477125630    2.70225712564603
C         0.44190810517596   -3.00911900116526    0.55046132047943
C         0.16012379536379   -2.28409407432533    1.74248209926161
C        -0.65279036377284   -3.19065594603147   -0.36533062155301
C         0.85385828943818   -2.48228520984600   -2.14712218957973
C        -0.44978780606936   -2.86130216599283   -1.72781920862663
C         1.67912545227632   -0.27276596105368   -2.84696281096235
C         0.73528541007725   -1.31914211994829   -2.97712986646176
C         1.94879267271517    1.97441974777125   -1.81019897049423
C         1.22012132631326    1.08809450292673   -2.69977675267503
C         1.47929323250157    3.34070244078871    0.16168126768667
C         1.19963566610502    3.00058486186312   -1.18258502989974
C         0.35447639338156    2.53922676229879    1.98817701562479
C         0.24058395379515    3.42780350388166    0.88778251083542
C        -0.40566203371741    0.31560446715035    2.67221111217666
C        -0.70353477653254    1.67881700720793    2.28903317013470
C        -1.18340618649597   -1.96952534606691    2.12093285883948
C        -1.47277347179991   -0.65954076555288    2.64348021139363
C        -1.95651968323307   -3.07748320845102    0.09965738218240
C        -2.22188289919735   -2.66962884163140    1.46194177850994
C        -3.02474935438095   -2.56718367959305   -0.71838291994784
C        -1.41486256803531   -2.06003017832309   -2.40628138592618
C        -0.65258676670151   -1.06579749075127   -3.13227314389771
C        -2.68468668391076   -1.79911109857755   -1.87778657765957
C        -0.15700037604879    1.30667864529034   -2.92379571095707
C        -1.09321603666993    0.23785372114091   -3.13709482310963
C        -0.23337009788373    3.11941966124967   -1.32704965043751
C        -0.82790876308499    3.31653028910370   -0.01322075753387
C        -0.88922205744627    2.30914948633411   -2.21333149467690
C        -1.97234611861855    1.96640905929947    1.64981034485213
C        -2.00000435897110    2.65786443978668    0.37548896771680
C        -2.80257218394850   -0.18157785390700    2.58201297496492
C        -3.03090500459463    1.12257950571506    1.96747657141688
C        -3.55431055107090   -2.23276124079110    1.52548035238187
C        -4.05930740879108   -2.15695823777491    0.14462282716460
C        -3.87074085472450   -1.02273584490276    2.15848205227180
C        -4.14051800341437    0.99803847070772    1.08344287406201
C        -4.68719539110152   -0.91400267605860   -0.02320998414820
C        -4.73114353551751   -0.26923837067461    1.25089513268045
C        -3.22336109296215   -0.44256831982287   -1.98302125560261
C        -2.36381476159171    0.55434709458421   -2.52333648401569
C        -2.21682874019978    1.82532718081349   -1.91804741943763
C        -2.82935925449283    2.08731768362546   -0.66953852374821
C        -4.14409269578321    0.00678458142393   -1.00842128511024
C        -3.88564208471540    1.23711959630014   -0.31678292053638
