62
C62 Isomer 823 Symmetry C1
C        -4.79521647328886    0.48672954288706   -0.18209962206026
C        -4.35884825601176   -0.82467538788567   -0.26947135115697
C        -3.53452525394284   -1.00098065651243   -1.45750562978225
C        -4.20931139002289    1.21016558180107   -1.28196454420715
C        -3.35930116330468    0.29650670293067   -2.03918165272332
C        -3.62502077352138    2.34455185194600   -0.73432855941447
C        -4.24105095152880    1.03610161652556    1.07748685789051
C        -3.61825867335649    2.22709860264551    0.74869069680866
C        -3.77047393094557   -1.18560297957514    1.00263081136634
C        -3.48674921627999    0.02852727868597    1.75140833776086
C        -2.87559735656517   -2.19475331426230    0.98700625612454
C        -2.51122357681333   -1.95110537469806   -1.45936699227560
C        -2.44138672892328   -2.77661903860839   -0.27946429462099
C        -1.28367351827633   -1.68609423995277   -2.18438050978135
C        -2.07193889992027    0.67052505172176   -2.47652874390241
C        -1.05296978790769   -0.34881978990117   -2.66141937245995
C        -2.34487645334661    2.74389197256950   -1.13500522125201
C        -1.63113727539940    2.02112567423386   -2.14070038399870
C        -2.30466060433464    2.49005237510604    1.18330223437519
C        -1.61925994010799    3.07669284202266    0.05807457745397
C        -2.14263682151287    0.25545231666355    2.19055985913163
C        -1.55870728092493    1.55237410237604    1.95345241176172
C        -1.72284257334143   -2.14457901254499    1.86566082506228
C        -1.23505483010471   -0.88733881527761    2.30222929972752
C        -1.26903741485315   -3.44381282523209    0.01178998261264
C        -0.84164988885460   -3.10849350848851    1.37178505825580
C        -0.14942858669137   -2.56639668578528   -1.96678627904300
C        -0.13771793959859   -3.42309848268436   -0.82460992385553
C         1.13203573512734   -2.17486144668929   -2.41715133527282
C         0.31779060430641    0.07543830568222   -2.93141216200849
C         1.37908929772438   -0.83375811121254   -2.88928819949891
C        -0.27682847751645    2.33551402152022   -2.19414866771942
C         0.70813834957928    1.43109449938665   -2.72304294424399
C        -0.24693292240405    3.22336767616085    0.06072031311787
C         0.37413902205519    3.11790080938607   -1.20290892775627
C        -0.12773984533384    1.72722059187612    2.00300800154817
C         0.48014918734941    2.78376723630068    1.22782277051819
C         0.19576228787128   -0.72065757133063    2.35247277894604
C         0.71324461328217    0.63020150023151    2.39478698102855
C         0.53728639467298   -2.94132202272804    1.36020148949738
C         1.00318491356554   -3.41295633356995    0.06346992205897
C         1.09920993016897   -1.77441438801986    1.92699493122609
C         2.29946472644569   -2.59277233726842   -1.75185702755060
C         2.22451010062334   -3.00991473518225   -0.40097836941665
C         2.72257727151042   -0.44053478868092   -2.51538665840149
C         3.27317883773104   -1.52813584823945   -1.80619592619860
C         1.99147581557040    1.82087412399093   -2.27151671580269
C         1.77714982103642    2.87707819330880   -1.29900785113558
C         3.04557861403166    0.88169533062474   -2.09959772620110
C         1.87392404798774    2.88847033237846    1.13884211855130
C         2.54323902107232    2.97071374970077   -0.16057228353171
C         2.11343946421289    0.81324681345724    2.35984224183507
C         2.66986022556332    2.03318342299249    1.93066096262787
C         2.46606155718671   -1.49362214050923    1.52014360274731
C         3.05266140848461   -2.13420023227546    0.40475600574279
C         3.84133157219387   -1.34311177322787   -0.52143094648923
C         3.01780032953567   -0.24415932045253    1.90368961561751
C         3.94076444545963    1.05400845071135   -1.00294855333089
C         3.73700938998270    2.16504205744946   -0.09384385917811
C         3.91169594354623    1.74076501750121    1.22817517835392
C         4.28324441161932   -0.07077554411145   -0.17188008384430
C         4.09805946543709    0.32518906013160    1.20331719636613
