66
C66 Isomer 3581 Symmetry C1
C         3.95902365246388   -1.46409237268666    0.78136092468937
C         3.42814482253060   -1.38314421058114    2.06148742942847
C         2.31681831675897   -2.31585177222522    2.15189599681899
C         3.18568830056057   -2.44335849107115    0.04495158900494
C         2.11815576635901   -2.91803311919672    0.87650566169030
C         2.89966717046255   -1.90322419739855   -1.21617944248738
C         4.09255161891707   -0.29536864149934   -0.03242752304582
C         3.48819636716273   -0.58470763293179   -1.31105491391019
C         3.84755385248461    0.94777686265085    0.54090258672832
C         2.99289877193055   -0.12967556353467    2.58967900081087
C         3.28178561362115    1.02769490997148    1.87514343433884
C         1.25390108134758   -1.66027194891402    2.77026229016963
C         1.65992671649775   -0.30472505285886    3.09730777069388
C        -0.07594899220215   -1.95151127737075    2.39463459533706
C         0.81739698980772   -3.06118413217129    0.36303580148978
C        -0.30597025782089   -2.75547099453362    1.22931268850916
C         1.67248784833186   -2.22189774275914   -1.84144673466759
C         0.65374390298858   -2.92693776580673   -1.07540432441906
C         1.27762074819567   -1.32127023798868   -2.84919137896116
C         2.87403211530909    0.42021551415949   -2.08116705732373
C         1.83958981274092   -0.01866986947537   -2.94755380872086
C         3.26832999909703    2.00046478465079   -0.24643188060488
C         2.83568083723943    1.78316559442408   -1.57989254350166
C         2.33964455622738    2.10373734876040    1.88852858550125
C         2.49246224490803    2.81771176357719    0.64687805900599
C         0.71090579593557    0.71627901988776    3.08215974872457
C         1.07586817802660    1.99252965422782    2.49568784366504
C        -1.07393729516358   -1.04701474154154    2.90040174233295
C        -0.67627849945328    0.31582163413961    3.21393829496781
C        -2.40493186071525   -1.31852806209719    2.51998791347545
C        -1.63541420098517   -2.78903974123486    0.68331674740544
C        -2.67385876376573   -2.12933257409780    1.36376897745826
C        -0.64426855955425   -2.94983326914360   -1.58392255979070
C        -1.78951177534915   -2.98257473487267   -0.72361937238119
C        -0.09469203641049   -1.25507699488668   -3.26889423422582
C        -0.99878997534461   -2.16387669895571   -2.75608818555895
C         0.76097681107066    0.85481996967651   -3.32903396451675
C        -0.46769457942280    0.11046572111287   -3.44495402821564
C         1.80935237814107    2.64704714316105   -2.06807053018907
C         0.72164605488053    2.14633041435158   -2.89061877005553
C         1.47007049845034    3.61383644330695    0.15935286589629
C         1.24597084318432    3.62068192431421   -1.23618673331810
C         0.01426593451346    2.83852263728746    1.98562904557178
C         0.19767676645838    3.61694745335113    0.82793004503323
C        -1.63683863215592    1.33406708905560    3.06453967570189
C        -1.31272370629370    2.49874012502533    2.27749391457618
C        -3.37783253987874   -0.28144918602110    2.54519206099771
C        -2.98505887773776    1.01665240123199    2.77807322650864
C        -3.75222044283815   -1.47118186422682    0.62676879797908
C        -4.12107631537888   -0.30684883184898    1.28798924072087
C        -2.85484108538727   -2.33812403719268   -1.40107568959358
C        -2.32305016889176   -1.72405445502693   -2.59764141899902
C        -3.69479915546489   -1.41718935388442   -0.77300331128248
C        -1.69773233255077    0.61232275594341   -2.94499908114987
C        -2.65670613349710   -0.35704969083015   -2.56871397367949
C        -3.54736603101038   -0.13907715688891   -1.44725776235623
C        -0.54323221091312    2.68538867845257   -2.41075831395660
C        -0.18649233617565    3.63063128160801   -1.43714674462300
C        -0.83151441835647    3.64253295224055   -0.19288542190061
C        -1.70712942800779    1.89245556987859   -2.25882617673885
C        -2.36842179706179    2.67998351901741    1.31300330070821
C        -3.41518474339186    1.81930855262463    1.62551609907677
C        -3.97770153807336    0.97113659222950    0.64940860257521
C        -3.51537959227356    1.05911722880210   -0.71768753123223
C        -2.05317710038091    2.95842680683559   -0.05230810200828
C        -2.54525898469649    2.08883406979722   -1.09060304417787
