80
C80 Isomer 6938 Symmetry C1
C         5.56410024480208   -1.69771501366236   -0.00313242344479
C         4.62827830090705   -2.72181142394698    0.18028365287649
C         3.87620765664710   -2.46028275523077    1.39289697212317
C         5.42396046303314   -0.78139828791533    1.08095855853914
C         4.34320107574374   -1.21047963059375    1.92556193503133
C         5.37012807017747    0.52725722054957    0.53752352174247
C         5.15828646991304   -0.96766880570431   -1.19997514566392
C         5.05507361180014    0.39870924732645   -0.89295214427569
C         3.87321251834080   -2.82941768714832   -1.04076468326426
C         4.06823489711970   -1.62644224380787   -1.82741360527898
C         2.62061664404422   -3.33737228141357   -0.93136733225604
C         2.52107724785109   -2.80474972644902    1.46647147679922
C         2.01054563883139   -3.54298907825796    0.35983028034987
C         1.57547612599212   -1.93509311888275    2.15581887087495
C         3.40473674683144   -0.27092832702656    2.43639491472772
C         2.00297952027454   -0.63255850295891    2.55259543172038
C         4.71102518809108    1.47878489692152    1.28201906334665
C         3.72305705671593    1.09734359323912    2.26235355302756
C         4.18751738993684    2.57960040100426    0.55123441728984
C         4.00163595671377    1.16923694014103   -1.46754370615349
C         3.75991551420267    2.38648931817368   -0.78495855748857
C         2.93384398508968   -0.90392791239938   -2.31680853816454
C         2.91136946578304    0.52287401945303   -2.19331886432141
C         1.59558384625525   -2.87397331829304   -1.82211398595403
C         1.66748016108593   -1.60305108556540   -2.42661167345148
C         0.63041802553253   -3.59292537025974    0.12993038077105
C         0.38434243700173   -3.29661738024978   -1.25266306513831
C         0.17189583908683   -2.21118995137780    2.04476485303243
C        -0.30293723190708   -3.12872027683286    1.06762713437527
C        -0.81012214361111   -1.28874933499797    2.52547081310884
C         0.99101924008177    0.40190388072618    2.64934996961386
C        -0.39208933848715    0.05892497374902    2.70268943596466
C         2.68228490495563    2.08993344388093    2.20720646719538
C         3.05921824783808    3.07359202190918    1.26112228673869
C         1.31795061202066    1.76882090296373    2.38910010341245
C         2.49095155022332    3.04033993427750   -0.94777807251020
C         2.08143674485098    3.50999912560036    0.33050560188264
C         1.64823315437856    1.20739886944898   -2.39036610592134
C         1.53013714947756    2.53404574796212   -1.83764869834506
C         0.41841878832349   -0.91718054571751   -2.65901755281946
C         0.42425963601675    0.51326944816912   -2.71302169144662
C        -0.82443144362632   -2.76392073537109   -1.64325136341539
C        -0.83829827489921   -1.59866904892621   -2.45331191258323
C        -1.66316144612482   -3.13168068573493    0.63554175112471
C        -1.90739022314440   -3.08597900453380   -0.76642607227011
C        -2.20703419966114   -1.63145902694052    2.44592130374927
C        -2.66690354790542   -2.65709654374570    1.53309349958786
C        -3.12976253647913   -0.61648234932588    2.78617147718381
C        -1.38313093016458    1.09540741232871    2.56042075518246
C        -2.72313794657187    0.74038338407282    2.66013092461249
C         0.31723032780703    2.64910176733819    1.80429768441067
C         0.74182820933286    3.48910690801926    0.71450120523487
C        -1.04875777912726    2.32282899098233    1.89754186695392
C         0.25063472809340    3.07097614861339   -1.63331647489397
C        -0.13394346271322    3.60532102508217   -0.37123318392507
C        -0.87396286352644    1.18971771517520   -2.70282193773307
C        -0.91109035087764    2.50388642453182   -2.22309475426188
C        -2.11670516304552   -0.94901216859841   -2.59507950382372
C        -2.14117643046066    0.47860800029475   -2.71115021796030
C        -3.16674649233835   -2.72629267141050   -1.23251796648565
C        -3.27979599363018   -1.62420438130502   -2.16784589948324
C        -4.00655165863469   -2.65387077096258    1.05701736997570
C        -4.23710720223123   -2.73193663382820   -0.34079197924007
C        -4.49231990263705   -0.67806897910416    2.35638592928179
C        -4.94517735803740   -1.67494453274218    1.53187484971809
C        -3.77129540216036    1.46923290980004    1.95387827457668
C        -4.86169556853775    0.62375982113789    1.78802369515640
C        -2.03454120375491    2.87676844385302    0.97657569137318
C        -1.52396644544971    3.42842412183450   -0.20169445000573
C        -2.03199242954472    2.96628340586362   -1.46012784507993
C        -3.37829712698252    2.36041915069367    0.92187405344379
C        -3.33091396234130    1.12145886248881   -2.28051700920777
C        -3.22569505827461    2.31817857593643   -1.50819899858853
C        -4.02922821864677    2.19166650557982   -0.32584018267519
C        -4.50334130725446   -0.95089586118334   -1.82518136941173
C        -5.14421318841118   -1.66203200397441   -0.75032275375553
C        -5.60991667204536   -1.02672035016111    0.37921530390460
C        -5.46758493288602    0.39858849920275    0.51207093991497
C        -4.48231568380064    0.43522603140993   -1.76693808180924
C        -4.95507227127220    1.12163971680506   -0.57112846742177
