64
C64 Isomer 3201 Symmetry C1
C         2.58098632437574   -3.18076026438513    0.68991220642796
C         3.33685850299130   -2.48557424639523   -0.22728389125260
C         3.95788953154763   -1.36477171808768    0.46504820918999
C         2.58387071026517   -2.42274497295130    1.93900480628026
C         3.38509410809995   -1.26163974588383    1.77011842431054
C         1.26290048225266   -2.32588462512736    2.36061822351625
C         1.25134700896523   -3.54631345698180    0.37819040142317
C         0.44330350015869   -3.16311324853216    1.49099589393876
C         0.76596008420045   -3.35476807704245   -0.94318178875138
C         2.75886111933665   -2.00753906600099   -1.44831642338117
C         1.47374915639124   -2.45166717764514   -1.84221311735997
C         3.93267544943482   -0.27636915715304   -0.41511046269996
C         3.15952899264724   -0.64252613099904   -1.59960149990015
C         3.79948649120904    0.98276044216119    0.13860986419782
C         2.89602038901920   -0.01454408580059    2.23874709870406
C         3.36775130796749    1.11041961980881    1.50629272862138
C         0.72876381018479   -1.11246751558154    2.87779892553146
C         1.56859710379962    0.05797273505052    2.84243719069625
C        -0.71954927588961   -1.04059880680854    2.96814137145673
C        -0.93228412720527   -2.95561436090135    1.37617854821873
C        -1.56844711834681   -1.97691736757440    2.23861598107460
C        -0.63649587460509   -3.43609682244281   -1.02382750549889
C        -1.49121732112874   -3.30812436638411    0.12289564245238
C        -1.28983697776734   -2.82806255730045   -2.11642987647837
C         0.72689622928477   -1.55856411997039   -2.69760510696891
C        -0.65675667229659   -1.84228015753431   -2.87990383189554
C         2.36160572745951    0.31004670476888   -2.25927818558601
C         1.17041662325339   -0.19970506104650   -2.91429496050957
C         3.18141214698261    2.02176540991685   -0.64550176317133
C         2.46285720930120    1.70319483471804   -1.83197345086378
C         2.68704664610638    2.35066628835501    1.56771006527612
C         2.65493597438100    2.96092754472569    0.26470632176473
C         0.89952061824209    1.34419956488113    2.86142286010931
C         1.43157738533196    2.46961406545714    2.16296061678953
C        -1.25832222911381    0.22299827435482    3.29406498895113
C        -0.47486725919959    1.39492373955244    3.06063107188106
C        -2.59708062629977    0.56491802505368    2.95675820815297
C        -2.87179580071029   -1.57390645719420    1.85743724731484
C        -3.36911835919422   -0.30398491925614    2.23116709370043
C        -2.71561913288917   -2.68478430508400   -0.31555597117247
C        -2.58945566237625   -2.35576243318697   -1.68705481419275
C        -3.34890959223219   -1.78281972973621    0.50635843911539
C        -1.64809197774821   -0.79068566221922   -3.02861061586164
C        -2.78446372044459   -1.04835869284367   -2.16174481076987
C         0.19087054815953    0.75885155534370   -3.29083818092217
C        -1.23120848833040    0.48332485724518   -3.19794238823513
C         1.37872555517261    2.57693639387579   -2.12374323113657
C         0.33333825199795    2.09656600114760   -2.91522843694309
C         1.37755172162601    3.54743740388794    0.10603259919148
C         0.60067848777906    3.28641476424957    1.29378990429504
C         0.76311914011995    3.43323807941941   -1.12008454144073
C        -1.30394897718818    2.34119865628952    2.32285635429908
C        -2.59018667981473    1.84551624944569    2.24943910022581
C        -0.77820680311140    3.08105802195612    1.22424085291084
C        -3.84248181675095    0.39932459001450    1.02637141443391
C        -3.77143003391586   -0.50116926334073   -0.03667967183780
C        -3.30465475213474   -0.03782601753644   -1.30698983057242
C        -3.24772937020758    1.67912266039423    0.98757414130605
C        -1.88403799775618    1.56128681911173   -2.46708260982102
C        -0.94129281092834    2.57664089389652   -2.37699331192683
C        -0.67258706983779    3.27369164263984   -1.18994126457042
C        -1.47539665277866    3.01792930826014   -0.05202530915764
C        -2.77876767219620    1.31097956779734   -1.39044142165877
C        -2.62795548564637    2.14701987514869   -0.21064852122113
