78
C78 Isomer 7517 Symmetry C1
C         4.91424490906921   -1.10249817731890    0.86585564453703
C         4.91335729588401   -0.29705370153451   -0.33877356578243
C         4.36729519399770    0.95905555751173   -0.02531466295927
C         4.20694855956567   -0.37228677943315    1.88786230403948
C         3.92134811437927    0.89756614293545    1.36924631886064
C         3.09683884170214   -1.14746086219101    2.34642428641732
C         4.17227640766574   -2.25173276860494    0.59686895033582
C         3.12158101505050   -2.36635690547135    1.58216533209762
C         4.31434014229168   -1.06562732299871   -1.39546356135151
C         3.82439009137138   -2.29230617572548   -0.81290461474357
C         3.49549201311945   -0.40325874486733   -2.30094192563701
C         3.55732515457660    1.65126589203486   -0.96503432611024
C         3.21863125606111    0.98736814303052   -2.15501873438243
C         2.66161362538330    2.66038379177435   -0.47947483998800
C         2.73885897283659    1.55387062045875    1.73968191998995
C         2.38234646674822    2.67424729473119    0.91718926836055
C         1.85306114352244   -0.54847381982254    2.62852776504208
C         1.71822994476872    0.87005517219675    2.47620144751066
C         0.66902110186528   -1.36647209521320    2.57533084999555
C         1.94608095485286   -2.99954075983484    1.24770075737532
C         0.74160574672903   -2.65421942550131    1.96657185571091
C         2.59218940904577   -2.82384565623120   -1.16916783977459
C         1.81121260379309   -3.46062385593915   -0.12124884327575
C         2.28706254850795   -1.02583516061116   -2.77061331393516
C         1.83467617287910   -2.23324442585959   -2.25840900056883
C         1.91231761067810    1.22567335489714   -2.71878618819337
C         1.32969067036581   -0.00644170088336   -3.08817470710237
C         1.66065104292395    3.21121316824719   -1.36119812334158
C         1.13218632347418    2.32958966891548   -2.38405590308383
C         0.80763893328888    4.19910140508884   -0.84099627860514
C         1.30276608912014    3.43257384116561    1.39407819080905
C         0.70421359197322    4.37636148418322    0.56981111031608
C         0.41340613195640    1.47091651245406    2.58113988274994
C         0.29451356192821    2.81627618897118    2.23163003798943
C        -0.62219161531845   -0.74763320923855    2.75624045699124
C        -0.78662573474169    0.68474488777315    2.69748823264539
C        -1.75432548686129   -1.55390879296861    2.60958922071131
C        -0.44401047089528   -3.38548292484659    1.64314034847887
C        -1.68158127946382   -2.88011825615301    2.07744749868234
C         0.60924426939476   -3.99603843326664   -0.48965156806425
C        -0.45130983775013   -4.19603504349373    0.47040003253131
C         0.44163749683536   -2.54137418694375   -2.45410023538808
C        -0.00195935948739   -3.68184716517877   -1.76587869018900
C        -0.06578260180180   -0.21012420675643   -3.05924821093189
C        -0.53140325511029   -1.55232252842225   -2.85050375099996
C        -0.28376838424804    2.21839683904326   -2.63680574049970
C        -0.90482338666130    0.93608969589299   -2.87409083315977
C        -0.51681034431790    4.30199509635174   -1.35076599828526
C        -1.06917520703881    3.28420315906520   -2.13379339650489
C        -0.70574812734568    4.43693178008017    0.93487563044887
C        -0.96331413341822    3.40325149110764    1.90423489597413
C        -1.44063418894923    4.50890760157474   -0.22991329188636
C        -2.05485870357003    1.25495162116636    2.34597486574727
C        -2.11414276947385    2.60799087582713    1.82113624509016
C        -3.04182149198821   -1.00202381068100    2.31631507719901
C        -3.18782651121447    0.38446525744038    2.12025380644263
C        -2.90702451865580   -3.12631720334943    1.37632897257810
C        -3.75732912939031   -1.98422732764083    1.54810609685311
C        -1.63981532983509   -4.34591433271417   -0.25661119385254
C        -1.36642740686761   -3.92862588210698   -1.63146813707544
C        -2.86124858593591   -3.78126171320820    0.13858632410955
C        -1.93080484820447   -1.75977900924321   -2.59538382963874
C        -2.33471727075542   -3.00373417772834   -2.02879152513963
C        -3.38435314344329   -3.07496163365651   -1.02422470124263
C        -2.30043159264492    0.71480608455178   -2.55873417832492
C        -2.80562171943444   -0.62228128452701   -2.44083636610050
C        -2.39647194538248    3.00574469939816   -1.65015373331651
C        -2.56048743523750    3.66880563641586   -0.38817163534427
C        -3.01577187604918    2.89014953116775    0.71539070904888
C        -3.02314810519823    1.79382472179344   -1.92315329896544
C        -4.19638810552755    0.77510151091720    1.18797433804158
C        -3.93372191912202    1.91558540910654    0.34961120660085
C        -4.07232620305081    1.50456974223889   -1.01331223252141
C        -4.55304693319512   -1.55971661128240    0.48361502179496
C        -4.20490325215994   -2.00835269439943   -0.85859275440304
C        -4.02341008233915   -0.83034139333251   -1.69697379098366
C        -4.82668951002794   -0.18822566233464    0.38496000273414
C        -4.61904160549279    0.21889194200606   -1.00121938318815
