54
C54 Isomer 498 Symmetry C1
C         3.05438910530573   -1.64580832377109    1.42536776000224
C         3.45912552200341   -0.33972242365370    1.31119625812090
C         3.71750572626424   -0.02885980184818   -0.09022436337898
C         3.07078109095898   -2.19623411081168    0.05295655891363
C         3.25428594513862   -1.11987294577449   -0.87909006230950
C         1.97915292717351   -3.00616638254962   -0.06795251567465
C         1.79295984407234   -1.96630412647104    2.03235822004425
C         1.24877876027727   -2.98640958061181    1.21160155533407
C         0.92987084197960   -0.94276220402314    2.53526703931151
C         2.70966834120374    0.71995976457927    1.89965942538807
C         1.47969736085311    0.41082128544563    2.57301009625485
C         3.29479649226775    1.29658110484572   -0.29307904678838
C         2.80517439241677    1.82067242133115    0.97964647371013
C         2.59764083964701    1.58581385058530   -1.45840727550006
C         2.28150030527946   -0.89046033608496   -1.90536843142075
C         2.12272175269229    0.48208256368577   -2.27279827205118
C         1.02211193381459   -2.85114859535350   -1.11077517516345
C         1.10852270975209   -1.76312872987231   -2.02193639136929
C        -0.10356408796995   -3.07307620109629    0.94654395750778
C        -0.23639432750659   -3.18496484755189   -0.50661475472121
C        -0.51083528771500   -1.14484156441915    2.43571389322953
C        -1.02069565481021   -2.28195259556003    1.69907235120183
C        -1.40983514283779   -0.00321594788046    2.59938069081389
C         0.57248318522653    1.49061634255439    2.65297629611887
C        -0.85938937580746    1.28723407964148    2.66799126626373
C         1.81974085985440    2.79333046829635    0.97286853626318
C         0.83184185076282    2.69786086217500    1.97050104377909
C         1.57029756274034    2.62050458104407   -1.44714523786312
C         1.16623780232470    3.21660431485092   -0.25853657189748
C         0.91676312429939    0.91495914629591   -2.85641740678111
C         0.57081662766515    2.22773352323360   -2.36938964669700
C        -0.17048098529374   -1.23352987319202   -2.51438345769289
C        -0.24488675483054    0.13087994276790   -2.89908462469058
C        -1.41587558052712   -2.79632798072548   -1.09017263247267
C        -1.40552168245946   -1.77832575139601   -2.10403730901887
C        -2.33774291945588   -2.26381955549930    1.13998236299840
C        -2.53105982945729   -2.59682660645069   -0.24360931213809
C        -2.76414648656038   -0.06717358820625    2.09700292204376
C        -3.23214992688051   -1.22360573539658    1.43742232991244
C        -3.32773228339260    1.04243168246752    1.39150905047125
C        -1.45076524396403    2.39366007591499    1.94248920033507
C        -0.41293427078809    3.16620945519254    1.41073809476163
C        -0.24778669605580    3.37020120778220    0.01640807876477
C        -2.56545613334459    2.17325702641073    1.12045331458606
C        -0.80423117385180    2.24734547435514   -2.07894163167014
C        -1.34909441965155    0.97711713421443   -2.51089366803910
C        -1.25844458223639    2.86119167235216   -0.87622358178731
C        -2.44731028797699    2.33550474704870   -0.31758778930279
C        -2.60291334765855   -0.98047569332883   -1.89876173820688
C        -3.35778890436421   -1.59278541137890   -0.85913810078553
C        -3.90579183316863   -0.81901523469035    0.17922708213849
C        -3.86234505226504    0.56049388543163    0.11500743984103
C        -2.53055959549907    0.45290768021449   -1.95699325879486
C        -3.16013303764458    1.23483985488074   -0.92878904189457
