80
C80 Isomer 16144 Symmetry C1
C         5.42897481057513   -1.10617136721078   -0.53696907682815
C         4.87922763904053   -2.00201536198589    0.38443361852022
C         3.98023584529412   -2.85415741665512   -0.36622665374708
C         4.67908885899663   -1.23377579442238   -1.80579176016678
C         3.73979904959066   -2.26584507679149   -1.65276084602300
C         4.24164383143771    0.05211881827900   -2.19443731856415
C         5.46039317457650    0.23573430977165   -0.19623093718220
C         4.87868829032774    0.98722400548312   -1.32585332164664
C         4.85810022993440    0.71070660285250    0.99317122971789
C         4.17042652402164   -1.54055349930975    1.53839126830847
C         4.10062060280552   -0.16029830413253    1.85103138565235
C         2.88850140834592   -3.11919045499173    0.44265226902918
C         2.96322680252507   -2.32122464065784    1.64532259032215
C         1.64857501309757   -3.33308033558892   -0.15527292736884
C         2.39911846164133   -2.09034203766774   -2.11350698382092
C         1.39154905623347   -2.87968895360929   -1.47920115489479
C         2.88733124708065    0.28550978646974   -2.59081873768104
C         1.98304729183630   -0.83613862723943   -2.67399981768002
C         2.34786059624311    1.60244313738139   -2.35523581613963
C         4.19174854256708    2.07251190623916   -0.82430285871065
C         4.29071998964706    1.98719627687257    0.62750526488821
C         2.97459968374454    2.48998673824127   -1.41888126075506
C         3.29806679679911    2.51850563405931    1.37931160847544
C         2.86819086845014    0.33228853836790    2.46636909282220
C         2.63370711123946    1.72215206085630    2.38149271918261
C         1.77633653656731   -1.85200037138948    2.21642029191886
C         1.70410648669458   -0.49817674563298    2.68654842525587
C         0.57935648177500   -3.42271319408638    0.77279778537068
C         0.56678857224176   -2.57998808098915    1.92582627667274
C        -0.60743343165447   -3.85377143065218    0.19611498320515
C         0.02466850578330   -2.76197567189855   -1.89173823017562
C        -0.90927262510790   -3.50627395168058   -1.17218405839759
C         0.57324002680618   -0.60999277665892   -2.91300590861134
C        -0.40590681762951   -1.62641337366908   -2.66259231329431
C         0.98405456082230    1.83652355753106   -2.71757005067760
C         0.14178187481513    0.74078648722272   -3.12186075847189
C         0.36611117082362    3.00942112419838   -2.24737511279391
C         2.16474282276956    3.38220496692130   -0.63187601137888
C         2.33431573336183    3.39962261071894    0.78104649579906
C         0.88968909072046    3.68756465641585   -1.10914105301353
C         1.35812961400147    2.28095651637747    2.54120728041773
C         1.20016480125380    3.38515907359040    1.61111166885765
C         0.38931053390789    0.05959199143158    2.92417733261794
C         0.25272828257289    1.48981326873952    2.89939426116263
C        -0.69719972161017   -2.11080688614952    2.39594387411936
C        -0.81602331388683   -0.73525702769876    2.81789486886802
C        -1.77806743732777   -3.75514002869609    0.94025074369492
C        -1.86362713390311   -2.79865579553966    1.97145307765959
C        -2.32304393856105   -3.25594387020762   -1.24272586054210
C        -2.87501397819294   -3.54703456169804    0.02333323697918
C        -1.82599726146156   -1.35955349521258   -2.73380702173378
C        -2.80932032733465   -2.16824867301470   -2.01506904979624
C        -1.23888095127025    0.97307686700809   -3.22994598396487
C        -2.20250427816431   -0.05622777099623   -3.08091447010214
C        -1.05367022247718    3.14602900698396   -2.18989885871949
C        -1.84424507933595    2.18693217229609   -2.76020604159795
C        -0.20939356754940    4.01965132797129   -0.24873078347589
C        -0.07131087732183    3.75980290148911    1.13377030780567
C        -1.42908791036981    3.72730790145554   -0.92493541532281
C        -1.00839962840466    2.06909407812617    2.67960921309491
C        -1.18540800272933    3.20488919501318    1.78598384651693
C        -2.11752115407883   -0.11686259828376    2.72052339051855
C        -2.16730516633209    1.29119094888448    2.64946206041258
C        -3.15012046974499   -2.15102292447603    1.83144156511005
C        -3.78336312922711   -2.67347110609004    0.63602161082995
C        -3.28634921145473   -0.80849689346878    2.18734366177811
C        -4.01943705592265   -1.58957061778315   -1.56650965412393
C        -4.49283446763782   -1.82974771234201   -0.21888872705986
C        -3.42522249449219    0.54620768801887   -2.59461280564133
C        -3.14383331167681    1.89781986779777   -2.22489593923237
C        -4.32228999827882   -0.20757712704564   -1.86236042118508
C        -2.58260561590810    3.27232601511331   -0.25721952166064
C        -2.43116779638422    3.07592559206903    1.14787745533563
C        -3.11392863011323    1.99073345452010    1.80474972183984
C        -3.52963364158318    2.42733111307240   -0.96773627168953
C        -4.30228169105225   -0.07238728216898    1.47797975548173
C        -4.90618095585644   -0.60413604576176    0.33148212891633
C        -4.89420292846725    0.40605172656436   -0.72114432785674
C        -4.13198625915659    1.33515635066137    1.19759946308456
C        -4.41589633930849    1.61137960848729   -0.20761170851455
