62
C62 Isomer 1259 Symmetry C1
C         4.25372460792157   -0.81522201271274    0.61754491119139
C         3.94537585340218    0.50909933397444    1.06895796705621
C         2.86560296237888    0.43363814624592    1.98453232239355
C         3.39033291170666   -1.72447188152897    1.28305456290341
C         2.50903198282334   -0.97095634264558    2.11766520573868
C         2.75600550134805   -2.54764185623016    0.30267186244569
C         3.87572896625732   -0.84750125882550   -0.75766349677642
C         2.96394021693682   -1.92009194491502   -0.97729668645301
C         3.76670482081578    1.34002485452470   -0.08163300620306
C         3.52365039683622    0.45483606245297   -1.21200814794590
C         2.97515035538517    2.45295137635091    0.08784091408603
C         1.86223071480906    1.43831525797154    2.02663712718481
C         2.07730066232601    2.57184227434141    1.21348731423036
C         0.50219882679203    1.06675840797765    2.39442414987231
C         1.17154119761631   -1.35890065621001    2.28927991972994
C         0.17957670577878   -0.32852712886267    2.54458874936830
C         1.54146170442794   -3.15721692546496    0.61716657387309
C         0.77601380657388   -2.64759378942857    1.73430762277922
C         0.83763832377309   -3.59019406927694   -0.54306212727224
C         1.85318485386815   -1.75636714489049   -1.84210021085546
C         0.88622963483913   -2.75911585594073   -1.70132500303619
C         2.36546162485544    0.64605722331877   -2.02642447607217
C         1.45819438219648   -0.43861975786276   -2.32090788548816
C         2.25158320009214    2.89568736318934   -1.04918702766140
C         1.82415523845206    1.96186289596757   -2.01843147990382
C         0.95195257566859    3.36044705091398    0.77313001526370
C         1.11398356813652    3.64046807813220   -0.60544058424840
C        -0.55194500740095    2.04088982150571    2.19825735166134
C        -0.33626283861523    3.17630419616396    1.31159847743046
C        -1.89210036860540    1.61898539236997    2.38005630060152
C        -1.20858138671186   -0.73364987529652    2.52645540135499
C        -2.21460544338160    0.24050571662778    2.44843803202260
C        -0.58692986142647   -2.99472302132851    1.76725260292538
C        -1.56949999275055   -2.04268232253589    2.12781723984480
C        -0.49065673750017   -4.05390226154819   -0.42763012000629
C        -1.16832657281427   -3.83613399435246    0.75263232412705
C        -0.46461132326472   -2.58682269475229   -2.18478162302487
C        -1.29690133143729   -3.49510708931495   -1.51753395976051
C         0.06023142927177   -0.18540875804305   -2.58184943146098
C        -0.89846491352490   -1.26750629242504   -2.52825141343762
C         0.43777257258063    2.21591783377210   -2.29785903321194
C         0.04777399281993    3.36563617637901   -1.49301484195459
C        -0.46815022282911    1.17734965717354   -2.52595382491026
C        -1.39935523083458    3.59469758904573    0.44776713282364
C        -1.21380889960810    3.47006191418697   -0.98201853619207
C        -2.98141280736887    2.26216052718186    1.69721494983365
C        -2.71305680377155    3.15570457397214    0.68083485284748
C        -3.43150010865325    0.01040243303782    1.67198491322098
C        -3.87013378112995    1.23539093428276    1.18171094614932
C        -2.75585543943505   -2.26731682535085    1.30461869817334
C        -2.49938115134889   -3.32474589133362    0.43496069583133
C        -2.54017570196558   -3.07794525690473   -0.97542612945449
C        -3.54986965262581   -1.16447942499844    0.87901096244717
C        -2.26237853433928   -0.99980377063769   -2.25451390260522
C        -3.04783082503983   -1.85529000623336   -1.42141249375374
C        -3.76838717008314   -1.00562945639585   -0.51015220903170
C        -1.87906985962205    1.43920450859685   -2.23128450550606
C        -2.25770720667713    2.62332992801075   -1.51340086545533
C        -3.28760439623338    2.60761425978518   -0.56347181814923
C        -3.98659026387890    1.42256282517780   -0.24326312757642
C        -2.74292715047336    0.34778666326063   -2.06572881086752
C        -3.77565260733872    0.31907429035460   -1.07187332113673
