80
C80 Isomer 4787 Symmetry C1
C         5.54173648628279   -0.01083605584864   -0.58667465802946
C         5.28470520748851    0.86837250389547    0.54270973239130
C         4.84742964842832    2.07156779001769    0.01219498020719
C         4.92162382395511    0.58182921639826   -1.77617553243707
C         4.57182553788966    1.87793974847104   -1.43820186587484
C         3.87976998269162   -0.28677811612600   -2.25189087541619
C         4.87470118290587   -1.19816574357983   -0.34223737655383
C         3.98646478501139   -1.47527045321891   -1.45420807920805
C         4.42086682365559    0.17422683610625    1.49379806961932
C         4.27130640228111   -1.14970800240689    0.98417721827232
C         3.28781206332357    0.78430064761777    2.07395222844853
C         3.73881015787080    2.71723293495383    0.57514597650215
C         3.08587255653122    2.17038643874516    1.72760876176376
C         3.27032238639787    2.36168690663938   -1.68551870426166
C         2.88794582625456    3.10460410513527   -0.51591189149899
C         2.56235328286710    0.17726203436951   -2.53301240684318
C         2.25852210452006    1.56213346163965   -2.28922721387110
C         1.46740426913403   -0.77051169007544   -2.49514031835096
C         2.90135829480943   -2.27275623592737   -1.22416445718785
C         1.69076424885774   -2.07450031303926   -1.97750278417449
C         3.12737799750034   -1.87854727373439    1.21538097616603
C         2.72673082158187   -2.74334682755454    0.13139154985508
C         2.09987290576621   -0.01301012725043    2.41485020376416
C         2.06911792658765   -1.38479728203728    2.06672736999799
C         0.81567917991385    0.58864549147408    2.71759834056319
C         1.83269682506558    2.70429673601613    1.98049625714000
C         0.77356110465027    1.98918940318244    2.64590843383269
C         1.57169083228226    3.47062338966098   -0.30687369006789
C         1.19847104062036    3.56823815533972    1.05130578924458
C         0.88885029630375    1.96308825789013   -2.11546515397689
C         0.57610182297773    3.06577818942442   -1.26240422730702
C         0.10006578811080   -0.32615305341353   -2.62211960469444
C        -0.18237314021727    1.07729123664188   -2.47970840519091
C        -0.97258888311025   -1.27643516347522   -2.55696913841555
C         0.63191436657549   -3.00261820465071   -1.77165102833720
C        -0.69964671930690   -2.66019971904781   -2.19413279511158
C         1.67053685338316   -3.54742733954919    0.35916344672808
C         0.81204295642983   -3.95530348627069   -0.72519256905891
C         0.85372629735915   -2.13995445779928    2.18225780497395
C         0.86143341230024   -3.41032000318060    1.55171646980809
C        -0.46080478196564   -0.12349247005718    2.65848527234554
C        -0.42972862198228   -1.53708741554958    2.44457091421175
C        -1.72265961753292    0.57753160394267    2.54388293052734
C        -0.44188151580544    2.65816605661010    2.39481977667224
C        -0.16957020511420    3.61822319003203    1.36537704640070
C        -1.68959258032923    2.01541599332005    2.44935303505190
C        -0.77068554810251    3.39590193043327   -0.98329182353597
C        -1.10139996607851    3.82666259423484    0.35557234916640
C        -1.53488461322585    1.55670114110829   -2.41655357335086
C        -1.80107635166957    2.82400147712821   -1.78094682650912
C        -2.32358917143604   -0.78032340769379   -2.54820264787186
C        -2.61007168822356    0.62406971831578   -2.61695133660614
C        -3.33439560428684   -1.63029943996132   -1.96954298915373
C        -1.74798030649933   -3.46811122209674   -1.68665077367346
C        -2.99115552958855   -2.83871407700001   -1.40664987500029
C        -0.28287304648526   -4.56308495579577   -0.09476228065520
C        -0.30723526795560   -4.12030912821783    1.32182504016680
C        -1.53941256913903   -4.38570361886317   -0.61290631314476
C        -1.65651127551626   -2.22683373346705    2.10992203318582
C        -3.32286378173320   -3.08566974628564   -0.00882758766290
C        -1.57237822402542   -3.56516712933217    1.59249541871736
C        -2.40653932007756   -3.96884272524281    0.49414225201666
C        -2.92912251953577   -0.07166789581585    2.09598588849399
C        -2.84649285555122   -1.47219987415024    1.81343505027382
C        -3.73673030872019   -1.99056507346156    0.79957340272585
C        -4.08243186097029    0.70818333655925    1.60123827024835
C        -2.73733959250900    2.72935169449383    1.85230904708225
C        -2.42397170183677    3.68058511623819    0.81218487873163
C        -3.98880902800330    2.12760036038945    1.52797757592917
C        -3.14340660334812    3.18451554209249   -1.44582820475305
C        -3.44293608343744    3.65597012162149   -0.12472324971384
C        -4.52968598417818    2.86368592036843    0.42168052873318
C        -3.95759727884617    1.07147064092030   -2.35744031007138
C        -4.20440884981421    2.35125531573834   -1.82944871799800
C        -5.11640264849084    2.20857482888285   -0.65539978398034
C        -4.47093549557485   -1.05579401290148   -1.33020808073188
C        -4.58514260682440   -1.14683050543998    0.11511116144562
C        -4.94480891742759    0.13360881620427    0.62075190994590
C        -4.88753109106738    0.19530278867793   -1.70166346052334
C        -5.41581374302198    0.87086430858701   -0.51269678054651
