62
C62 Isomer 1879 Symmetry C1
C         4.11251744269725   -1.42924494361611   -0.57409856239084
C         3.42263869051762   -2.45547705668978    0.05089524170133
C         2.44548147178862   -2.96172414416089   -0.89982404533978
C         3.41004823815376   -1.12190839123926   -1.84409217643005
C         2.33774175744541   -2.01665519730558   -1.98134675900604
C         3.18816197882270    0.27437251049146   -1.88186750585412
C         4.30048616451323   -0.23739177945972    0.11788077212308
C         3.87384717200896    0.83363576081583   -0.75837473897347
C         3.68450449248446   -0.00570066397437    1.38689172862667
C         2.73586260499826   -2.22608210681945    1.29107848041265
C         2.78281020772747   -0.96287898664962    1.94723016247845
C         1.30589307284272   -3.30544584926885   -0.19551016196720
C         1.48308202563417   -2.89409835776896    1.18504243787736
C         0.03839731183305   -3.21186580327727   -0.82826120835491
C         1.05131863105830   -1.54467863980719   -2.38350869959589
C        -0.09179662247860   -2.33383133408376   -1.97374847906905
C         1.92760040485078    0.80012319052373   -2.26194333435657
C         0.88527261167608   -0.13852009724353   -2.64576153418950
C         1.56930987712220    2.09553489139888   -1.71508851561278
C         3.30769382552372    1.86310397489401    0.01051284883495
C         3.30209912107624    1.38392678236821    1.37706422580013
C         2.23280016748275    2.61141172209346   -0.52243166954277
C         2.30474561279078    1.81990202670101    2.21882643764308
C         1.54892408270385   -0.49555160574823    2.60118016250845
C         1.39963915463598    0.87720903523546    2.83520022420981
C         0.34914254000265   -2.53293080119322    1.92371169834722
C         0.32655869328876   -1.27869723321065    2.61780919104117
C        -1.03784558158653   -3.41021385374561    0.03094618483239
C        -0.86273849160168   -3.11533234246541    1.44440389707222
C        -2.37869172201516   -3.04096020584821   -0.32972987828616
C        -1.37948413913779   -1.83767278009858   -2.22173585937965
C        -2.54368364000651   -2.22099964651689   -1.44087008540354
C        -0.45155003300049    0.35870937586047   -2.83306426212738
C        -1.56047306062881   -0.51194739475452   -2.69462689437204
C         0.27829628717932    2.56564529181591   -1.98020579771508
C        -0.69432568335828    1.74423784199095   -2.63099143373603
C        -0.44174224816478    3.42317953288961   -1.04818547015176
C         1.45467521716183    3.30958756123752    0.44522037418062
C         1.54512688412653    2.93385304493968    1.79319989299221
C         0.06902291576802    3.64274361519734    0.20629993143106
C         0.09648234510102    1.50698340702737    2.87322325094059
C         0.19491467668586    2.78875273638843    2.30698395579995
C        -0.72587267522098    3.25621559171555    1.36083517689639
C        -0.96916887346917   -0.65042235492578    2.82843636616636
C        -1.10314290080263    0.78386172097515    2.74213536720125
C        -2.07709270426077   -2.67231270375960    1.94418177508762
C        -3.07049899136015   -2.71355267034257    0.87774531555467
C        -2.14707757454676   -1.40141746528403    2.58945694307706
C        -3.83378345947547   -1.56497565287036    0.96415165815441
C        -3.30095093708792   -0.75406483607742    2.06475226079368
C        -3.42588087783026   -1.08380635351473   -1.37910564060861
C        -2.84783632113483   -0.05960873938511   -2.20469795546547
C        -4.02873775793449   -0.72031375795144   -0.16192038911557
C        -1.98340957875094    2.17480707988446   -2.21566405802973
C        -1.82293773609859    3.11861651250995   -1.14935910487181
C        -3.01937641542355    1.27738065132177   -1.87898033430242
C        -1.97672498256112    2.59821583038152    1.23435510301430
C        -2.20363067398448    1.41884760631925    2.03863521825234
C        -3.28184393888464    0.57763471023696    1.65559314798173
C        -3.85966966720341    0.63924193490733    0.31747099308190
C        -2.59645326882389    2.68769330238862   -0.04904886214943
C        -3.45467512286969    1.63085650654683   -0.53630700771745
