76
C76 Isomer 5793 Symmetry C1
C         5.06827584969485   -0.52159278731603    1.49719987922946
C         4.84552608070895    0.88180873078981    1.38633481130378
C         3.72635142599364    1.21719575646707    2.20916072460120
C         4.03955161619985   -1.07418049197597    2.30673538108406
C         3.21855399152151   -0.00933034583696    2.79128375456909
C         3.40270505131047   -2.08449721999110    1.54708850982069
C         4.97944950962450   -1.09752745228947    0.18154807686639
C         3.95930322751784   -2.08004113594607    0.19070681208856
C         4.85004492997033    1.23139740926428    0.00214711807112
C         4.94048029669214   -0.02013713636697   -0.75855423280127
C         3.95778306077326    2.21206801188302   -0.41426400716550
C         2.79519366252087    2.17399208923857    1.77381725077752
C         3.00968579980279    2.76810191628899    0.50495674194364
C         1.43995990130168    2.10034348991419    2.26157170781930
C         1.84287561492098   -0.20823196964385    2.95258959719664
C         0.95423139368760    0.92239608219140    2.89507503418131
C         2.05150601463204   -2.32357424550050    1.73784654767339
C         1.28151189005180   -1.48578101488190    2.61988082506348
C         1.36289057565985   -2.98354730505019    0.65194048338608
C         3.08006876622918   -2.22004475781013   -0.91694394470052
C         1.75908595151462   -2.76720908518714   -0.70947124427272
C         4.13401109986854   -0.17896301105778   -1.87154871976455
C         3.28599994406346   -1.33029685695479   -1.99898867377621
C         3.28782562984919    2.11537416976366   -1.69369196373464
C         3.39096247311950    0.94020227460980   -2.41193552314977
C         1.87866889329311    3.20631858105907   -0.25769934759682
C         2.01153073134434    2.77811734949057   -1.59916899315811
C         0.48073919488855    2.99292647933117    1.68226545825968
C         0.62474817603600    3.40961559497076    0.31347128584536
C        -0.80719420801171    2.94931517208638    2.20103316375014
C        -0.46555613293154    0.69659944051361    3.05418819734885
C        -1.30204519754484    1.79908613011750    2.88987688764120
C        -0.12836415960289   -1.69290490345378    2.71410049858715
C        -1.04990766363388   -0.62481593399188    2.98433906348687
C         0.07627853626336   -3.37146203521422    0.92209903771089
C        -0.60858372752376   -2.86757730371318    2.09434596031212
C        -0.89385383179659   -3.56376575030947   -0.11050120439987
C         0.70539807598496   -2.61815555804722   -1.67542947736794
C        -0.66073317874548   -2.99056124016518   -1.37865189940797
C         2.15977660646408   -0.96207657336018   -2.79098388164557
C         2.21411027217456    0.44028835598399   -3.04503000764246
C         0.93519296202116   -1.65054674902547   -2.71074856495041
C         0.86477585720944    2.38375491517646   -2.32384382436052
C         1.02171274836600    1.19405240343299   -3.11508135960571
C        -0.51745597274667    3.42158419672834   -0.56638343392752
C        -0.43326144054500    2.77452930183841   -1.84204979613693
C        -1.87438412355302    3.47965070380670    1.44207300337046
C        -1.78428056031383    3.55489347036846    0.04666697961778
C        -2.71211429540300    1.66970255968255    2.58517626529394
C        -3.07666150219286    2.75814984633654    1.77761287737226
C        -2.46052263063169   -0.77222093357676    2.67788478748376
C        -3.29348359455272    0.38933510362588    2.39624383202528
C        -1.97122000359595   -3.02130515153550    1.86388659360694
C        -2.15956176050824   -3.48628242446278    0.50345775911143
C        -2.89683154354343   -1.99942894591925    2.12126178753225
C        -3.24897604688472   -2.80827476073440   -0.05650888045614
C        -3.83965583430423   -2.03021239245356    1.01690618052453
C        -1.80937095158127   -2.36256032732741   -2.01707859281442
C        -3.11308722561958   -2.28079621391516   -1.37072470926979
C        -0.17447141765220   -0.96628665340958   -3.23057686309337
C        -0.13214764384539    0.45759469274763   -3.39289765792408
C        -1.50849239142128   -1.34708625790956   -2.94397844011337
C        -1.62714640850470    2.12413488563712   -2.35463661693531
C        -1.42466286276475    0.98074011808142   -3.14021340095013
C        -2.30942581135173   -0.15871721747827   -3.06160203416299
C        -2.99862230054024    2.99530361585088   -0.51084711179276
C        -3.82660247856284    2.57063952927528    0.59502864182580
C        -2.92173052886537    2.24232684971136   -1.69221599446782
C        -4.34950603367521    0.31786794215091    1.45474868307344
C        -4.57473186679909   -0.91046955401935    0.71999535022031
C        -4.57314092835893    1.39750800670160    0.51692803994128
C        -3.97424180898541   -1.18042060710734   -1.65436546893025
C        -3.51899159863564   -0.06284619645711   -2.45387662439160
C        -3.88780260562148    1.19312804193800   -1.83551823895805
C        -4.77520260293980   -0.60722832564538   -0.65084752534566
C        -4.73174093698394    0.83791360798649   -0.77161533044672
