66
C66 Isomer 2004 Symmetry C1
C         4.39785710483896   -1.40389290296365    0.41254540682450
C         4.28872019432569   -0.14569194851687    1.06317636362629
C         3.26408331975372   -0.22935798649464    2.06734326832176
C         3.44993812813360   -2.27757795434241    0.98268449502114
C         2.72456872433058   -1.55540464034846    2.00320374493348
C         2.68625958960875   -2.86355028792629   -0.07516855825118
C         4.00712050110630   -1.20920760116323   -0.96744399109713
C         3.00173062156302   -2.16462955314338   -1.29485004658731
C         4.13141757560116    0.83965868707866    0.03210085316929
C         3.78602479508698    0.16427241941508   -1.21623266830031
C         3.47471165766227    1.97686801621541    0.36980478701381
C         2.41906095735553    0.86925466649632    2.33073943899270
C         2.80482442513902    2.06887862910856    1.65761790280987
C         1.01644503088875    0.65935840072438    2.65017591110726
C         1.35672328856254   -1.77389453827478    2.20112808699157
C         0.49975060465194   -0.69039556624308    2.64463822482160
C         1.38653223226138   -3.28243341208563    0.20047740384640
C         0.77982361008102   -2.88320085522450    1.45932260703517
C         0.54376064619307   -3.40338266147105   -0.92938138883330
C         1.96500385811794   -1.80280459057295   -2.17414244259845
C         0.80702351655581   -2.61480123628172   -2.08409128177276
C         2.66198735977378    0.60960770036250   -1.97772331862757
C         1.82147634859222   -0.41075686812622   -2.56332311560824
C         2.64783497595325    2.65259526819912   -0.61247704887497
C         2.11363931340163    1.92960994739640   -1.71996119800942
C         1.86983231643501    3.08202958590668    1.51285513068018
C         1.82992790248060    3.51718998362248    0.11689430000858
C         0.07686656468600    1.75446779753334    2.52093762566655
C         0.55143414523409    2.97836987960002    1.97047754238850
C        -1.35112396814841    1.51644059106773    2.44751735890556
C        -0.92223518790943   -0.92254759722197    2.72716649728126
C        -1.86292980229236    0.17812818971614    2.64460507689010
C        -0.56930664670771   -3.10830080475385    1.60692771727939
C        -1.38757136513969   -2.23192847844591    2.40273330858400
C        -0.86873119823301   -3.54355851035609   -0.78052141840459
C        -1.38583093290718   -3.61200489687732    0.50941984676862
C        -0.47188499695256   -2.18775513204442   -2.56282698279586
C        -1.53311567717668   -2.75006922034536   -1.77402622786882
C         0.55152828608861   -0.01215275441412   -3.01357757044655
C        -0.58992274259335   -0.90519536237609   -3.03614739531309
C         0.77172285921605    2.28759921998110   -2.13152870522350
C         0.05244348581648    1.30160949489674   -2.84101668250643
C         0.50647578209985    3.81573703991075   -0.22054512053807
C        -0.24703398407438    3.71636403735119    1.01210367248796
C        -0.02451218773982    3.28479228466359   -1.42800787032003
C        -2.17161125778437    2.46219660040487    1.78311950582144
C        -1.59050017354169    3.49869874537575    0.96648270977791
C        -3.34148535900093    2.03550709094820    1.05803332521505
C        -3.18824891542366   -0.08893669072630    2.20005701852224
C        -3.79807292260197    0.75599406426889    1.20822768960205
C        -2.72100198417732   -2.45301567855631    1.97778403833104
C        -2.69865623824223   -3.17622480136056    0.70543112629926
C        -3.59112472889296   -1.39579836867859    1.84373872895765
C        -2.71971154919355   -2.03082559642435   -1.49097102325190
C        -4.11595733490574   -0.05150671496612    0.03942411375939
C        -3.37730178086113   -2.38778498064910   -0.26597742035807
C        -4.07256819522371   -1.37833553367450    0.45973878380131
C        -1.78884863375922   -0.16933655195913   -2.79726834086279
C        -1.39224724250481    1.21065743976961   -2.80621795341345
C        -2.83868343445707   -0.66199084527489   -1.98536471562157
C        -3.59597437345892    0.33110326887363   -1.24014333697897
C        -1.44440493532571    3.21935305748977   -1.47214692496929
C        -2.21255208692307    3.48767683911089   -0.31950227792656
C        -3.31533868345837    2.57720515461630   -0.25707414226336
C        -2.13941148359794    2.14948240970230   -2.15349398695689
C        -3.27164971838670    1.70354461247745   -1.37548045696247
