76
C76 Isomer 11129 Symmetry C1
C         5.06829708489659   -0.88580234901533   -0.59126044173087
C         4.65380575540026   -0.13192891303841   -1.68815337024617
C         4.40677698229277    1.23025289302994   -1.20777405267678
C         4.90281105400085   -0.04513057024894    0.61852238628528
C         4.44646398313917    1.22734137915187    0.21362222845559
C         4.16032218452299   -0.77392818055007    1.56080881842162
C         4.45556819354690   -2.11153191165328   -0.34703304968114
C         4.00593245266688   -2.10145064291413    1.04472855735989
C         3.36628645735185   -2.54856430066831   -1.14422780928387
C         3.53624454947021   -0.52061187640116   -2.46994475514473
C         2.85332794205855   -1.74196347733484   -2.19986892896424
C         3.28699228753285    1.73088805088919   -1.86756110086070
C         2.74943201637610    0.67876988398193   -2.68226835295342
C         2.42958756180289    2.64795929334282   -1.22958953933952
C         3.41575052433248    1.89258049661589    0.93121091026824
C         2.62772593051753    2.83916038826338    0.18315714518122
C         3.07347371019835   -0.16911749477775    2.26924475600103
C         2.80605835811776    1.23164169067597    2.05843122372377
C         1.99336599805208   -1.03670004848886    2.67007169054775
C         2.77378395832041   -2.73783033879073    1.10878965036687
C         2.40438758570547   -3.11135010146978   -0.23475598828723
C         1.77692192873208   -2.30676565653289    2.02119117944749
C         1.07315121754048   -3.26046128717656   -0.55658530756157
C         1.44081061780094   -1.80820100389713   -2.48717392949239
C         0.59323437509590   -2.74181329182204   -1.81195973133804
C         1.39245342615878    0.64308334850747   -2.96616851310780
C         0.79418880100422   -0.66351992243895   -3.07656888827147
C         1.13297891551574    2.82587042701547   -1.82739832482187
C         0.58388556100617    1.81155483869402   -2.68021558465310
C         0.23833889057150    3.68509992791154   -1.14388752639075
C         1.59818303487274    3.50523063804127    0.87342457046273
C         0.55407590131630    4.11729236948767    0.15336589061373
C         1.58096957668887    1.79013104768576    2.58972960375556
C         1.05163171881881    2.98069626763477    2.07633208506122
C         0.84919328875203   -0.43948902689052    3.22654198220494
C         0.64836878837303    0.95036717992424    3.22167776541962
C        -0.42777648970583   -1.08127334893578    3.23382665697240
C         0.47243946267571   -2.84172262421638    1.82613827968751
C         0.16265536927301   -3.43972951626418    0.55082392289959
C        -0.62601377934046   -2.30835590375553    2.59711936107564
C        -1.16914813717875   -3.68126115845342    0.21224023267247
C        -0.82523663256234   -2.76107492535923   -2.04041069017595
C        -1.68377000336516   -3.35651298206866   -1.09251495829778
C        -0.57933892077505   -0.69119496386506   -3.27831142886162
C        -1.39730775425078   -1.77772836481602   -2.87064496700818
C        -0.84040838776370    1.72803893136229   -2.86275842652612
C        -1.37419312074939    0.49950713445942   -3.28505806686024
C        -1.18738580551219    3.51775857352817   -1.22394511180699
C        -1.73940149425859    2.60168396300410   -2.12926771782301
C        -0.65195477388533    4.02542388351011    0.94110260706893
C        -0.38565878719481    3.24320882145876    2.06633020370707
C        -1.72912073129567    3.68867045280816    0.09424038743743
C        -0.78293847432489    1.18461779943027    3.17290356688018
C        -1.43631787523742   -0.07177739644962    3.21870819005929
C        -1.33988572183313    2.26973023517452    2.48617827341814
C        -2.70327068688638   -0.26679609413842    2.62474690272716
C        -1.96619126248930   -2.59395853387397    2.25291965420915
C        -2.20650254957376   -3.44687742090925    1.14313688060849
C        -2.99826283175652   -1.60666398616265    2.27795690305655
C        -3.04328821663696   -2.91286356205907   -0.93291390251090
C        -3.36956791637527   -3.02239304120303    0.45009396721154
C        -3.89245900223955   -1.91044020295217    1.16950720895603
C        -2.73889899017736   -1.30040899714061   -2.70184530603151
C        -2.72509251106927    0.09772737868154   -3.01951606822080
C        -3.57331135566219   -1.83336030326867   -1.68632793508342
C        -3.05557281994653    2.19344864156400   -1.83602955138658
C        -3.59059898920925    0.96638725178294   -2.35967858054070
C        -2.76885160467977    2.85594918768047    0.55714002611564
C        -2.59338108701977    2.08501763150335    1.76852904657375
C        -3.30372412178654    0.83892394972443    1.90741874869874
C        -3.56756605641412    2.35021549653335   -0.49472690582397
C        -4.45842213509391   -0.87848597378846    0.47054262019242
C        -4.42929072507937   -0.90792473255709   -0.99557404530362
C        -4.49111740401044    0.42130754760729   -1.41121894000141
C        -4.26508760256646    0.48647122654074    0.91078945077782
C        -4.42256068659307    1.27595619913987   -0.23510573751403
