68
C68 Isomer 1348 Symmetry C1
C         5.32402663881387    1.05991443234189    0.19641496372005
C         4.66297954855441    1.76388214085801   -0.84831011394198
C         3.84516485955716    2.74755046252555   -0.25233725873009
C         4.60836824746104    1.36398768408751    1.43030865725874
C         3.81652745455919    2.48309978667405    1.21131976022360
C         3.98393920616026    0.16038279807108    1.92063507340216
C         5.16049629908044   -0.32181794597503   -0.05225424021058
C         4.48645357836579   -0.89933826034781    1.07219278982838
C         4.06145337777521    0.80679602908761   -1.76764886021856
C         4.54152830368927   -0.48734351777504   -1.34543667767954
C         2.71870846677418    0.94682884720220   -2.18877373898156
C         2.53623318905331    2.89732777028966   -0.67375333714435
C         1.96215656976929    2.09655891181749   -1.73322350576475
C         2.47207471683324    2.47810421253437    1.62207202989541
C         1.72966975790042    3.01968362956779    0.52697065824198
C         2.62218775079776    0.14558322152825    2.33156568033498
C         1.84790944541272    1.36575386216535    2.26800011259589
C         1.86009814379135   -1.08621871130997    2.19719447223793
C         3.70924623277916   -2.03516142551972    0.85470471056363
C         2.44152300303517   -2.17572645773727    1.51926335846099
C         3.74953563936887   -1.60989331192730   -1.54791547789806
C         3.58697785723523   -2.53480965979596   -0.46854545731785
C         1.91863733839398   -0.23689377583915   -2.48687958765701
C         2.48051487312664   -1.49648858652510   -2.20951785433368
C         0.47969386669231   -0.16130628820179   -2.62601229111249
C         0.56452558186236    2.12429252308712   -1.84531494819564
C        -0.19442602876283    1.08517723717164   -2.50522958086415
C         0.37708141203417    2.93370808183446    0.47030045713897
C        -0.18521376797498    2.86393977466430   -0.85106285609433
C         0.41286983901056    1.33899479096952    2.27028358880547
C        -0.33963463050473    2.31362295487458    1.54747521743069
C         0.42457278845445   -1.07684475398696    2.34049747273016
C        -0.31006880589147    0.12780406872452    2.55295428337889
C        -0.32461277571747   -2.17594509793623    1.78346866284553
C         1.61871564204100   -2.99791996662748    0.65786210794516
C         2.28495461894276   -3.11370613543825   -0.58406996475281
C         1.62063921969486   -2.54977517091231   -1.69384666213540
C         0.24066251215842   -2.91994634518192    0.68522663036035
C        -0.33678969848942   -1.33836566753411   -2.41408275309621
C         0.23815587341082   -2.43761013040766   -1.68671725040267
C        -0.49523338173760   -2.91266759413371   -0.54456541377518
C        -1.72290498059367   -1.24140203640153   -2.38971452104907
C        -1.63426612799701    1.16605917719856   -2.54761700542245
C        -2.40937262426386   -0.01474720134271   -2.60956568494897
C        -1.53947241920433    2.94379558271069   -0.89544712826289
C        -2.29918810124468    2.26852204644487   -1.92348952538064
C        -1.75887189244799    2.31711321846181    1.46963987580956
C        -2.31474724767597    2.94950160197548    0.32608381863463
C        -1.75666849427145    0.14518067574916    2.58533209621192
C        -2.52864518885223    1.31049548775498    2.17163301922450
C        -1.69291258582984   -2.17561556270809    1.87407270534202
C        -2.40303104498583   -1.11189456282587    2.50412783555148
C        -1.90335282592428   -2.75759345687904   -0.49637690953616
C        -2.55440413096719   -2.07385552175204   -1.54411111917785
C        -2.51989795224784   -2.69858643014740    0.78904171515602
C        -3.73661942014170   -0.13870924705445   -2.05572628537483
C        -3.81234078463491   -1.42625065873852   -1.36927373288685
C        -3.61089030822629    2.18365816642812   -1.46989922783038
C        -3.63500351112909    2.66927313959534   -0.07651602152380
C        -4.37627058706096    0.98092334109070   -1.51927757365522
C        -3.90582934132511    1.17039592811309    1.83049348444357
C        -4.43482426062437    1.84562080847642    0.67840317006097
C        -5.03239446620374    0.85232748481289   -0.23679951352024
C        -3.75199732752739   -1.23574717694388    2.07281086905644
C        -3.79373339538801   -2.17349321939309    0.93363575626232
C        -4.48994487312777   -1.53671681504640   -0.13710990375510
C        -4.50122875976169   -0.13350381275931    1.76971230728694
C        -5.08249011185393   -0.34896537378397    0.42272464219202
