80
C80 Isomer 14310 Symmetry C1
C         5.14506823348786   -1.30880615692110    0.86084315545035
C         4.28796622316057   -2.35421704724586    1.04807144360276
C         3.76520969834792   -2.77577140526237   -0.26712907730086
C         5.21186305797045   -1.07399878505604   -0.60752400412302
C         4.19634593863895   -1.85976624377788   -1.25410574969106
C         5.25045652267845    0.28112317380391   -0.77615558237205
C         4.89434431974637   -0.06342928646475    1.52361667479964
C         5.15366200499443    0.93298295002850    0.53721571357837
C         3.76733626035251    0.09272969812874    2.38496691056624
C         3.19355484748599   -2.25849465802540    1.94980598232941
C         2.92008633041897   -1.05834922739565    2.64920129062860
C         2.43020521389847   -3.08975956255987   -0.09943304726496
C         2.10663336943864   -2.91200679977002    1.30080202740020
C         1.47401593637440   -2.71039481491646   -1.08254651517548
C         3.21979757386385   -1.23993230045532   -2.09892809717208
C         1.86777491425262   -1.76507825605915   -2.08386466543460
C         4.36893841037969    0.93995209733692   -1.67791906264026
C         3.40878960292430    0.17140637956800   -2.39418794220403
C         4.35199374388852    2.04809550641896    0.37711413311168
C         3.96096956912921    2.14283474936379   -1.01858023676508
C         3.15761064264200    1.40862331953211    2.43516730118623
C         3.42983506323682    2.40106746014609    1.40475584753747
C         1.93182784522417    1.52787341589182    3.10683120280114
C         1.54918034604339   -0.89174700264143    3.08671023034276
C         1.14051233196111    0.38809190933894    3.47177034611314
C         0.79083869074250   -2.72200595719342    1.67021206213515
C         0.48844950023851   -1.79008984440105    2.70846621505135
C         0.11700535764510   -2.88854436958251   -0.71418723874165
C        -0.18584152873765   -3.06503947155387    0.67726231818021
C        -0.93933538643568   -2.41415302851741   -1.55278445966903
C         0.77426262656946   -1.02946566535002   -2.67316561914743
C        -0.59781615691709   -1.37878775259642   -2.47044078775100
C         2.28448169748552    0.90038290944870   -2.83202458481003
C         1.04264739561251    0.28623361859433   -3.09383214325993
C         2.78623203922952    2.81936815344430   -1.37597092233135
C         2.02274801158989    2.25454277978699   -2.41658056259822
C         2.43305077062612    3.31038909326747    1.02711736506203
C         2.08705038811272    3.52764834349953   -0.36407219376520
C         1.01093833015519    2.58782811450623    2.83971476271246
C         1.23337968238354    3.44065105306144    1.77475893298674
C        -0.24010065591932    0.76913027991896    3.49919976321254
C        -0.31818041965596    2.13014297609351    3.07781028420640
C        -0.89109972899507   -1.45157149350270    2.90482364063765
C        -1.29044493484198   -0.12037976549482    3.25868859296283
C        -1.49823421782049   -2.98859528567206    1.09796542988836
C        -1.85446460280205   -2.22193282628397    2.23621477286314
C        -2.30546873046169   -2.62172923190243   -1.15853408043205
C        -2.59026302952272   -2.96834651931294    0.17884752481193
C        -3.33570234223541   -1.91499219697566   -1.83872486652961
C        -1.63918674656175   -0.41018814124339   -2.77324501014028
C        -2.96428778429176   -0.71306277481001   -2.54888619780782
C         0.02569345410112    1.29550216079858   -3.00094521967963
C         0.62561783522297    2.48266938885014   -2.49211850146861
C        -1.30246726026290    0.99683983475629   -2.79645328929586
C         0.69409852686299    3.74267183631332   -0.45094449895727
C         0.15235795528828    3.74329439711224    0.88772945557008
C        -0.08085205294744    3.21116518438158   -1.51574839553582
C        -1.41356321193107    2.54862729616666    2.31914215416947
C        -1.14636757768659    3.33868581653320    1.13638575950744
C        -2.57476180552233    0.40592152573820    2.85830279200421
C        -2.60252069175842    1.75836231609697    2.40080103070313
C        -3.21689600846230   -1.80619141807012    2.06540631716453
C        -3.71948366644805   -2.44117923221975    0.87377658048171
C        -3.61894312440372   -0.49956152491961    2.41385681873092
C        -4.58471055901171   -1.69647555202394   -1.25578853719351
C        -4.77338144623948   -1.87014042190202    0.14981313986432
C        -3.95708115896900    0.30717383031332   -2.27410361158430
C        -5.01433050269612   -0.33764934417662   -1.59735802024190
C        -2.14100674183651    1.94643629136236   -2.11006859765877
C        -1.46708918548815    2.92386985673992   -1.30815397953530
C        -2.02398581891679    3.17939134557023   -0.00595152583004
C        -3.51041684795818    1.60337281037955   -1.86492707915418
C        -3.65413046878715    2.16940727837096    1.53958559690863
C        -3.31306056435138    2.77470412634068    0.26077899614104
C        -4.16007351226433    2.18959205192214   -0.74320024596001
C        -4.77624488833310    0.01092646627232    1.73352828281825
C        -5.38287629932443   -0.70314617123505    0.67268119336669
C        -5.59202510770858    0.22919919724063   -0.45175246335361
C        -4.77939992222142    1.39023557639959    1.35107577772343
C        -5.18573557367786    1.49583296665294   -0.04948120673676
