80
C80 Isomer 30648 Symmetry C1
C         4.67932249076877   -0.94881086364912   -0.30232817499347
C         4.31458059388045   -0.99808229392341    1.05178260692177
C         3.62205544223215   -2.25179759912126    1.23408176489800
C         3.97291069126320   -2.00132399708960   -1.00078072586828
C         3.34347045612801   -2.84026118279891   -0.05479349037983
C         3.24589342173158   -1.38324603248688   -2.03347156907924
C         4.57890136940995    0.24293773708251   -1.04929303625661
C         3.62008797147360    0.00869164585569   -2.10481535181666
C         4.52340252412045    1.42386468176317   -0.31600230456988
C         3.85263476098636    0.18789782955194    1.72112238152991
C         4.09889981137324    1.39814143092176    1.07069540838369
C         2.69544596539703    0.10812468653960    2.60407001205925
C         2.65641635287484   -2.34503011806194    2.19378293245071
C         2.21238841150068   -1.16813848469668    2.91397397425071
C         1.54624393746463   -3.22645884957269    2.00630152603043
C         2.09735899132456   -3.39931421338060   -0.35199173906085
C         1.22290321437562   -3.76404160462135    0.74758924563289
C         1.93771259711721   -1.80007946221929   -2.30272826204703
C         1.49707192153555   -2.98532409433712   -1.60163995216896
C         0.97084614322731   -0.83299955357985   -2.76859872787959
C         2.65633878776371    0.97200691925358   -2.45039701177962
C         1.28894941552532    0.56774628547404   -2.75188858655932
C         3.85783194039544    2.49562196293389   -0.93182482939296
C         2.90955925231417    2.27859351964782   -1.94285344107990
C         3.21869591985318    2.53165961659894    1.28486311873905
C         3.20563981659243    3.28232620562792    0.09845136183813
C         1.76873957519957    1.21054378244428    2.75247956300556
C         2.04031843026035    2.45074027399087    2.07776736516127
C         0.42374721322436    0.93697170420271    3.19027060947077
C         0.86805993246986   -1.41886875609644    3.30696194738151
C         0.50480046637571   -2.72718870044685    2.84841080401491
C        -0.07869731553343   -0.39423424053523    3.38866317008075
C        -0.80682846802325   -3.02045901227527    2.58425777042837
C        -0.15086646487119   -4.11929121975930    0.49236654777167
C        -1.15082771074866   -3.83331373285540    1.45263439168550
C         0.20310240418762   -3.39617843116594   -1.85328599156167
C        -0.57418924071323   -4.13391152060232   -0.86751422501727
C        -0.39293623386235   -1.23809891042649   -2.89833253358526
C        -0.67859826538156   -2.61031757697122   -2.64559908477593
C        -1.46812800649385   -0.28732131002966   -2.85023528913950
C         0.21484661473201    1.51655054502353   -2.66465519177958
C        -1.16172526215804    1.10461029264391   -2.70353672356957
C         1.79831795648939    3.15765106946052   -1.69137211357663
C         2.00415267209050    3.78530010744536   -0.41722903198021
C         0.51358945207718    2.83189068818171   -2.11803062101761
C         0.96781062744035    3.36093995363786    1.75446325426089
C         0.93536790047492    4.00491361821022    0.46519963658041
C        -0.55679749595051    1.93049207174268    3.03433077142897
C        -0.28749531889687    3.14141619469102    2.35178769366017
C        -1.96005285021562    1.62877748116495    2.91920202661420
C        -1.47414142690468   -0.71721261984267    3.15557711976003
C        -1.80901735411934   -2.02648289503854    2.78762841667468
C        -2.42405326013586    0.30674846721175    2.81905829279463
C        -2.48540099994171   -3.45959107165652    1.08795105539013
C        -2.87759913274491   -2.31386853432393    1.87331295413490
C        -1.91273490827534   -3.96501709458899   -1.19948224107733
C        -1.98604725073651   -3.04374001972013   -2.31958654389917
C        -2.88121938322293   -3.54475840365877   -0.24263898853075
C        -2.78616934766902   -0.76421524011163   -2.47020650564414
C        -2.98641879448291   -2.12146369211809   -2.07547516912587
C        -3.61674038185891   -2.45869867885695   -0.80380059226540
C        -3.72003093291970    0.10547174442563   -1.92763868775226
C        -2.21257478368358    2.02054507129190   -2.26108420431965
C        -3.48948581419110    1.51885270321023   -1.91429273577094
C        -0.49944507368306    3.58031459322214   -1.47586003671587
C        -0.29297106104288    4.16854222152247   -0.19609880655140
C        -1.86649237666885    3.22472258059205   -1.60087407377812
C        -1.52463241827237    3.60873429125583    1.78796982461887
C        -2.56897928276347    2.69661861870318    2.19815566897759
C        -1.53768445987645    4.11246334654169    0.50083878807696
C        -2.55000176196637    3.68922682645432   -0.42578696008536
C        -4.21408992648450    2.04556122601854   -0.81958653387299
C        -3.65663069432395    2.44315994233013    1.38542323380782
C        -3.66308816747556    3.00599233176645    0.03951523620063
C        -3.56398229300641    0.02046337098376    1.97530481104228
C        -3.69662257277284   -1.29698213772534    1.37552572529609
C        -4.12192098235462   -1.43038437466886   -0.00576169410186
C        -4.43624698269953   -0.25055454234486   -0.72094834595465
C        -4.18108774572225    1.10644860677800    1.31552180289437
C        -4.65676324280308    0.92578481895957   -0.01897268556731
