78
C78 Isomer 8969 Symmetry C1
C         3.42134765146044   -3.66938404096854    1.00329854432639
C         3.04450269053981   -3.72955622988976   -0.37904073324340
C         3.56584310038253   -2.58181821276523   -1.06008821351823
C         4.02370509551728   -2.42040173856282    1.20707626964100
C         4.26933215724388   -1.80499692217523   -0.07375252090764
C         3.23805795580501   -1.68513058526656    2.15801816254873
C         2.20821559727006   -3.71317873354065    1.78479340061392
C         2.08907032907474   -2.48746959221097    2.51185264244191
C         1.66365820249126   -3.99676367629414   -0.45546313450271
C         1.15689967538296   -4.05207697239021    0.92278532077260
C         0.85496638013281   -3.37423521670044   -1.42608465018880
C         2.75738121396239   -1.90898546783169   -2.00543439187057
C         1.39636352953177   -2.30834930526708   -2.23099681280601
C         3.07682120675932   -0.55239286879508   -2.23614640679080
C         4.31460996982900   -0.41808158493263   -0.13756212815996
C         3.97141696872845    0.15802126784569   -1.38423043368778
C         3.13472420167995   -0.29929804313155    2.06532837236001
C         3.94895538011354    0.34814422519475    1.04973375223028
C         1.94389675010658    0.35542248441714    2.55688090772120
C         0.84112354896394   -1.87823223084354    2.68862577207746
C         0.76798859002496   -0.43734767213750    2.83109607369424
C        -0.12614016308363   -3.58820563585066    1.21006698684669
C        -0.31453898429139   -2.59345194226627    2.21558323683743
C        -0.56082736271947   -3.46847546963473   -1.20245981611100
C        -1.06858672155962   -3.66738387769818    0.13125322691051
C        -1.40355222671405   -2.79946406719318   -2.08730105437596
C         0.47900105552205   -1.34297229290253   -2.77020853930836
C        -0.87882841419690   -1.66462037387224   -2.79317829985202
C         2.13082797128577    0.40333926880994   -2.70995592727689
C         0.79090792005135    0.06254807501369   -2.89387757497396
C         3.69776783786914    1.54865221461154   -1.50235786590288
C         2.52600010265962    1.71717266213253   -2.30937478581946
C         3.82156739871125    1.71036045640344    0.91860642411935
C         3.87463618687884    2.36130397500106   -0.38806005325531
C         1.84253874285754    1.77426169643654    2.41446351469063
C         2.90535461015316    2.45412136852629    1.74062971611974
C         0.54326480296641    2.39552110535087    2.46032527473409
C        -0.51713625775383    0.17635929687740    2.89520640200799
C        -0.62604838349717    1.59257888139552    2.67395209113988
C        -1.60194053495336   -2.01018556053269    2.35503941535693
C        -1.71280892768124   -0.65169021836353    2.82318290293103
C        -2.37330143240247   -3.31483837542203    0.42936287906831
C        -2.66730938188765   -2.58012815526817    1.63008452705463
C        -2.77857198956411   -2.55419245407728   -1.81031025324179
C        -3.30716450059931   -2.88886061421772   -0.56909763748999
C        -1.89142327314656   -0.67536829707848   -2.86590428824962
C        -3.10958409469409   -1.27406628790485   -2.38019453907328
C        -0.20999352072820    1.08199272641321   -2.70146967191824
C        -1.59219508000009    0.69330647881573   -2.66828043315259
C         1.57666087585921    2.72947599209935   -2.07029690895569
C         0.17254567590159    2.37820872799787   -2.20158604200085
C         3.12600059588775    3.53630869986607   -0.31859388535504
C         2.67340140623755    3.67945932878109    1.06851172849688
C         1.99735278940862    3.75658521657022   -1.15754405911697
C         0.36052464617003    3.62997081735679    1.77642135232680
C         1.41719235437122    4.24359836084634    1.05550746625372
C         1.00762337101016    4.37187878076828   -0.34069564543710
C        -0.79942845436398    3.07620574472584   -1.40845441538199
C        -0.77803784419457    3.75225842440326    0.93209307170370
C        -0.32315301290738    3.98873846461860   -0.42388140933873
C        -1.89453993934323    2.11229377128823    2.26180441140645
C        -1.92299323271002    3.04895776670974    1.17889871203565
C        -2.97628546856166   -0.05831654123636    2.73193666803488
C        -3.05933424030904    1.34813609753704    2.42905114732341
C        -3.90866963295026   -1.90118271090462    1.43438327054564
C        -4.30323870412768   -2.06297862152137    0.05060084010219
C        -4.10562605964279   -0.69463903017623    2.09761324172452
C        -4.09992120197580   -0.50511178698999   -1.82830145444451
C        -4.81487423429088   -0.96554728959333   -0.65167618977867
C        -2.59192703997825    1.49577175548151   -2.01553809921406
C        -2.12902107726791    2.58086686048371   -1.20944731799943
C        -2.78895585080124    2.82517421249602    0.04913982787528
C        -3.86457834260733    0.92387668285954   -1.71053056176071
C        -4.18104476728728    1.59351051695863    1.62926332210807
C        -4.85926847199793    0.32192876605224    1.42979005752045
C        -5.16634142228677    0.19713312755928    0.08150152530061
C        -4.00586043529707    2.21486540874992    0.34693217866034
C        -4.60399785642774    1.36506898895313   -0.60931848320253
