78
C78 Isomer 22311 Symmetry C1
C         4.63973988135982   -0.60601865144838    0.21752388112873
C         4.42910347595342    0.76295813892579    0.26999704628138
C         3.74624716401077    1.04376083669872    1.53946627018465
C         4.12784483891952   -1.20385430594665    1.43186995104373
C         3.49854899053204   -0.20061508401127    2.20048879074522
C         3.44600368918118   -2.37427460152444    1.07680261167894
C         4.18644953709455   -1.40114874037615   -0.88732942040799
C         3.40652470879807   -2.50558561260824   -0.36238078001187
C         3.76433571836658   -0.73488293193359   -2.02029681348045
C         4.04807686083547    1.46350192254081   -0.91513371746881
C         3.72576199752567    0.70396574158434   -2.06976091577763
C         3.35967016216802    2.66091338679217   -0.73321507339434
C         2.85373596551395    2.09486164533833    1.67023395683868
C         2.89607964661750    3.05594955803944    0.59797994810934
C         1.62801705139087    1.92907443804697    2.44411807036292
C         2.24757428524042   -0.43743316705180    2.82923102103201
C         1.28972213310489    0.63305708044826    2.96278213615105
C         2.32082373116057   -2.69649859723901    1.82117039408522
C         1.76676832066064   -1.76332823929625    2.75398663929337
C         1.26295356995701   -3.41818502761282    1.20077503982013
C         2.24300108446766   -2.96701928905345   -0.99932489508574
C         1.15826705425830   -3.52167587168704   -0.19544533646039
C         2.63818130415950   -1.24886763113299   -2.74047494020081
C         1.91556363289436   -2.37466529193593   -2.28105426491015
C         2.59902415943598    1.06687160903088   -2.86461791590088
C         1.96991393772637   -0.13739194961921   -3.32086702056486
C         2.38977351293767    3.11647469199361   -1.67576332221981
C         1.83840880321834    2.23752410219346   -2.63689313631965
C         1.86183515853722    3.95003630144074    0.42790476390885
C         1.52289500246431    3.99555516264605   -0.97773048683872
C         0.57288538357287    2.88483230289074    2.22595508140722
C         0.65985172937662    3.84271918862708    1.18051182497992
C        -0.74057341623926    2.54458370758415    2.57624224517606
C        -0.09868040215303    0.27900831752938    3.22828511959916
C        -1.06865340117638    1.27186837344136    3.12653389880774
C         0.37368091344357   -2.06851531874890    2.87691462434486
C         0.10531463877107   -3.17459672102637    2.01389796115366
C        -0.58875945923321   -1.08755634920581    3.12470094647421
C        -1.15164640956831   -3.34114160618257    1.50749637848975
C        -0.18324827226756   -3.63214567120542   -0.74529408232377
C        -1.31790878372358   -3.63162630475054    0.10543585369485
C         0.60338031195458   -2.46837270340428   -2.76832466480849
C        -0.43663119110353   -3.15722760250321   -2.04397890452224
C         0.61097696712298   -0.16213023868167   -3.64011369105363
C        -0.00148077480634   -1.42993199071849   -3.52020679564822
C         0.39701790012725    2.21193206844337   -2.84649909286969
C        -0.17864523300321    1.03783806849197   -3.45332118512597
C         0.14716554684733    3.90198460380949   -1.08630354690555
C        -0.41067753877898    3.98625260596024    0.26041811287810
C        -0.45958738936752    3.04935509334551   -2.04923114162874
C        -1.87108805627895    2.99642161535462    1.83515984048024
C        -1.69303113676543    3.51832946889693    0.53876643346014
C        -2.46150521914682    1.00235669301437    2.86053127010857
C        -2.95329410361489    2.10496255825215    2.10454768826450
C        -1.96229859500570   -1.36941770302262    2.74365007702085
C        -2.21054943392578   -2.52025571848482    1.96849711953562
C        -2.93176019551047   -0.30476259884461    2.63858138364943
C        -2.57907235747331   -3.11062550242124   -0.27608113106199
C        -3.18411084948035   -2.52601709535482    0.90460740835758
C        -1.69375646113615   -2.61612192878557   -2.42382297552036
C        -1.41483858837308   -1.55199629444257   -3.35160317772905
C        -2.79411321516278   -2.52416313908286   -1.54374603838340
C        -1.56613890436218    0.87525090214272   -3.38561371227656
C        -2.19351733129335   -0.42557642430929   -3.36069075523844
C        -1.85152556642555    2.74664097982857   -1.82841318294848
C        -2.51474448588626    3.04869341708160   -0.56102166288414
C        -2.40414044337380    1.74313535287482   -2.62890679313518
C        -3.93707347502333    1.93506601809599    1.13847010881724
C        -3.69522681783935    2.38585709314219   -0.22733383887995
C        -4.05050171713538   -0.44134712269623    1.76334507949912
C        -4.10144943154200   -1.52763098792576    0.80268785713759
C        -4.56720448707211    0.67922530635019    1.09174780366797
C        -3.71552349975923   -1.40423824714835   -1.66268740928139
C        -3.39233949254231   -0.36815312527926   -2.57175938541189
C        -3.57706647619869    1.00966253079376   -2.23965262261794
C        -4.25881127996868    1.37668783633563   -1.09207598345763
C        -4.45396048692226   -1.00741492576638   -0.50943221900438
C        -4.79398439106783    0.33324159446245   -0.30291260590941
