74
C74 Isomer 6257 Symmetry C1
C         3.79012386888248   -2.73654551478185    0.95049536847994
C         2.77612031968181   -3.45478566569976    0.26289983501353
C         1.60265230948234   -3.53176964269716    1.08288853082505
C         3.16657566804947   -2.16819769147335    2.10939023869430
C         1.85069316345814   -2.69742213318801    2.23106009936190
C         3.31019053957216   -0.75595057829259    2.08541145293608
C         4.17911223981915   -1.64912125664253    0.11848628827434
C         4.00876393303947   -0.44674420748169    0.85552954985996
C         2.62294643328195   -2.89903023514073   -1.04692820594869
C         3.47721745561045   -1.74795777149841   -1.13166460046950
C         1.37514009731156   -2.91083545729515   -1.67151266676116
C         0.34062214304066   -3.58899007217667    0.48318664781500
C         0.27447385880492   -3.51648056444333   -0.95402862592539
C        -0.78917931507179   -3.16923988972904    1.27678538718787
C         0.81930208512307   -1.89840326153123    2.72485483526446
C        -0.51304116258553   -2.37299767776950    2.42877708789838
C         2.27557911170925    0.09094648613810    2.53350666435915
C         1.05603442529340   -0.50388723012416    3.00459568447701
C         2.30409143568656    1.46910446227842    2.08452880182296
C         3.73844374093820    0.74424257908060    0.19052498533459
C         3.17095031901727    1.81092806379301    0.98492382668282
C         3.04583875869817   -0.57943925896835   -1.78597369688152
C         3.45508804915311    0.67389491246731   -1.21842844570360
C         1.10123076017084   -1.84677265904695   -2.61916009437545
C         1.85235029106998   -0.63461147736058   -2.59152486680441
C        -0.19522273009589   -1.79769516282999   -3.17229165689634
C        -0.99829623668946   -3.39425884212972   -1.52235298556529
C        -1.16117966212299   -2.71522425130267   -2.74302284354778
C        -2.09486507616012   -3.06836744880613    0.65076176854184
C        -2.18281439485680   -3.17792926744001   -0.74054423749647
C        -3.11976394769711   -2.30504983016439    1.27576018722483
C        -1.55019304441784   -1.62236545759739    3.00862380800292
C        -2.86539216283094   -1.73885643144857    2.53464854594754
C        -0.07021566913393    0.34164157599313    3.27593319187253
C        -1.32255874741981   -0.26463569802092    3.44780600834335
C         1.19358143007983    2.32095611843252    2.40062685772389
C        -0.00419330608285    1.75965737367844    2.97248739559264
C         1.08084004346590    3.56583014289099    1.70504365679121
C         3.00154362676075    3.03940785694351    0.30653871729835
C         2.00736829422246    3.94528725286953    0.73696480675527
C         2.95507566907177    1.83984774994269   -1.81633936892915
C         2.97653814925800    3.04407575554786   -1.11883735753687
C         1.17662059686719    0.59699085581506   -2.95853023046792
C         1.77403994368277    1.80602669450634   -2.64404072141269
C        -0.88074074262167   -0.55632748604364   -3.47442023119238
C        -0.24802697859516    0.65221479880101   -3.23001152339297
C        -2.45989029471932   -2.06355932509948   -2.72724761512563
C        -3.08154227424961   -2.32125185543384   -1.49852920493523
C        -2.28325517232748   -0.74842201607691   -3.19667704806241
C        -3.92451374729700   -1.35882708151769    0.54547627478027
C        -3.82690945156005   -1.28202315047840   -0.85398660469743
C        -3.48451104597018   -0.43909127787631    2.60017416832265
C        -2.55073117737668    0.44473680972136    3.19564414844549
C        -4.07048503977949   -0.16647154836241    1.35491168440488
C        -1.23005965405152    2.42133586254886    2.74034931697354
C        -2.48277859302341    1.73806557429937    2.71418463622463
C        -0.21530997697961    4.01703222627626    1.22912982290096
C        -1.33165037685316    3.43083985389247    1.73181614020199
C         1.26063596739843    4.41955393492352   -0.43530582148983
C         1.81405149847798    3.82137630827990   -1.55070463422569
C         1.01082974082237    3.01377317290299   -2.38945089830202
C        -0.12497047142310    4.31889366770279   -0.17693165874158
C        -1.03496892846674    1.78769849532964   -2.75903482995195
C        -0.38738830180177    2.94711636519587   -2.19874410062867
C        -0.98879635438577    3.64339123457671   -1.07554777614554
C        -2.99201116829494    0.27880422619367   -2.57860049646360
C        -3.80883671251279    0.01359742160703   -1.44369591343320
C        -2.37036771910793    1.55391295710785   -2.41600623598494
C        -3.91989469140399    1.13320634370268    0.77927647829785
C        -3.20747997517737    2.10745551373129    1.52244028035736
C        -2.44036046516366    3.12067891538874    0.87334120495560
C        -2.22775671431149    3.13326034119937   -0.52256852836452
C        -3.79482103244973    1.20633199799999   -0.62785911234888
C        -2.94469345193316    2.16142447421062   -1.24728154603822
