78
C78 Isomer 11643 Symmetry C1
C        -5.13613500803714    0.19839800810376    0.75767881785636
C        -4.82493140931999   -1.12420318556723    0.81211315877860
C        -4.53290217748310   -1.60147292793524   -0.56247763798294
C        -5.07845744379664    0.57795958576074   -0.67912645349494
C        -4.43130379400116   -0.47603125003232   -1.41251163794147
C        -4.56950342616379    1.83693390611224   -0.73175800245223
C        -4.35014058079704    1.13507049941035    1.51001244769951
C        -4.27145640995407    2.26350497240334    0.64515344720048
C        -3.17408522164746    0.70390251405223    2.21969344034256
C        -3.80568245786600   -1.61024499996201    1.67118578264597
C        -2.91778940304062   -0.71223308310702    2.34245618023622
C        -3.53470324403705   -2.54539355807658   -0.47436748074460
C        -3.25545533171668   -2.71548464400052    0.94684186871050
C        -2.43281317329316   -2.51268627770284   -1.37112243552860
C        -3.19210203012003   -0.24012412091060   -2.09512811182401
C        -2.22934601486818   -1.31104209252775   -2.13905157440504
C        -3.43257763108610    2.14745868481527   -1.54158936879318
C        -2.69391592931307    1.12576157632679   -2.19994745510294
C        -3.13307360474540    3.02768205403438    0.59470343980734
C        -2.71404872551008    3.12147630340261   -0.79169823859856
C        -2.03190148844856    1.59492314235636    2.29503322704132
C        -2.11949122224389    2.83161623405503    1.57283668477253
C        -0.70248436561197    1.13459491397104    2.65048003305611
C        -1.57049950519064   -1.17231012807767    2.62533674639253
C        -0.44749826707732   -0.27297706856156    2.80111658081499
C        -2.05614371586350   -3.20837310978377    1.31947728229240
C        -1.26614552187747   -2.50976848510837    2.29359216875079
C        -1.32888536706573   -3.35538277266096   -1.00684954349293
C        -1.18713197936153   -3.78258233486319    0.34179359441011
C        -0.13776817627904   -3.21681777233354   -1.73008673395995
C        -0.88390355183887   -1.02318162853180   -2.59128800501334
C         0.07085595863813   -2.04665059563638   -2.51871978373025
C        -1.29265271282926    1.39375608767673   -2.46347750956611
C        -0.38863618668728    0.31853457458533   -2.74039058607924
C        -1.41505454088163    3.46161298798473   -1.11064667773501
C        -0.73318341458985    2.67014678102472   -2.09668744977630
C        -0.96860892317105    3.55396414777591    1.28581516239776
C        -0.67938865092041    4.02878238476624   -0.04581377041134
C         0.43753788136910    2.01616049529050    2.54396288189098
C         0.25236388258629    3.27637729124075    1.92616314527860
C         1.79626332728459    1.53357648393512    2.62449093243685
C         0.91523013900020   -0.77022181379336    2.78677458494544
C         2.04843185877750    0.11848577933503    2.71366231967457
C         0.04924468088422   -2.96808543795441    2.11056701988608
C         0.08925102615323   -3.81802244629926    0.94018175166806
C         1.14764789222313   -2.17097585082644    2.46480596295220
C         1.12258646214719   -3.64765947219886   -1.22209503616498
C         1.25690127843646   -3.91868888729910    0.16674351442354
C         1.48737083720677   -1.81581878377064   -2.58082753554885
C         2.13601688374680   -2.87922576876519   -1.88436989026836
C         1.04728856199693    0.54139079039994   -2.77039065459291
C         2.01160836424125   -0.52176048145689   -2.62126951633268
C         0.64805156310034    2.88086986902910   -2.18224942885505
C         1.53224184361465    1.83728509701633   -2.54284786257809
C         0.71054645036454    4.22203828251228   -0.14977367870227
C         1.27802881255365    3.91702481888911    1.14718737254278
C         1.36193919807256    3.75581635970692   -1.28614136208744
C         2.83868821710801    2.38352256265636    2.14150241757525
C         2.55991094029202    3.49637960874877    1.25592900816687
C         4.03385511513265    1.83250053641438    1.66205535635584
C         3.34806238589741   -0.39911607453965    2.31034871750236
C         4.28638989263348    0.46230630080079    1.67820072506286
C         2.37796852296608   -2.62901313340785    1.96816753432289
C         2.44366629034421   -3.52171517880914    0.81771824397500
C         3.48593813952800   -1.75124696763004    1.91761190632139
C         3.36109199888328   -2.65286021867914   -1.27578561732151
C         3.55320841764821   -3.13270906164017    0.05462361474250
C         4.25506640555486   -2.10903343806580    0.77479372624420
C         3.33170379236380   -0.28735370801166   -2.04326590821957
C         4.80354357071177    0.14944646959067    0.35846213648188
C         3.97973551747082   -1.35650511564043   -1.40310601165740
C         4.66370350778547   -1.11511461731598   -0.14247077562435
C         2.83631091800292    2.10634657765712   -1.98364358269781
C         2.71342858162698    3.29068189902624   -1.18498289868619
C         3.37206360747266    3.35729950681020    0.05119503344628
C         4.31608359278980    2.36936919535842    0.33312497640122
C         3.71840379715961    1.06194452710808   -1.65772116217858
C         4.54557049296519    1.26818468133949   -0.51091356735468
