78
C78 Isomer 14325 Symmetry C1
C         5.16260892307207   -0.94401707290070    0.26452194672110
C         4.63517598735472   -2.14527199564325   -0.16428329637571
C         3.80602961972239   -2.68754865413915    0.91206362897817
C         4.66552938811997   -0.69925629276020    1.61910907699444
C         3.76064503264013   -1.72935405468094    1.97214253453888
C         4.25976727351283    0.63154604683071    1.69070270633487
C         4.98567942385460    0.25641407151563   -0.49155826581464
C         4.53358379851124    1.27393293455330    0.42130836418524
C         4.37427680629856    0.16846939519359   -1.74428688695876
C         3.88397242760495   -2.21799787666319   -1.37921774666826
C         3.80632995414727   -1.08133583903073   -2.18118071901741
C         2.63171789074955   -3.17078597109816    0.33897206761849
C         2.66975223634584   -2.92639791328379   -1.08948651669366
C         1.41308278520262   -3.09681553808204    1.05805097886499
C         2.51030044169233   -1.41613876353923    2.56643769154574
C         1.42309676631650   -2.30592718798285    2.25418143207097
C         3.09650662344701    0.97199355367299    2.44091303466810
C         2.20600729313308   -0.05226343039485    2.91080396404696
C         2.57082851613978    2.23994447344078    2.17256268696044
C         3.74288469197928    2.34804404561630   -0.00462387466785
C         2.93377990249332    2.95550693143847    0.99004302934456
C         3.48877421441686    1.21885210498878   -2.16799668143120
C         3.25899954048495    2.36388045357843   -1.37315891511414
C         2.56213187915622   -0.78058332052942   -2.83296833072991
C         2.41792514370150    0.63944282313595   -2.91256061537955
C         1.47038894687647   -2.65839602227182   -1.74150480820223
C         1.41572547226421   -1.56251517859758   -2.68081534192549
C         0.20146004206058   -3.29265475083275    0.33218920654539
C         0.25938551613512   -3.09645059521573   -1.08946205751082
C        -1.06916132553104   -3.14220055021007    0.99142985098811
C         0.17123009417069   -1.97798566244183    2.76784118659692
C        -1.02694254813261   -2.53192653559684    2.25776951521654
C         0.84437393395835    0.32712030798989    3.22127910790314
C        -0.10575141636586   -0.68553453804972    3.30270968204105
C         1.23310661404631    2.61058837143482    2.53921177837290
C         0.32045171482092    1.66149219797572    3.01790418814129
C         1.83918844603069    3.80413827059644    0.64881114665595
C         0.83585606232492    3.67157873919985    1.67357811056488
C         2.08472109910584    3.08761657207462   -1.66015668873543
C         1.43727057793221    3.90233231532838   -0.67871306823063
C         1.15310991442060    1.24977963948710   -3.01639487045583
C         1.06294859111794    2.55692897750812   -2.50718196983569
C         0.13847441016924   -0.96698261139961   -2.99430995833999
C        -0.03700541468163    0.45372440096008   -3.12097439893099
C        -0.92608808568053   -2.80890145839973   -1.75217273777107
C        -0.98095194255429   -1.74509033057554   -2.71500507473199
C        -2.30799452558324   -3.06517041807100    0.25228705057701
C        -2.21336933256412   -2.91759458318128   -1.14733342318747
C        -3.46344264587548   -2.47791887565390    0.86197186826314
C        -2.09168243683314   -1.67254305772527    2.69590485299902
C        -1.51904210400039   -0.45976560634515    3.19314530016399
C        -3.29567462963663   -1.66226223986171    2.05569510477771
C        -1.10045155062450    1.87314978822154    2.77415280861074
C        -2.05554186568021    0.78378552694918    2.84871697038448
C        -0.50069168132349    3.82130787270849    1.37666712197922
C        -1.46817187379780    2.97481810874110    1.98791530399227
C         0.03587235896800    3.96025861272372   -0.99709619439187
C        -0.20014671759963    3.08605177325712   -2.12382983238433
C        -0.90372841966594    4.02456297324894    0.00726772646130
C        -1.32400104256257    1.03286679463731   -2.86038388037025
C        -1.38305459454731    2.36109603940795   -2.28032601594264
C        -2.29645949806042   -1.21648329900553   -2.71296331417723
C        -3.11035736290498   -2.07561978887247   -1.88669981193651
C        -2.48063400325368    0.18296273920605   -2.75156002468052
C        -4.45532958846592   -1.86188369478910    0.09637152366085
C        -4.26504086154585   -1.58557912415834   -1.29220836571803
C        -3.99780844152435   -0.42047877328405    1.90592120572446
C        -3.33025098490409    0.80543324382480    2.14199239656627
C        -4.82306033086725   -0.60484897243024    0.75303030859408
C        -2.58263073044342    2.86437036900682    1.07793215687161
C        -2.16766173662186    3.39412238059601   -0.17619203620878
C        -2.46304113848063    2.68046597270025   -1.36588228873523
C        -3.54944149315852    1.85976637830845    1.17328554558289
C        -3.66854509215874    0.65953252337012   -2.11000535735794
C        -4.58193355347702   -0.20847546642392   -1.50865386908566
C        -4.93354098822147    0.37127845857104   -0.21409261478089
C        -3.57292835275615    1.84897438706990   -1.28542155736166
C        -4.23639204441491    1.59382547505302   -0.04613275126788
