78
C78 Isomer 20035 Symmetry C1
C         4.15965036377071   -2.61308922995384   -0.35220168977411
C         4.18594428090417   -2.26954128770873    0.98230264046602
C         3.02900829630269   -2.87413212694482    1.62667617064232
C         2.98291295588856   -3.46746181881001   -0.56927697366133
C         2.24978196547494   -3.54997173718208    0.64231070222250
C         2.35301646884609   -3.04561737136832   -1.73516919972234
C         4.20720644402613   -1.61791001313127   -1.36803622508670
C         3.18155225671885   -1.99121288099223   -2.30730330514144
C         4.43107795595420   -0.25352436060888   -1.04618745599751
C         4.26120169474913   -0.89665517982325    1.35234066224613
C         4.54252592393258    0.08324571056856    0.36573997817807
C         2.43932607574820   -1.87772111490548    2.39821722281379
C         3.22383882543786   -0.66835601554033    2.31519805615400
C         1.03775507746547   -1.80398955343750    2.51317349034673
C         0.84837393419252   -3.38871265367089    0.62597063736725
C         0.23742317990569   -2.69208075899964    1.72795106216242
C         0.93596689611748   -2.99380898748711   -1.81228821622345
C         0.16907731675821   -3.29734179062408   -0.63953854024462
C         0.35419067282620   -2.07996328338866   -2.75484389849812
C         2.57456020313490   -1.03385563380615   -3.07081606460663
C         1.17444164654060   -1.12025881239640   -3.36148495351351
C         3.85496334355993    0.74196617453725   -1.94364941955086
C         2.94220979766920    0.33974213535417   -2.93135252180246
C         3.67621863133457    2.08518043825412   -1.50627737069485
C         4.20005090210600    1.39420758275272    0.76959465551120
C         4.01564628719513    2.41577085464396   -0.19122031786090
C         2.61123690057914    0.59062369180551    2.46712791217365
C         3.25845725383951    1.64812585893688    1.81769041678088
C         0.48332676737002   -0.55016419311194    2.93549431725607
C         1.19969537448417    0.68842215577454    2.79760170479693
C        -0.90267007996423   -0.51462306923898    3.04586887973359
C        -1.17776025403244   -2.53481519892922    1.71531880204798
C        -1.72904897474662   -1.58364259407776    2.58334836045063
C        -1.24550593879370   -3.08959938835718   -0.66348476988665
C        -1.95239272850220   -2.94493241276252    0.57348289378149
C        -1.05012654992695   -1.82838877791809   -2.75260573936559
C        -1.86883133250355   -2.60805623239074   -1.86978901007852
C        -1.53873878031430   -0.57075534374674   -3.22677087037654
C         0.71049807117783    0.21361546425985   -3.52840409271810
C         1.76862455699950    1.10749774648707   -3.25065432900405
C        -0.64733661096395    0.54529706467743   -3.34673152090472
C         2.52230110787203    2.89614726251816   -1.88828650734616
C         1.48569568390025    2.36362314406444   -2.67575826512784
C         3.04290479650684    3.36265940654564    0.30833124429487
C         2.51081201089257    2.84407245130290    1.49483750032108
C         2.18946137617222    3.71826978056469   -0.76248506303463
C         0.45976099648956    1.87601402316507    2.51475143221803
C         1.12417589783180    2.94450355781027    1.78245157624275
C        -1.63807486795082    0.69545779471721    2.96493634069434
C        -0.98527395933164    1.86085184147431    2.54025495740941
C        -3.05106626333472   -1.06404750204825    2.40697036433772
C        -2.99408071755577    0.36103459136342    2.61355421685677
C        -3.33121973853144   -2.60215575574371    0.55229577154677
C        -3.88764408552966   -1.61083202045851    1.46279687224237
C        -3.25974302553514   -2.36775475353669   -1.87111619999441
C        -4.00383142980234   -2.47586858821117   -0.66508982342419
C        -2.89990002924154   -0.26335247728672   -3.04159263792840
C        -3.77722980967887   -1.23933454703018   -2.56123631877226
C        -3.29269178451633    1.02372297437789   -2.53495168667818
C        -0.99065767606034    1.82525765708166   -2.83346640979912
C         0.08871388048570    2.71080325319851   -2.43752706456036
C        -2.32477593114520    2.00035989223943   -2.29118069029647
C         0.86181646651409    3.95762936925233   -0.46024393130198
C         0.36553839300173    3.68967323000596    0.86078439950931
C        -0.16992479863448    3.58959215015866   -1.37863098842416
C        -1.75970675673915    2.70758534514956    1.65946238913253
C        -2.50538190830993    2.80226515532491   -1.10459243272502
C        -1.04879706780490    3.49432147573328    0.74575023548375
C        -1.39035389580381    3.48872463915196   -0.62600167244529
C        -3.73342944076492    1.18340795395424    1.78812919233799
C        -3.05599619203660    2.32499368144842    1.23749548204149
C        -3.44916816927287    2.41558777464219   -0.12573820065046
C        -4.79189323491276   -0.76005734906772    0.71643658143984
C        -4.92741706988331   -1.34444469709453   -0.57320063470887
C        -4.77035005775743   -0.58058779505147   -1.72338974841657
C        -4.42932633033015    0.80026058524055   -1.64928858618883
C        -4.62932139742296    0.62931028233061    0.80342194091662
C        -4.43827404304196    1.40679315597346   -0.39620571562110
