68
C68 Isomer 159 Symmetry C1
C         5.36976576757291   -0.47851799268691   -0.05862744440041
C         4.87180302105738   -1.73909830939002    0.14083159218291
C         4.05561213667224   -1.75014041347517    1.35894201101139
C         4.87387811700452    0.36975631057354    1.04305204290435
C         3.96160445038438   -0.40954012158053    1.87019651067078
C         4.36835681727848    1.49750907113252    0.42952126684837
C         4.82245638988722    0.01825469537534   -1.33278337110741
C         4.33239946669589    1.27581776406629   -1.04964108497994
C         4.00827188606863   -2.09831963166859   -0.98099965761049
C         3.87952556121727   -0.96118448789470   -1.86210408633658
C         2.87411219861354   -2.40751595865520    1.03020689412168
C         2.85052943434011   -2.63174506525248   -0.42366035009067
C         1.66529837826431   -2.03786673153485    1.64467988369029
C         2.68158384205093    0.10387527087240    2.23192392933694
C         1.54843384840798   -0.80290401676048    2.33015016931538
C         3.12677997426682    2.04549852479031    0.80332652618950
C         2.31808567682861    1.43725626862324    1.79958541461615
C         3.06524239505529    1.69523423100157   -1.50107489437503
C         2.44806842745450    2.40310638562054   -0.41608378516842
C         2.58277772205661   -0.57194475519099   -2.29030999045943
C         2.20255232725769    0.83186093926439   -2.22217497917395
C         1.62282414475257   -2.46853342423368   -1.08011052816331
C         1.46800723893613   -1.48705710523052   -2.09021903614886
C         0.49254760272115   -2.60476106802890    1.06906596968622
C         0.47448269722926   -2.83419876776165   -0.32454023114980
C        -0.73763386544198   -2.42668988472989    1.75624234238692
C         0.20961207165787   -0.33124639329839    2.60196000276959
C        -0.91915992768092   -1.21120532212079    2.50287797488352
C         0.96302945554834    1.87470564681358    1.86448577140001
C        -0.02186691215143    1.08385434883793    2.56423098486359
C         1.11014761959142    2.69666593447092   -0.42137004415481
C         0.46543771161989    2.76201305926497    0.85669056550066
C         0.83269762230055    1.21892236769387   -2.30490755368258
C         0.32688232592632    2.32875678628639   -1.56457290954321
C         0.12234511520123   -1.13732614715377   -2.45329915772272
C        -0.14265574961199    0.24760806839982   -2.75641025286320
C        -0.76741834624889   -2.88694510167189   -1.00387285299714
C        -0.97837564044808   -1.98836089553136   -2.10982382924195
C        -1.82152538461667   -3.10781870357941    1.19473344521318
C        -1.83297239691440   -3.34473717894668   -0.22460842186158
C        -3.16556395927837   -2.77033437809787    1.56904118450844
C        -2.28345211999681   -0.70313455241377    2.55437269252285
C        -3.37369823658385   -1.47229167066211    2.04795272138574
C        -1.34297512879419    1.55530613322694    2.60576772020785
C        -2.47306783837446    0.68407981966689    2.57034276382461
C        -0.87887103369641    3.13891990839852    0.84034102087348
C        -1.70925482485988    2.72227161488102    1.87888691760283
C        -1.06487497690517    2.66389677509659   -1.55983227133506
C        -1.65376129742192    3.19980362513558   -0.38825047031898
C        -1.44832316271707    0.66225383990357   -2.93249986495739
C        -1.90549204923532    1.94199022058668   -2.43993834309593
C        -2.34722982118263   -1.59485177994361   -2.39396472079112
C        -2.55207902623845   -0.27104125103591   -2.87152496434310
C        -3.17320153462948   -3.15338613207970   -0.67554840644559
C        -4.01944764806789   -2.96788050931154    0.43220107636989
C        -3.43852732276491   -2.17201045797292   -1.69026337974268
C        -4.42010003796587   -0.84358902546082    1.20003988253366
C        -4.75212634208830   -1.75547682800857    0.18833392666220
C        -4.53328901798518   -1.36059424232634   -1.18245572089698
C        -3.52361216285291    1.31929869644340    1.77791165241565
C        -3.03417122597012    2.55362650294278    1.35239648847267
C        -3.01328865182242    2.89815112224945   -0.03894991765812
C        -4.37582099532013    0.54965078038817    0.92546126229016
C        -3.27341496781109    1.80633704521097   -2.15887177223647
C        -3.68429708230528    0.45605181983636   -2.47989197416447
C        -4.56382872254972   -0.00475693233931   -1.46851930049026
C        -3.81688606094928    2.14232957938773   -0.89858785982696
C        -4.56488797243861    0.99134207958705   -0.40845917972689
