80
C80 Isomer 3288 Symmetry C1
C        -5.80192345334808    0.01735680002039    0.67525444912689
C        -5.18633914032082   -1.20565138729035    1.16493132808627
C        -4.92911761967730   -1.99696552370745    0.04568160711424
C        -5.64422214218156    0.05953015300518   -0.77484150120716
C        -5.14795785551993   -1.16809190263950   -1.17195320819732
C        -4.87343748068844    1.21908533856846   -1.13721974248611
C        -5.05539453444824    1.07632136048499    1.17686593272867
C        -4.62581372056743    1.92238209712917    0.09039352982003
C        -4.07838506209145   -0.86223799503389    2.02391884238912
C        -4.02428871368461    0.57658432694766    2.06908026569458
C        -2.86105206474797   -1.56786758565162    1.96162898463059
C        -3.69349102949792   -2.63112449508224   -0.08878468020216
C        -2.72896235451686   -2.57955012513776    0.95053532350342
C        -3.97846092347429   -1.28286342724870   -1.97658532477541
C        -3.20371448079414   -2.33787001139420   -1.42162249909891
C        -3.80053995365806    1.12503259546350   -2.07284322220292
C        -3.26857064708487   -0.16002273194975   -2.48089288527377
C        -2.87658260711974    2.18331262654330   -2.01924565627128
C        -3.49545350934952    2.70977079843132    0.27639189249984
C        -2.82051533738771    3.07512628189922   -0.90980900282752
C        -2.81792061255082    1.25301618774250    2.18613758405996
C        -2.67574760181594    2.50750549430322    1.46245497869867
C        -1.63746835673315   -0.91052923693994    2.38113739139068
C        -1.62724134350926    0.50291252329276    2.53292728981342
C        -0.38648911184336   -1.61200208471417    2.29007333586834
C        -1.44490094296937   -3.05768698523463    0.61500876485143
C        -0.35469106118760   -2.84062904214976    1.52207509569944
C        -1.87003570234547   -2.49544092919047   -1.72166881123902
C        -1.12969751964441   -3.26002691053598   -0.76313068978770
C        -1.85796096017494   -0.30883068416454   -2.77872047200245
C        -1.18536773269193   -1.54102958889120   -2.53738766113424
C        -1.55547430910123    2.09133879129758   -2.56142179508131
C        -1.00010359494864    0.85221779995494   -2.90740448878336
C        -1.52250593633322    3.65122752480117   -0.86905380719549
C        -0.75386644423534    3.11480918848110   -1.94505654888147
C        -1.43655138441911    3.10762795828525    1.48595924918781
C        -0.89386054492311    3.82024945983397    0.35330975242208
C        -0.36865004744936    1.17904985046421    2.60470755308136
C        -0.32189503234135    2.52376725929062    2.17725171072396
C         0.85012315366575   -0.95922708064385    2.58127377506520
C         0.87040861539826    0.47576358783081    2.69849622556344
C         2.09733745859490   -1.64181024109009    2.30762582901784
C         0.86573855724312   -3.42716334428749    1.17735456305774
C         2.10760825213999   -2.84157681210082    1.57864740175535
C         0.16279001042160   -3.58773285056822   -1.12838106714073
C         1.06394217520974   -3.95746138200475   -0.12949288773259
C         0.25119246138743   -1.66758133058411   -2.65492127165726
C         0.86892630115718   -2.81080043097382   -2.13140602763822
C         0.43901035475256    0.74944911591602   -2.94000227714549
C         1.08848312882819   -0.52624917270126   -2.90588044245403
C         0.62346487739670    3.00640400713903   -1.87270250300428
C         1.21197771681808    1.91148717116707   -2.59593163361463
C         0.51909778188901    3.75541910799402    0.42250233035605
C         0.86649654688506    3.06034955954949    1.63576447458748
C         1.31218969209536    3.48910773284599   -0.69910645257718
C         2.10005975072902    1.19898203550302    2.50593635257069
C         2.10701084269864    2.45328445669211    1.80651405048022
C         3.31482664952232   -0.93576111102955    2.27760947818934
C         3.32307803209386    0.49098727335589    2.48302954933991
C         4.37903419398892   -1.26004843572364    1.38185736196567
C         3.06350882929785   -3.00692812182918    0.51450135128626
C         2.37664678973897   -3.58183013808008   -0.56637105542636
C         2.25544033080447   -2.83420686988433   -1.76638063759615
C         4.09430242520696   -2.08333436664983    0.26313846744876
C         2.51097400240672   -0.62875288840316   -2.69272526340034
C         3.11018098977318   -1.74043383771408   -1.99465373914274
C         4.22964978380652   -1.54586687345725   -1.07972174967834
C         2.59220806005659    1.82183745054780   -2.50895707601542
C         3.26208692527007    0.57009869543071   -2.69840709228287
C         2.68629675326242    3.15645954247877   -0.46914381853507
C         3.14617496928318    2.80327868766528    0.85619460755903
C         3.36145894733568    2.61799496256947   -1.58491349223107
C         4.45638003038398    1.03545631114276    1.87851280477300
C         5.13652448900136   -0.07062330835453    1.19525740102701
C         4.38882372979903    2.14627562734427    0.99205257995058
C         4.98905606212412   -0.35649350510574   -1.21886596761967
C         4.52096512276650    0.64354959616286   -2.09097724183913
C         4.59592650707270    1.94836480139943   -1.41222558421565
C         5.50353083205739    0.33773627858191   -0.05968681637790
C         5.14771873701318    1.77279233058473   -0.16549737141171
