68
C68 Isomer 4257 Symmetry C1
C         4.65667053842328   -0.69920809952762   -0.80715080794490
C         4.35616450065705    0.60397681328433   -1.22603193313343
C         4.25875643459893    1.44533305458653   -0.03140088471073
C         4.56770984168881   -0.74135226760689    0.66342162746633
C         4.31554511413677    0.57750829260607    1.10555926592931
C         3.68946241966052   -1.79724687549621    1.01972121019079
C         3.89836386510643   -1.74533389014957   -1.31955464808885
C         3.41205270594111   -2.52061408821783   -0.18163612618051
C         2.79384797629775   -1.50831772312696   -2.18547559742796
C         3.24233208431778    0.87178123255920   -2.05405331226219
C         2.41786315806215   -0.18596109582375   -2.54738500950763
C         3.19671471464378    2.32952573944496   -0.20519362625062
C         2.60146583187978    2.04348924213088   -1.50096636170991
C         2.33262011744762    2.67295778011174    0.87076231657526
C         3.34552315689918    0.77032033186841    2.10237890354106
C         2.50258287980988    1.92611776255020    2.06056595857985
C         2.60856387805314   -1.58861110890476    1.94504072203372
C         2.55387016313342   -0.32768205232994    2.57945094930884
C         1.34785442953858   -2.26744580051821    1.75649211121498
C         2.12464703669336   -2.93519252698402   -0.46515065066331
C         1.74958888718131   -2.39493569807966   -1.76593423894306
C         1.13065230027405   -2.97866140061065    0.53759239478515
C         0.41983674794035   -2.18076037243414   -2.07345535785143
C         1.02350167943757    0.08745232042448   -2.78481001043656
C         0.04455303087090   -0.95677454664221   -2.73103128989067
C         1.28840067359749    2.35908486961190   -1.77242047916608
C         0.55281822905505    1.44543059209698   -2.63456991989705
C         1.03813586535304    3.22112826700768    0.54614018996631
C         0.57642747034845    3.20759310717865   -0.82439606047670
C         0.04802294154608    3.22366311724578    1.54698116361886
C         1.34437526393908    1.61767906758484    2.84017601324661
C         1.30862371327985    0.20805978818286    3.06826067191119
C         0.17573970413498    2.30510523443703    2.64766580951060
C         0.15777816357308   -1.81089094644374    2.45080278518868
C         0.10007162298549   -0.48738449377602    3.03371886163708
C        -1.04889666584557   -2.43413109897110    2.15834167798834
C        -0.18182600555279   -3.28402690558963    0.05562041088360
C        -0.54092688550029   -2.94271882725490   -1.29874723460045
C        -1.18895797050416   -3.32238969821318    1.03498596936037
C        -1.89170994729909   -2.76511012926164   -1.61164786151234
C        -1.36799056470190   -0.65952581634628   -2.81478745709612
C        -2.31412944010585   -1.57405188651730   -2.30641921309134
C        -0.79808175173323    1.71366787234494   -2.83312258773457
C        -1.78316339491489    0.67807923904085   -2.93033184541922
C        -0.77551797877726    3.45950002749569   -1.07874818497648
C        -1.40167603499946    2.82845245111046   -2.18924048771567
C        -1.34869998869336    3.32345242824980    1.26018940095683
C        -1.77263261365047    3.53048574498895   -0.03717167303586
C        -1.07744860275486    1.65777321631309    2.86347230495392
C        -1.15075204641518    0.25846946398773    3.02310245390363
C        -2.05497699525970    2.38617292240028    2.10545125484259
C        -2.33574502143038   -1.78115312369257    2.34978567486751
C        -2.38025230337304   -0.38169042235845    2.62876206741282
C        -2.54990073394996   -3.32779499939252    0.66136361732873
C        -2.89802581237361   -3.08041999602012   -0.65866531972426
C        -3.27062506946834   -2.37393331376559    1.49761137850652
C        -3.53772039716419   -1.11374293988232   -1.69303394503236
C        -3.90376989583247   -2.02879723455256   -0.68880284746956
C        -4.10511124313472   -1.58359881471215    0.64611570717766
C        -2.98751292745175    1.15263832087012   -2.29991857872160
C        -2.73613441914939    2.48031053553880   -1.85991325176644
C        -2.98078973649890    2.87607544925319   -0.51431026981502
C        -3.77971068954304    0.28534177820397   -1.51233335838148
C        -3.17884436229166    1.74201639476308    1.63994282272660
C        -3.38717849129495    0.36204379278594    1.96647193707013
C        -4.14679636104871   -0.20452239384566    0.88213806748871
C        -3.66147675619593    1.98637961530101    0.30260019497494
C        -4.15015603359702    0.72591472148776   -0.20887546451316
