72
C72 Isomer 5452 Symmetry C1
C         5.07687821914148   -0.68975925726844   -0.66573552148986
C         4.44612165465654   -1.90645729828388   -0.63254812923015
C         3.51101047067120   -1.98477974831368   -1.77107486612967
C         4.54314658125920    0.02008866638642   -1.85502016425019
C         3.45353946480056   -0.73530504088623   -2.42289258865015
C         4.35424286136139    1.32370015227974   -1.50356097926817
C         5.00775895698574    0.20440616870381    0.46110969822019
C         4.70379210483598    1.49502139429073   -0.08295873259390
C         4.30005197471991   -0.20993962542028    1.60361006555536
C         3.73774827772428   -2.35437256959284    0.52724429825945
C         3.68790748552367   -1.51023399011869    1.64578047662528
C         2.35191924728532   -2.61738551714120   -1.33320125188665
C         2.51208542505327   -2.92608213801515    0.07863606726779
C         1.09997737886052   -2.20069263818218   -1.83441185869704
C         2.18403136416722   -0.12491626366306   -2.65486118992338
C         1.00376110642380   -0.94347351752828   -2.51414785430993
C         3.11417140331022    1.98073910531985   -1.76068935988366
C         2.03242759605047    1.28733401787053   -2.39141359658703
C         3.73991114659722    2.32167123901225    0.46764854923900
C         2.85316302588978    2.76031609653978   -0.60938867312275
C         3.37798864815585    0.70087840769951    2.25410368098274
C         3.13049872773995    1.99258575592975    1.72537785975777
C         2.44919356338212   -1.39659835995910    2.36794634672506
C         2.28113731893222   -0.03944831794523    2.79267391047979
C         1.36426810452475   -2.92710777245731    0.86030150491808
C         1.31135404576493   -2.14313349873295    2.06360531570995
C        -0.03757147409402   -2.76408646863217   -1.17920100923206
C         0.14632721376046   -3.19974304871256    0.16296657655729
C        -1.33990904245289   -2.42824729319181   -1.65910763049778
C        -0.29774307716455   -0.35936151902372   -2.62631908609373
C        -1.46597049111864   -1.20558447833349   -2.42233815349038
C         0.72995950960936    1.83796321069052   -2.22189512717309
C        -0.43128732949452    1.05830090861565   -2.57917487537929
C         1.57256895756728    3.24183774818327   -0.35417435598027
C         0.55147224270938    2.95934722413234   -1.33658606557519
C         1.87791103397595    2.56205162857238    1.98252165291415
C         1.20075024401546    3.37201726006953    1.00311987423831
C         0.98791163135292    0.50945492258225    2.98752045926302
C         0.85777798935727    1.88220490505392    2.71790607653989
C         0.01655478446857   -1.68447399356376    2.53406954994984
C        -0.20020706552363   -0.30641608820758    2.91369615231780
C        -0.98265508714474   -3.29708364777728    0.98432022038101
C        -1.07568114531195   -2.44837568854797    2.15707777428699
C        -2.45349542191871   -2.90453215272219   -0.92828783202219
C        -2.23733255731397   -3.35055607209277    0.39897128198652
C        -3.71882536213523   -2.21417960193293   -0.93305483467998
C        -2.73736929176784   -0.63684854171126   -2.52484186139952
C        -3.88802553988728   -1.17774484183899   -1.82741762957634
C        -1.74186956090004    1.63621598674560   -2.43890624216071
C        -2.88939037206122    0.79913073570739   -2.55906861586951
C        -0.74898422355171    3.33967317540340   -1.00072937725781
C        -1.89368573322696    2.79107349776347   -1.64894396760775
C        -0.16912121550913    3.40274667827184    1.34780698854107
C        -0.41327677658795    2.42393438173080    2.37442615343023
C        -1.11186350263449    3.58220282644900    0.35949491773384
C        -1.50142159252247    0.27550315523298    2.73166354957177
C        -1.59626423550880    1.68048306651368    2.39734642178739
C        -2.42061234280176   -1.95701144422675    2.22423721720827
C        -3.18076945657346   -2.65838399569076    1.25782943057081
C        -4.14487164017709   -2.03589912394880    0.45890126605280
C        -2.64913503151499   -0.56855389389593    2.43711768483250
C        -4.60392897720812   -0.78399027824476    0.89136282018495
C        -3.81304514874785   -0.03559350379484    1.83633500907924
C        -4.71574104969806   -0.07342688321331   -1.44156255663755
C        -4.10754389612427    1.14373629338066   -1.94925810072131
C        -5.05741614879650    0.12370634427727   -0.10834970765021
C        -3.00920196520297    2.90960696022894   -0.74557770733757
C        -2.44262551571382    3.10961726272406    0.56547446235595
C        -2.70683628123155    2.18190852492081    1.59709578838333
C        -3.84566178553479    1.35318681189578    1.40966002965837
C        -4.12564916356316    2.11473684450628   -0.90129961710018
C        -4.64533125991512    1.46939675512791    0.26503998789916
