80
C80 Isomer 10729 Symmetry C1
C         5.41045058014158   -0.70893066155286    0.03557035778734
C         4.70509973912574   -1.93309021102493    0.19540386552252
C         4.03184705701471   -1.93990352683123    1.45489697144725
C         5.01039021006083    0.12852674233059    1.11539901014943
C         4.18080689549114   -0.61579574376997    2.01113651730912
C         4.45747962371285    1.33501193698414    0.60793506118316
C         4.89754178850559   -0.09608184220388   -1.15120238382890
C         4.43521853958971    1.20918002450557   -0.83682022432117
C         3.87576061640000   -2.14456527463502   -0.94015077910530
C         3.95804008413792   -0.96339727833457   -1.78386101177512
C         2.65967996988084   -2.82353072996430   -0.82472427572753
C         2.82652610113539   -2.65895207158661    1.58955977710535
C         2.15273535960931   -3.22713623792126    0.45573768548405
C         2.01164211686281   -2.23627164081051    2.65018618759593
C         3.08331211452583   -0.00005282654668    2.66339764666419
C         2.13697944079558   -0.90771366812222    3.15886883322185
C         3.37734549085981    1.98043344359533    1.27716455058508
C         2.62511155082095    1.33007913561732    2.33044140236249
C         2.73543775141098    2.94506430886911    0.50842124719807
C         3.39426289968466    1.77336289095526   -1.58503637701866
C         2.83030666675742    2.90302587973882   -0.93960649279333
C         2.80821614824030   -0.45442572110083   -2.42182440168710
C         2.55330487617906    0.96210148279843   -2.43503580743708
C         1.75101694234034   -2.61921068133502   -1.91551134285606
C         1.72528572937170   -1.37580902081222   -2.63723221223773
C         0.60067009401133   -3.41026273082567   -1.85808119544220
C         0.76157327488264   -3.60110494230769    0.57664656314108
C         0.06069656274562   -3.85483130427773   -0.59408113403510
C         0.64735733053624   -2.63563506407386    2.77226598439853
C        -0.04008723148981   -3.28983848869776    1.74533788878517
C         0.85563073262549   -0.46992564909805    3.58527212281811
C         0.00710585014035   -1.62006599197856    3.54178030751215
C         1.25418681583133    1.70722808646534    2.56756788142033
C         0.36383198597148    0.80382444221641    3.26666001861982
C         1.43554100583557    3.43728569604032    0.85488722370894
C         0.63700128344514    2.77267958549665    1.80784556009428
C         1.67567937464332    3.45847407072122   -1.44993294610499
C         0.85798165565147    3.92023753773033   -0.34347986508425
C         1.22257591907909    1.42372710778744   -2.75433561535433
C         0.84547281658262    2.72086812343195   -2.33157491837637
C         0.47365146212162   -0.89712980289496   -3.14910460219743
C         0.15465022754758    0.50826834543490   -3.06956571853753
C        -0.46609589504341   -3.11360606473123   -2.70025953714488
C        -0.59096679412943   -1.82503185159664   -3.25120689564653
C        -1.38408703057124   -3.76504206904280   -0.67763492859360
C        -1.69212406545448   -3.42825489474742   -2.00555177495104
C        -1.48528918370413   -3.10420264389838    1.63906102967201
C        -2.17779068691141   -3.26545889768138    0.38289606801399
C        -1.33836215072082   -1.46585667178962    3.46581055156067
C        -2.11467886122938   -2.28312044453013    2.58644015740592
C        -1.07562353776234    0.97164704403651    3.24003686977174
C        -1.89166244745109   -0.14998155073704    3.50157485159112
C        -0.80266303997227    2.82843745338200    1.62270365237951
C        -1.66185334898612    2.02644532595559    2.44852963017200
C        -0.46273169718426    3.65825431733864   -0.64892062796223
C        -0.50045747915926    2.98666370301365   -1.93347430650694
C        -1.34457291676402    3.26324433406227    0.37281959752829
C        -1.22205023835808    0.90273353489095   -2.91370415305011
C        -1.53857524583309    2.12274190831493   -2.22287615433805
C        -1.95724714468909   -1.43218724330016   -3.08737457915731
C        -2.63149693456607   -2.43227080712123   -2.28605915660059
C        -2.27487181769625   -0.08095194690952   -2.93774866998384
C        -3.37084673994997   -2.50220592020586    0.06726347091779
C        -3.56446691404296   -2.07993841986886   -1.29905441885595
C        -3.32190286277840   -1.56851093781813    2.31885890922243
C        -3.20801671408988   -0.28976726623027    2.98140942354062
C        -4.00754387494444   -1.69943453105370    1.09656888432674
C        -3.03058567534122    1.97870295554090    2.13377855680002
C        -3.84529395586719    0.82381112352651    2.46714146662178
C        -2.63274428708018    2.85771211972788   -0.10640211550631
C        -2.74861212351424    2.31097026358834   -1.44079462303590
C        -3.54964293255733    2.48017003255236    0.88813366751130
C        -3.52182105083187    0.18303847970318   -2.33503219188414
C        -4.20911868155193   -0.84111038782121   -1.57743769331103
C        -3.81462735440215    1.44132389395270   -1.70933984110542
C        -4.87510508269092   -0.60952478932684    0.75040188860274
C        -4.82106097858455    0.61340076461339    1.48124369141330
C        -4.69545234151779    1.71903080446325    0.54034259128203
C        -5.00781131077370   -0.23171756240856   -0.61585798491004
C        -4.82646405611113    1.21112911214319   -0.73950666598418
