80
C80 Isomer 20411 Symmetry C1
C         5.00930322748055   -0.53802351009995    0.71939282663638
C         5.06603015661110    0.41235405023328   -0.27808136834071
C         4.67958612015024    1.69594930751771    0.29774925503513
C         4.43986387292890    0.11787845153914    1.91785552664375
C         4.14934116555656    1.46532042919016    1.60110895286914
C         3.46807972113197   -0.71597362758064    2.44503793368646
C         4.35154396523159   -1.76000359117759    0.50911037651606
C         3.58106919255457   -1.97062391123199    1.71828061057816
C         3.74974502584605   -2.06643397596660   -0.73848112704926
C         4.34553944447110    0.21370204786406   -1.49086226195011
C         3.71167628737672   -1.02059451007519   -1.74642061431443
C         3.91387992204769    2.34897928268740   -0.67158651389450
C         3.67762012033082    1.46461844521061   -1.78770874814443
C         2.86893034206857    3.14594090275548   -0.22412429554323
C         2.87145484656843    1.98952657131991    1.97446679875727
C         2.40326280664394    3.00899571009508    1.12831811066379
C         2.17439485460227   -0.23919129330395    2.84817290927863
C         1.87708543062185    1.14724852114468    2.64312442892452
C         1.10383380872214   -1.19177241602615    2.92996968043526
C         2.53624857003793   -2.82369109094957    1.71953946689569
C         1.34789871672896   -2.51710470215292    2.45937362082113
C         2.70737679075357   -3.07432324245039   -0.72081178282676
C         2.18560250760286   -3.53734829954080    0.51798763252192
C         1.83003893541206   -3.15552957201704   -1.81284854241329
C         2.61770051809158   -0.97749998591491   -2.69095881043057
C         1.82129890023212   -2.12699203390225   -2.81112850437038
C         2.47063494569601    1.51815933853485   -2.49094479129927
C         2.03854512380736    0.28354359729574   -3.10074653273480
C         1.74248626300718    3.35721379038895   -1.05241784765480
C         1.50192558810765    2.56229497873511   -2.18516231156569
C         1.03525068908899    3.37843119928324    1.13396064893205
C         0.64569500958152    3.70652208305569   -0.18964591176711
C         0.49936263714449    1.55524096849033    2.69184280792529
C         0.12364436403539    2.77741047358320    2.01976823675204
C        -0.25874079890969   -0.77631248740653    3.03493468398869
C        -0.55669767710575    0.62528260486949    3.00334743394943
C        -1.31231252693460   -1.75370518502585    2.78208329923747
C         0.33905475581440   -3.30302407662095    1.88561548532541
C         0.83932437814425   -3.91655632932734    0.67204394758606
C        -1.01208435077261   -2.97771795197363    2.06094368615545
C         0.49577067255871   -3.66664107904110   -1.69526196759464
C        -0.02224426328267   -4.04203482922466   -0.43967793679235
C         0.50217242844996   -2.08575327952924   -3.34384859149088
C        -0.34645170347550   -2.99097879674943   -2.63114369524413
C         0.75495671035856    0.29037850593790   -3.66230177909338
C        -0.02164902648878   -0.89657601213076   -3.79164792374125
C         0.12915095308669    2.45624026167733   -2.62557761598690
C        -0.16618034395776    1.37401227093723   -3.45773792825592
C        -0.68232041491433    3.64624246740706   -0.60266736734828
C        -0.96719937046955    3.07214846530420   -1.89174770098975
C        -1.21532605863662    3.05211045075241    1.71805316900576
C        -1.61854743953766    3.55215054750554    0.44885860742556
C        -1.94606533461750    1.04284016841170    2.89595768063902
C        -2.27426896443310    2.26272013990841    2.26225955454939
C        -2.63662777772093   -1.33698474256740    2.75297940613483
C        -2.97278367507941    0.06408678932988    2.87447967121118
C        -3.59280285419030   -1.94608842090602    1.85957774799665
C        -1.89791421797190   -3.47346887784784    1.08972660545511
C        -1.39688761339019   -3.84351856305026   -0.21801453444802
C        -3.15959590838022   -2.86663564497784    0.90889419678320
C        -1.69643899594296   -2.66935250683604   -2.35423565107730
C        -2.23447342695709   -3.22688632009557   -1.17404370635686
C        -3.34953649897294   -2.61610795564742   -0.48669293932573
C        -1.41183310716030   -0.59884136620561   -3.59076402824171
C        -1.48493015066412    0.82282791636614   -3.52035535078026
C        -2.26237443308287   -1.41765352523132   -2.82789974154616
C        -2.27618757978794    2.59477661195497   -2.07176771821149
C        -2.51987369301560    1.41386108386092   -2.83815393257295
C        -2.95572379994989    3.10009589975550    0.22244347275952
C        -3.40622243025779    2.40838379682280    1.40125461903971
C        -3.27005198999630    2.61298253740441   -1.03166978097887
C        -4.15938792011588    0.27859188342583    2.15003002314861
C        -4.46626911251538   -0.94431964362458    1.41673666571001
C        -4.31673898043091    1.36562476256622    1.27590497197945
C        -3.94449560197091   -1.42928125707276   -0.94125875809267
C        -3.36799480080123   -0.79121844404659   -2.11557429981365
C        -3.51727399929350    0.60309504532673   -2.21253297349381
C        -4.06817256364341    1.40703728897163   -1.14808672909521
C        -4.60126961058862   -0.63055942893545    0.05354544032255
C        -4.61443075326857    0.81850283904322   -0.03613757740426
