80
C80 Isomer 3052 Symmetry C1
C         5.79292462758693   -0.52874215641926   -0.80258250072262
C         5.24433410831599   -1.80796998411175   -0.43151155861612
C         4.98115052529701   -1.77622152041900    0.94437644131018
C         5.66830913158366    0.35173902071042    0.34172554483147
C         5.20374027693947   -0.39667807145666    1.42233528744067
C         4.88824856758462    1.50317016483845   -0.02353756297040
C         4.92074484637595   -0.00030346897384   -1.77481306135991
C         4.47092536152807    1.30153967286659   -1.38650172291067
C         4.12324499250890   -2.08899202554232   -1.30124534538396
C         3.90090399850832   -0.94430757589305   -2.14073924525318
C         2.99069812361978   -2.73331695837907   -0.80203578203990
C         3.73927009377027   -2.19802155773735    1.44705853365576
C         2.81518207239892   -2.86504445790451    0.61812372013745
C         4.04621962540202   -0.01197495855627    2.15783486739385
C         3.18993038149578   -1.15501228410726    2.27281158211937
C         3.95225764575346    2.04603746621282    0.89041153794205
C         3.44198930544887    1.25465554481195    1.98891391730125
C         3.04633615223911    2.93289209349930    0.28440826973406
C         3.23414065709741    1.76713645920839   -1.85778989675621
C         2.73587068713222    2.83406258655360   -1.09455467525648
C         2.59315162257745   -0.50934465725314   -2.50500831874900
C         2.27258144232475    0.88539662746753   -2.49759663781371
C         1.80005990665735   -2.59977100907006   -1.59789297207267
C         1.51975366797719   -1.44881010759435   -2.39176268574986
C         0.72251586595319   -3.32725749594127   -1.12819596237056
C         1.49656103501305   -2.99676206537676    1.14114845206909
C         0.59464163908701   -3.60249638469282    0.25883807019254
C         1.80930211975082   -1.03193938535119    2.51186949430845
C         0.95337281078368   -2.11013758643141    2.11986977118353
C         2.06646582810251    1.40833060613408    2.39419295861297
C         1.26028025443769    0.26821080927027    2.72601199173002
C         1.87009800866203    3.37743169529167    0.94318364085523
C         1.37936623140292    2.62457299749334    2.02722555914166
C         1.41696821155324    3.31099161968067   -1.28859279539180
C         0.93999007010828    3.83381789333424   -0.05221215737698
C         0.90434334232583    1.28550367060385   -2.60472155385015
C         0.55107141102184    2.61138001485415   -2.14508594156698
C         0.14589359249356   -1.06323713197180   -2.61806225999601
C        -0.15842488580085    0.31767864310613   -2.76555409394508
C        -0.58856923808748   -3.17340150391194   -1.65853886749844
C        -0.93347786362989   -2.00409157391411   -2.34393787975981
C        -0.77635797025373   -3.73099575129577    0.56688699724053
C        -1.47535080660277   -3.73534303861616   -0.68367211421287
C        -0.47406818395945   -2.01652610783630    2.28701139924132
C        -1.31364576283672   -3.01470472060473    1.66052127707172
C        -0.17821713168437    0.36051255537896    2.85936312961317
C        -1.05589844958407   -0.78105456425483    2.69483028401204
C         0.00188535568956    2.73204243586028    2.28009679268066
C        -0.74727557865736    1.63482718517437    2.78915012064328
C        -0.43077710203864    3.93345854410422    0.20461556243711
C        -0.88247994833079    3.51076184982128    1.47562631965079
C        -0.79764121644073    2.94920231415093   -2.00046139889356
C        -1.29140796589876    3.68043490680824   -0.89422954796168
C        -1.56410215937527    0.73551695180084   -2.73053412790924
C        -1.83554592041154    2.07591866789577   -2.46042080306051
C        -2.33439410197387   -1.60747741863273   -2.31984646689029
C        -2.65994416098122   -0.21355988270808   -2.55216422134505
C        -2.80693344765170   -3.42870674868422   -0.72637916852915
C        -3.27103810805371   -2.42041150379866   -1.64901013115707
C        -2.70996601703233   -2.83091378611944    1.63646494021999
C        -3.46267535648371   -3.24063101965274    0.51229173395832
C        -2.50134790594497   -0.56820219006100    2.56342855323828
C        -3.31234574590004   -1.62143930792327    2.13592320430512
C        -2.12162884637143    1.84640443205949    2.45607136516695
C        -2.20183925120586    2.99265808384901    1.62919435107019
C        -3.03785733865756    0.78089224348136    2.38725730680958
C        -2.67308311861993    3.33564094627373   -0.71053859387053
C        -3.03894651312329    2.49657181054244   -1.80580051508291
C        -3.16757856179148    3.03670812454807    0.58302313317247
C        -3.92620759593545    0.25794420976367   -2.15389065011869
C        -4.09543844698945    1.61813277343429   -1.69868291070960
C        -4.46513246897667   -1.86296026826320   -1.05035995118127
C        -4.53943937458691   -2.30841401607855    0.30259183854364
C        -4.52347539702785   -1.37883652156066    1.36307710498764
C        -4.80563859035268   -0.55085517881616   -1.32799417853285
C        -4.21012913227072    1.02584302633481    1.64874917792992
C        -4.23732322927262    2.11862466372162    0.68822466865578
C        -4.82916944376205    1.60845201795747   -0.48775157849000
C        -4.93590564215148   -0.07689334158268    1.08313638464174
C        -5.26504561779933    0.25566395860006   -0.25466544989408
