70
C70 Isomer 4460 Symmetry C1
C         4.46063454493942   -0.82879792700636    1.37920084863155
C         4.63994264470011    0.36028255424286    0.73285622555863
C         4.67578165087617    0.12116953259936   -0.72311819464994
C         4.40732894320598   -1.86707692664827    0.31945980012084
C         4.30805399547668   -1.22139752269471   -0.96777729753794
C         3.46647570148143   -2.77221053319683    0.69827336286260
C         3.34090984386044   -1.00893425201113    2.25914575854970
C         2.87732245300626   -2.32458848754073    1.98073670612143
C         2.38286039880982    0.02834608510017    2.45132473925667
C         3.79129806244717    1.46965818973050    0.99252850508342
C         2.67629779476132    1.32542313381059    1.86555358590403
C         4.03917452683997    1.20568839484660   -1.33142902837751
C         3.63355776497019    2.12837066369827   -0.27808630885522
C         3.12209785674405    0.94153898054286   -2.35396467773176
C         3.18267502957168   -1.49923312936359   -1.81721364917924
C         2.67902074779450   -0.40403181898270   -2.56755536450282
C         2.39584164859179   -3.14741370233277   -0.16956381085059
C         2.20398954013168   -2.50022168060445   -1.42420468367882
C         1.53553415056451   -2.61805637023465    1.94282948016587
C         1.27479352682767   -3.30270539185995    0.68482166594139
C         0.98548537798421   -0.34389777801856    2.64801880019898
C         0.56303900736644   -1.68827395558274    2.40081124365767
C        -0.04654704327835    0.65956158124326    2.68965592247350
C         1.59738928803413    2.25872332105817    1.69744699863005
C         0.30766179666610    1.99797976610500    2.29740495494042
C         2.55006226958647    2.93809467803802   -0.47488944970587
C         1.64406803839498    3.15220268125435    0.60588317854903
C         2.00689175710203    1.82255516032374   -2.56281085830026
C         1.77726579227670    2.88815703644881   -1.69935409410053
C         1.30799561321130   -0.32801282666985   -2.97344803069482
C         0.88583663600082    1.05823929539961   -2.98801238284695
C         0.84732639069059   -2.44075007584788   -1.90309535197316
C         0.38983770744657   -1.33470958128343   -2.71550129140052
C        -0.00304031906881   -3.37107677020265    0.19939433810451
C        -0.17909517061421   -3.14101288387069   -1.20209056118556
C        -0.79479856439032   -2.03987127984250    2.12060633393097
C        -1.05930428559674   -3.07204656466514    1.13744753040118
C        -1.43769248159859    0.25236022573502    2.73319544831012
C        -1.82238850108385   -1.11373490584660    2.45194834783134
C        -2.44592767554030    1.23567491775038    2.53737071838125
C        -0.73554544509180    2.89443975654239    1.97410432301292
C        -2.06915561591679    2.53184679253604    2.17081948741119
C         0.43455793478053    3.62598730864592    0.00146563781306
C         0.44730172837416    3.27855585190831   -1.40375629096186
C        -0.71465811235560    3.61195476572752    0.71604129385230
C        -0.43589375666912    1.43707260842053   -2.72148866837615
C        -0.68251759629323    2.63233325691221   -1.94392438116452
C        -1.01768435819988   -0.98701018423440   -2.83089573644209
C        -1.43554258283974    0.40043634757162   -2.80090244207939
C        -1.51544428285616   -3.05005392320640   -1.63899389504925
C        -1.95403782548023   -1.96144491313573   -2.48998838595864
C        -2.34903071830170   -3.28685660210939    0.66358809153764
C        -2.55327189246028   -3.38425388438385   -0.76646136846917
C        -3.14748346716941   -1.40435251894116    2.00247627702654
C        -3.40744198284135   -2.51560935875472    1.18966336720647
C        -3.66783628759322    0.94707472245184    1.80154859887762
C        -4.02403278924143   -0.34104807242688    1.54848243140279
C        -2.86019982306253    2.93852323854867    1.01059562820222
C        -1.97081428148421    3.40494543935934    0.03369056755749
C        -1.94841635950247    2.79672055498795   -1.25966155157312
C        -3.81524912266439    1.94642666155964    0.75470270003192
C        -2.73037482315337    0.70498442974301   -2.35593372789758
C        -2.97587615451819    1.87304804790501   -1.53566083527343
C        -3.96224857741789    1.50607184796752   -0.56680270547271
C        -3.30718576963010   -1.64883925100795   -2.12609673666581
C        -3.70307588872661   -2.57027037408778   -1.10093873341827
C        -4.25786922926970   -2.09349646179403    0.08034594728313
C        -4.57351245640488   -0.71675826171766    0.25364684751395
C        -3.67028350679320   -0.31180147483931   -1.99288426081584
C        -4.38183341640723    0.15040181623037   -0.82058093714505
