72
C72 Isomer 5439 Symmetry C1
C         5.01449047098688   -1.34585922554152   -0.36657305119136
C         4.24231118160730   -2.37282135628029    0.12633998112307
C         3.28649129718773   -2.77361755094496   -0.90600222411290
C         4.54566507089898   -1.08891725084089   -1.74301576333878
C         3.36678172933314   -1.87391764208391   -1.99969573287874
C         4.48552973974149    0.27193853296896   -1.90036482538407
C         5.07635831556431   -0.08905217227402    0.33537121965673
C         4.85945910046762    0.92864512761874   -0.63391310039870
C         4.38473552186543    0.04579296910534    1.54933253735860
C         3.51737316817493   -2.25288671497998    1.35737296987238
C         3.63345481102867   -1.07425753847799    2.09148151982497
C         2.06594334187107   -3.02515712147219   -0.28361635564388
C         2.19460805931865   -2.76586132122381    1.13531211818940
C         0.87113258235479   -2.70565865034313   -0.94950619860291
C         2.17099885686063   -1.26738573505412   -2.48659448290534
C         0.90950930336518   -1.84352483399302   -2.08602835036915
C         3.33028640276061    0.90637777842870   -2.42433908797354
C         2.17880153394098    0.15185637110721   -2.77587806155960
C         3.98430539790817    1.99401002209112   -0.43354993751442
C         3.17476984499516    2.10272349854014   -1.63799648012452
C         3.61590405468028    1.23382610810721    1.81399885968279
C         3.34867065345724    2.21778048426323    0.83129846890669
C         2.48095581206072   -0.56835392826874    2.77999771659795
C         2.56230397641753    0.86217701278444    2.72080962786937
C         1.08089560323392   -2.29905439618510    1.82928315062662
C         1.21579301792767   -1.19252359283683    2.73454421794413
C        -0.30990134528266   -2.77845524908736   -0.14803258757900
C        -0.20193406095039   -2.55649714806017    1.24346340629540
C        -1.55935831558104   -2.63189298217376   -0.82231636393160
C        -0.33342009694232   -1.22233353790643   -2.44989583685926
C        -1.56787973987762   -1.83989767156588   -2.02495806381573
C         0.92254120942465    0.85318680513954   -2.80641898758319
C        -0.32551720951001    0.14653171494806   -2.82570761418131
C         1.96117396596088    2.71568409157115   -1.58728668134701
C         0.87310939666591    2.17944180067198   -2.34437933940467
C         2.07261088193438    2.92200610765711    0.85682029231293
C         1.43993563425794    3.26830205549987   -0.36233154094386
C         1.41364382538255    1.60738237405622    2.82041247592022
C         1.17083733299865    2.69959947646071    1.92490484501751
C         0.02944635774359   -0.41762507539846    3.01451556485994
C         0.16635287002675    0.97238509127454    3.11512720293822
C        -1.37189134245290   -2.11358144679859    1.92896573003400
C        -1.28230718916310   -0.92317074443861    2.72339792938954
C        -2.71941378508498   -2.75115997986940   -0.06133892068254
C        -2.60151545473457   -2.48322897296301    1.35424224657858
C        -4.00828361520696   -2.27885116065707   -0.51189386521791
C        -2.78592379716415   -1.24699027529958   -2.37403149816129
C        -4.03781079007253   -1.51685390930175   -1.69269663344540
C        -1.55401202114607    0.87850760431797   -2.69978698407946
C        -2.75610785464466    0.15276038495918   -2.71637664394407
C        -0.31212246005257    2.69906389354321   -1.75821988681217
C         0.02663485685343    3.30947252287846   -0.50835115158573
C        -1.55500524539784    2.12723365809347   -1.98454601769740
C        -0.24677628687687    2.80907905778529    1.78775626368231
C        -0.86625538944468    1.81061650546476    2.60394774604237
C        -0.86992989356324    3.11668737877733    0.56514632949623
C        -2.41385276176257   -0.03584530905114    2.69546461408070
C        -2.15935015909641    1.35141667100969    2.37781925532878
C        -3.78330447293098   -1.85454201204665    1.75949982777049
C        -4.71833167014378   -1.81691107865186    0.64100820890028
C        -3.68099836117623   -0.55750946651986    2.33499026848030
C        -5.32888753692555   -0.55638084110755    0.65570508655782
C        -4.63940110412929    0.25253918710399    1.67429402370894
C        -4.79851183133861   -0.30316201468361   -1.69863194225656
C        -3.94094026303997    0.73786201933678   -2.24445184373570
C        -5.38007649273093    0.19881454424258   -0.52730397513265
C        -2.61140385548296    2.41586670051858   -1.04670144290639
C        -2.21743456377729    2.68434432819426    0.31400482308079
C        -2.94163723430866    2.01176596031657    1.35858720796800
C        -4.22384884704918    1.47187988799742    1.07104369131062
C        -3.86006073540698    1.81452501731698   -1.30530443455870
C        -4.73940939680929    1.49765516223048   -0.24822351954718
