50
C50 Isomer 165 Symmetry C1
C         3.10123267622790   -1.82888948438425    1.15895086580310
C         3.63819574855940   -0.73751364221802    0.42568912170574
C         3.30478994582066    0.46763696265355    1.13347106375202
C         2.24803543282775   -1.31838040593717    2.18105899549416
C         2.33655466712848    0.12095347677394    2.16979117224629
C         1.00723567754484   -1.96242408300107    2.05754032215003
C         2.35015721008094   -2.68507499285544    0.29451757596213
C         1.08107274372373   -2.87354918845509    0.88886495876288
C         3.27881281476678   -0.91510412472117   -0.94556662299439
C         2.44570074753126   -2.12526894458172   -1.02091658600613
C         2.90391614510098    0.22501481398667   -1.66775297483070
C         3.12471656237431    1.62257775733131    0.36488924724542
C         3.01304249740726    1.49265324625181   -1.05408306281495
C         2.11321612319437    2.53523155580151    0.78273235092102
C         1.16213115447445    0.87472229139321    2.36279265438641
C         1.14057668983774    2.16319751766883    1.71955211338327
C        -0.18519779910278   -1.26204191331802    2.35686955236899
C        -0.11786622072721    0.18428387835388    2.58217980179966
C        -1.37695414054828   -1.83392801069560    1.86764430173585
C        -0.05371892164748   -3.00971710564880    0.07939620295339
C        -1.30953318668637   -2.72745822249370    0.70818675310184
C         1.28952007878353   -2.09952162531499   -1.78708997663939
C         0.06983266485772   -2.68674650904965   -1.30824288380808
C         1.66532225125787    0.23660876447510   -2.44543610035063
C         0.90894314066189   -0.90826599079544   -2.52625407001954
C         1.88058193726380    2.30209363511787   -1.48611088386513
C         1.40127277637739    3.01780362531356   -0.39879218621295
C         0.99421855828194    1.50466071360781   -2.26581646882447
C        -0.11663508861886    2.69997159877054    1.25912652245892
C         0.01731610026416    3.05509459939823   -0.14015442626585
C        -1.31854459955340    0.89077728000018    2.41988588894549
C        -1.29658136431525    2.17639151238807    1.73197858443541
C        -2.60995121265309   -1.11876734033521    1.80736093652666
C        -2.58165220175971    0.26289563484041    2.08057675480716
C        -2.44890801714609   -2.52541493568326   -0.05039570976931
C        -3.33307179595977   -1.59747737370637    0.65879263636480
C        -1.02142578081092   -2.02946229738195   -1.96371630801531
C        -0.52223453767965   -0.82266089878894   -2.57426996217450
C        -2.30664154409957   -2.06913068772267   -1.41255582241316
C        -0.41537942658170    1.59636012673902   -2.09712087352184
C        -0.91103093707930    2.50880281613966   -1.07020038597293
C        -1.19903637114539    0.41205509683339   -2.41389317555310
C        -2.41651305108516    2.25030892977114    0.88383869216087
C        -3.29685845661002    1.13424972115183    1.19821620064286
C        -2.21198698095175    2.29254959092196   -0.52505299421826
C        -3.84693901564709   -0.70665786764298   -0.27352672604671
C        -3.11497825933471   -0.92485127126943   -1.54391566596105
C        -2.55698204585562    0.31958528770075   -1.95130193178468
C        -3.84533214761538    0.67294581859972   -0.00547958104077
C        -3.07144124113461    1.30888066401696   -1.07325789101055
