76
C76 Isomer 15651 Symmetry C1
C         3.91480250460228   -2.56346655239291    0.36483278759673
C         3.30067528076941   -2.61944129428798    1.59199361979480
C         3.46567976700014   -1.31488896483492    2.25433813210720
C         4.48774339093555   -1.22629208979910    0.21588955589357
C         4.14063638488271   -0.44713521458833    1.37367654536256
C         4.13282691600012   -0.77052014859910   -1.04348462555867
C         3.16499636296339   -2.88874184221130   -0.80907368972392
C         3.38352735458204   -1.82022378290945   -1.72742493235266
C         1.87955219733664   -3.48863553490903   -0.68523022553741
C         1.94952036962155   -3.04130063849557    1.72535738751553
C         1.24422371970024   -3.57009670485684    0.62422963868739
C         2.21874466695568   -0.97403717323502    2.78726882194176
C         1.31704235801229   -2.06752461990214    2.56578364763423
C         1.73626839005954    0.35092973199041    2.74522546001116
C         3.68569471119892    0.87894075096056    1.23490387187228
C         2.61773718570822    1.30594419093898    2.12366090105159
C         3.83414710549003    0.61176192920039   -1.24175548949643
C         3.77826149092864    1.47802949591711   -0.08269859597309
C         3.01204468946164    0.91418782058915   -2.34196934895019
C         2.40529733273340   -1.46692941627415   -2.67406319704629
C         2.24710725772399   -0.10482956946067   -3.00329997875236
C         1.01490597645874   -3.28404366786557   -1.77881434950383
C         1.25121531979309   -2.27286417628660   -2.75071120240945
C        -0.39674683067378   -3.45185073644946   -1.65922920356686
C        -0.18385513457533   -3.57551197634773    0.75034116692530
C        -0.99610342541569   -3.75484864303575   -0.42534264664801
C        -0.05128171587361   -1.86131208008886    2.54399379388058
C        -0.79702524711509   -2.86370864315065    1.83613588932027
C         0.31174011021727    0.56648492319423    2.83439602825007
C        -0.58851050212055   -0.54758377392655    2.80283897313394
C        -0.21243349161640    1.88858823228243    2.56549541247172
C         2.08602500821440    2.58604808895972    1.92598104998924
C         0.70059940437556    2.88615314729159    2.19684597112036
C         3.17248972969742    2.73644375795004   -0.25544718828209
C         2.51888910420066    3.35179539259215    0.82919503099791
C         2.23106816599268    2.11077824741283   -2.38963002248952
C         2.38176219635904    3.06345243693494   -1.41864382665254
C         0.96299189341524    0.42980037160264   -3.30996682300687
C         0.92907453782339    1.80055539804211   -2.92821196381493
C        -0.01906694163811   -1.73386719503863   -3.12782996469604
C        -1.03554123470503   -2.53849329364934   -2.53822949868430
C        -0.21577954982335   -0.35196266455538   -3.29826526928571
C        -2.33035492128263   -2.04104444452468   -2.32054459573772
C        -2.38555652817940   -3.53638618814104   -0.37602433141793
C        -3.08152368927295   -2.74484728901736   -1.35933032595265
C        -2.18805905145693   -2.71721677133243    1.88355469862979
C        -2.99154861594408   -3.26549464748420    0.87203065902420
C        -2.01174759612409   -0.35961582215554    2.63474999883314
C        -2.79845650796301   -1.48672599809222    2.33862386159682
C        -1.61739641421052    2.06949510662676    2.23773436536036
C        -2.54671132622156    0.95922863060283    2.33888602041288
C        -1.95669914835599    3.13619758784953    1.39079655180435
C         0.32463716993687    3.91317231258801    1.25137799202668
C         1.38350560527889    4.10242203563937    0.34242859635798
C         1.21481091362603    3.82345013237442   -1.02728193758405
C        -0.94661696361306    3.90125047239655    0.73104478932101
C        -0.24367422119110    2.40819305818786   -2.48254826177334
C        -0.07939654330548    3.51282198558946   -1.54541218282918
C        -1.15506783507578    3.77463245508032   -0.68091724174768
C        -1.47183236381962    0.26127240322894   -2.93846515521866
C        -2.58205180231175   -0.62439485947337   -2.58811242638786
C        -1.48381823822056    1.64086551569128   -2.55729499119252
C        -3.73636268735221   -0.07656539541646   -2.03726112006172
C        -4.19635785003174   -2.11079544689702   -0.70334281973335
C        -4.13007345187203   -2.41366870366265    0.68112077167719
C        -4.06275343650714   -1.37100927722092    1.64483621390381
C        -4.55938544568173   -0.82261432777270   -1.08709497894730
C        -3.79688953183040    1.05765685076161    1.70155407177413
C        -4.52785453312599   -0.11628842895760    1.27733992137834
C        -4.94300201838144    0.07841860783428   -0.07257637350281
C        -3.00236046281960    2.97672448374680    0.43018690850346
C        -2.42495640323414    3.14760181861836   -0.86713559838021
C        -2.63009537686696    2.14786899750104   -1.84529481041902
C        -3.75783398140052    1.30939395378737   -1.65217241345737
C        -3.97975168620947    2.04006483238731    0.65701688468769
C        -4.52671186663688    1.39915284094783   -0.47053438407547
