70
C70 Isomer 4642 Symmetry C1
C         4.54142949892634   -0.95657495203883   -0.00076184473957
C         4.43592893872574    0.16094769742626   -0.77812375655558
C         4.26986065560769    1.33370793465658    0.09619858432718
C         4.39088903814184   -0.50812826983021    1.40935624398356
C         4.03416871851439    0.87508324440002    1.42752280165227
C         3.57694167871936   -1.42626296832022    2.01583363848553
C         3.66219217608260   -2.05955920235594   -0.23933414071379
C         3.21893732194312   -2.47280550267042    1.04747338959139
C         2.70485193881926   -2.00827614961435   -1.29175407156061
C         3.47240216681561    0.25826289571759   -1.82817336234411
C         2.59329929224333   -0.80716953625281   -2.10274866747524
C         3.40386147118412    2.20109138655214   -0.53603433495595
C         2.95154090759406    1.58525321114846   -1.77225489488161
C         2.51018199156181    2.98004195150855    0.25619705906519
C         2.85699598502390    1.31599769851949    2.10870526165575
C         2.22327149028382    2.51086041851964    1.59657737601331
C         2.39197937484390   -1.03007867235521    2.70081632639436
C         2.02486582665067    0.33250182186925    2.77833481646302
C         1.90064673836370   -2.82311812342555    1.28850745501397
C         1.39676613936043   -1.99498628887717    2.36977514334494
C         1.51410740128123   -2.79969325991588   -1.10322571803598
C         1.05426908295179   -3.16823833989543    0.21104584240879
C         0.51614605660183   -2.67679178311003   -2.08878229279818
C         1.31327535154292   -0.44349034223120   -2.70199801648877
C         0.36665942368579   -1.44801287237319   -2.83043510917467
C         1.70812748118189    1.93968326589391   -2.30020677226886
C         0.82727512396630    0.91778622589035   -2.79143109744804
C         1.54173152105044    3.66276883005857   -0.47600149447983
C         1.19135737100644    3.17152447025849   -1.80655224528244
C         0.34537757861027    4.15649304242544    0.13151404492952
C         0.96102564325869    2.85304425084204    2.10531195796165
C         0.04739174536861    3.72066846646157    1.41956172222941
C         0.61863241937176    0.58184351435147    3.00338136933405
C         0.17435963841115    1.89818531315785    2.82532888125968
C         0.03375106768283   -1.74977689067318    2.48247986561908
C        -0.38256421360756   -0.46045898434915    2.95915483450833
C        -0.33924128717603   -3.27913123079923    0.52751894428534
C        -0.83808258140894   -2.60999964100031    1.71462721878463
C        -0.76329716986697   -3.17884296282954   -1.84785312262400
C        -1.23247507188751   -3.46352917744213   -0.54947389579542
C        -1.04731638525718   -1.17895953166959   -2.95477755181255
C        -1.73361018993016   -2.29497014705640   -2.45928478922762
C        -0.59423367761997    1.17677967798321   -2.83086749263655
C        -1.57204263368855    0.11475552304361   -2.75426245109960
C        -0.14179859228585    3.46107049663003   -2.02947442319293
C        -0.68962130624806    4.12678719314027   -0.85757449651328
C        -1.04566299470054    2.45963558423224   -2.45035725393934
C        -1.93599002247017    3.59122694194775   -0.60812912040448
C        -2.22969951290935    2.60464145271382   -1.66228915724742
C        -1.29343092686014    3.31522808807468    1.73402354943583
C        -1.20379869525787    2.21090602832293    2.63780630382236
C        -2.30731994687185    3.29369308901921    0.74156303389052
C        -1.78205524163933   -0.14160740672489    2.92922210719953
C        -2.20952969362851    1.23338689735349    2.75354051874361
C        -2.19858243025501   -2.34867360755827    1.83196217700569
C        -2.66794009557471   -1.17560072963622    2.51758799667522
C        -2.59805056555847   -3.01243443798014   -0.48295747187817
C        -2.86206752932428   -2.17143403709037   -1.63746666150581
C        -3.11003355658786   -2.62847370615745    0.73666618481682
C        -2.83490275486433    0.25822187138522   -2.06092038025117
C        -3.10587311168138    1.55032082921972   -1.45009523261815
C        -3.49959446868782   -0.90618290678118   -1.51070174774643
C        -3.34026333340457    2.37525750368084    0.90181770264698
C        -3.40723880377857    1.51309790168175    2.03480922068576
C        -3.88193006011442    1.63275390133042   -0.24251469160307
C        -3.93527260487124   -0.84928314105704    1.95353828580306
C        -4.12826577646647   -1.65489187890390    0.74631219295752
C        -4.31502442678274   -0.77366712814156   -0.33783103536507
C        -4.28104099829906    0.45454253149418    1.67498989281878
C        -4.54064759581210    0.52305265820595    0.24058685085165
