74
C74 Isomer 2661 Symmetry C1
C         5.17855621081784   -0.47529943107424    0.19614439908418
C         4.84473140041404    0.87713981687814    0.59888008105480
C         4.55494404741329    1.57406491711667   -0.56733299129246
C         4.80312405875748   -0.64421288120134   -1.20705722218294
C         4.49058887824820    0.61734056277917   -1.70049351135577
C         3.79037149265289   -1.65483259881457   -1.31656311062052
C         4.32714577228880   -1.30965213959376    0.91508169078896
C         3.58735807352214   -2.15629912125516    0.02270381437242
C         3.81522080145184    0.83734840974325    1.63025401162616
C         3.54568828808625   -0.54510130680828    1.86200913835311
C         2.73615925222424    1.76068918943152    1.64326973071123
C         3.42979097671240    2.41423791585048   -0.63945754126830
C         2.65020562471410    2.66978981319799    0.52450959781967
C         3.28185641381777    0.86337055671372   -2.38453056893766
C         2.73385115068780    2.08094438358180   -1.84790411216423
C         2.63478089988877   -1.47096730012355   -2.12084541646860
C         2.35959469809978   -0.17314679042896   -2.68195056271013
C         1.53276296670601   -2.36709897228190   -1.87481231694411
C         2.36508572083084   -2.65267326702045    0.42680015034348
C         1.49111750991266   -3.07934050973126   -0.63483844245300
C         2.28002625116598   -0.99334174405440    2.23289276856197
C         1.77112597141265   -2.21482718900177    1.66675745680318
C         1.50716625050233    1.38373824212968    2.30722409331077
C         1.34627649212792    0.01132149701581    2.68853029134974
C         0.29827832045209    2.18141749485225    2.16032537285025
C         1.40511803733230    3.24329704872907    0.26063652500997
C         0.31138744709862    3.15961931425353    1.16128578614181
C         1.39035980825457    2.41532313371954   -2.03722922745377
C         0.84512334095268    3.25049731866159   -1.05039405637424
C         0.99324571103072    0.19176752142952   -2.98076918564964
C         0.52045509043468    1.52652028950225   -2.76430504640662
C         0.31127837708981   -2.18078913403300   -2.60461198885276
C         0.03591548919077   -0.86416312819878   -3.13783618077377
C        -0.78896634445714   -3.01275256814880   -2.29044770373434
C         0.30994662533385   -3.71124392011728   -0.23841809284011
C        -0.74027437981639   -3.82609377499576   -1.14407028161439
C         0.42896088763916   -2.59930652273321    1.94005930184204
C        -0.25743396345343   -3.46653552301851    1.07390236186500
C         0.07349945195174   -0.43078029114159    3.04584819653639
C        -0.38172435762825   -1.75250056672702    2.73574946872114
C        -1.01469886662391    1.72185987589261    2.57795818611456
C        -1.05822166164994    0.43143132711385    3.11194676723708
C        -2.25951841838659    2.26568375393191    2.03897023128792
C        -0.89641559492607    3.46672179477441    0.43323509621260
C        -0.56201939748129    3.42708126430084   -0.93996933348787
C        -2.17646899059621    3.13340620156630    0.88289926287166
C        -0.87950881579531    1.84208446553475   -2.77820800232595
C        -1.42724175652171    2.86416855402512   -1.89486506680662
C        -1.30386898864433   -0.49767751020960   -3.34274688382904
C        -1.75709114961096    0.83726100337859   -3.19807813713176
C        -2.15626564943150   -2.54989820107260   -2.37408348211361
C        -2.40354810138117   -1.33940047872431   -2.94147854257614
C        -1.98783384380361   -3.68664497680761   -0.41574371163696
C        -1.68164187474122   -3.41481127902931    0.93802000650728
C        -2.86938563328658   -2.89504676502192   -1.14987084291078
C        -1.79536619284901   -1.73272512631091    2.62205626844971
C        -2.21152327910106   -0.40575848491851    2.97499187564528
C        -2.48002445257607   -2.46109300058266    1.61865352025748
C        -3.44462239069927    1.50201094130531    2.16601578416321
C        -3.37803791954734    0.10333470838676    2.49415234011404
C        -4.49771004661826    1.60493877127110    1.20846452944543
C        -3.16324846265190    3.09575449257990   -0.14738275240110
C        -2.77627896201993    2.84857789991209   -1.50910805159614
C        -4.36961554967311    2.38443701159828    0.07922338750521
C        -3.14668748578719    0.80889634677741   -2.78867063323434
C        -3.50400144761880   -0.53303658058254   -2.48649408859274
C        -3.68285303414869    1.85644668122630   -2.04739265442357
C        -4.65986088795358    1.55301109710248   -1.08648049720537
C        -3.73969801740008   -1.97730733620333   -0.50500410383269
C        -3.59646973772788   -1.84205263041720    0.92577539839819
C        -4.13960211314980   -0.66248295647334    1.51627720776032
C        -4.86993447300052    0.25687086215982    0.77203977449952
C        -4.23206111048160   -0.86590895604919   -1.30752972963078
C        -4.87837443797732    0.21739848448282   -0.65656979978294
