70
C70 Isomer 7482 Symmetry C1
C         3.76148293101548   -1.98480598007334   -0.90040156699988
C         4.13070642801475   -1.48109215503226    0.32718691780262
C         3.37851246676851   -2.21742823853472    1.35733925906070
C         2.81824875793203   -3.07607843893793   -0.66347871773752
C         2.48680964945393   -3.11526443022735    0.72245932094084
C         1.81932382960036   -2.98673350994074   -1.62367779102006
C         3.21573622143466   -1.12668470567945   -1.88903565455703
C         2.08633609136606   -1.83263969766185   -2.45001540138047
C         3.15174234026223    0.26916391417651   -1.68975603685633
C         4.04373794181362   -0.10044974188404    0.58759377356516
C         3.62512715924589    0.81054792863110   -0.42483970884069
C         2.92013266920654   -1.29658344633467    2.28783907279875
C         3.48633346186902   -0.00165039779927    1.91646528346237
C         1.60773951274776   -1.39737304507122    2.81838935944399
C         1.12780756171694   -3.17755134656318    1.13572404576218
C         0.72005606333294   -2.40523423412135    2.28980565241757
C         0.49478720497484   -3.35909502905867   -1.28113818548720
C         0.15552313698220   -3.51007905846557    0.11801794178170
C        -0.47544525814088   -2.92601825191826   -2.19770570217073
C         1.04605443673151   -1.17750834228854   -3.09915820769496
C        -0.19889628735506   -1.86445799212023   -3.11828893495808
C         2.14304229387851    0.98463418059144   -2.46381756547132
C         1.10444590054441    0.26669579968162   -3.19887095097486
C         1.90748398013201    2.32227264464182   -2.13607289584719
C         3.10881025607645    2.07758013454560    0.03609824842479
C         2.38593840288691    2.87894489066962   -0.88067483984969
C         2.86103013812006    1.14356426299721    2.30378156471336
C         2.78354398423132    2.25939635356975    1.40531959587691
C         1.06067405146534   -0.18172174204643    3.37950605248910
C         1.67049973093017    1.07150823208950    3.10250801939758
C        -0.29998203698119   -0.11787756355650    3.67334002985730
C        -0.69217032003139   -2.30263230077025    2.58926679217948
C        -1.16079698485078   -1.23989760866756    3.40041719765490
C        -1.20790842414971   -3.40607508223803    0.44923959569094
C        -1.63643472843667   -2.86807244830054    1.69230838012968
C        -1.86018925623863   -2.86149520048272   -1.84228395279151
C        -2.22287091054789   -3.14106479474606   -0.53743676670041
C        -1.41919302175379   -1.16216451952803   -3.33659303130460
C        -2.46407103832880   -1.76816876646823   -2.54895563320006
C        -0.10945186921258    0.91040421939265   -3.48759664987987
C        -1.37095469588426    0.20893917106906   -3.49769996020581
C         0.64585536229300    2.94962012697130   -2.42358667893779
C        -0.37944763827470    2.22465154912480   -2.99763397711394
C         1.42088900827735    3.79050606906177   -0.42136645474452
C         0.30713486338274    3.79098503234326   -1.33993731169577
C         1.61998446686796    2.98343931391744    1.80622411923418
C         0.90102818222338    2.22255658456406    2.78684275825286
C         0.89667544887256    3.72480154952256    0.88854370118214
C        -1.05302177009488    1.08112927195485    3.45619116137176
C        -0.51233684804301    2.18953425280994    2.78875366744571
C        -2.47098905582917   -0.73016584033215    3.23673822830164
C        -2.38174392764846    0.69237831130307    3.17176797188980
C        -2.94856746079111   -2.29130846497137    1.48930102508745
C        -3.26768425432670   -2.38476995894776    0.09136953830379
C        -3.32997959716607   -1.16622825096256    2.20193539550068
C        -3.40185400053655   -0.97340252533722   -1.90550342017075
C        -3.82670325560403   -1.29689261343053   -0.57371842066830
C        -2.33397514635266    1.03145854499354   -2.82505596758917
C        -1.69628139514406    2.24901548351555   -2.42760407963632
C        -3.28987228761392    0.46335539456224   -2.00004489224126
C        -0.88279141020802    3.61044228430357   -0.61962377721733
C        -0.54051608364718    3.57385842828849    0.79045878800658
C        -1.26274498154069    2.78420204022686    1.68354849461028
C        -1.92298731630928    2.79947837048553   -1.14245814244175
C        -3.07301053979743    1.16151043146822    2.02992063182176
C        -3.77522696237798    0.01847010526825    1.48957612895585
C        -3.98836861607581   -0.04830496755183    0.13403648887422
C        -3.54942237135280    1.02878767858158   -0.71024348595596
C        -2.49269547806552    2.15383101838808    1.20770109302229
C        -2.78764870593975    2.11330711633952   -0.20924053296977
