74
C74 Isomer 7619 Symmetry C1
C         5.00755664549027   -0.07462849413378   -0.57835654930329
C         4.69580361170230    1.22424116944332   -0.85079993161162
C         4.35732072251509    1.90016601104499    0.42137302671938
C         4.88262632280068   -0.23026334215480    0.89898291936692
C         4.19352927264883    0.91258275451193    1.42451216367285
C         4.37396209671932   -1.46742687439531    1.12462634676050
C         4.27372589638845   -1.12299371233796   -1.21165975471109
C         4.17842133193781   -2.11838144845255   -0.18079017577315
C         3.11481826098018   -0.82003222058310   -2.00825218461095
C         3.68720639625148    1.55895558326338   -1.79201945180380
C         2.82003963686791    0.55721489298060   -2.31887287537791
C         3.38288167520214    2.83316385098320    0.15788006872481
C         3.11745971488307    2.77059568587129   -1.27469307125696
C         2.26899849509492    2.94549935139545    1.02580124488617
C         2.90513665739497    0.76937648653208    2.04558114821517
C         1.97924694447676    1.84999406460265    1.91075127012980
C         3.16540502082529   -1.65074844658041    1.87723766339261
C         2.35817991614406   -0.56695397758890    2.27903478407306
C         3.06940799536394   -2.90010365112283   -0.08413846988392
C         2.52446182388348   -2.76226083221513    1.26547533911180
C         2.00648703159324   -1.75542377259542   -2.02174230029251
C         2.13401520017279   -2.90284278642358   -1.16529292072167
C         0.66274640758881   -1.40223633308358   -2.42380181667836
C         1.44696817554736    0.93251648209676   -2.63119417754296
C         0.35308810692827   -0.01090928789795   -2.66424177168178
C         1.91114788773024    3.17751295384826   -1.72660307848734
C         1.09943983506756    2.29157516080668   -2.50790409428821
C         1.21874759877465    3.78149957131131    0.53032578731730
C         1.05980900952649    3.94945963167398   -0.86700774539586
C         0.05591313615796    3.83970206792509    1.31589616804227
C         0.59755549392725    1.64732720621251    2.32497628234178
C        -0.25749865450173    2.73410054839599    2.20535023193162
C         0.91471185960427   -0.80009097032722    2.38872821462562
C         0.02172037784351    0.31353097830352    2.48564306549596
C         1.20874291446539   -3.06328232388239    1.49699286012385
C         0.35041834528274   -2.10156126082512    2.13685771019149
C         1.04244503433988   -3.68441976151616   -0.88235109807330
C         0.68592280282865   -3.95289966389199    0.50785665090754
C        -0.42906872177973   -2.35440523450569   -2.27686085339536
C        -0.15633212172027   -3.59263833663496   -1.63246722395944
C        -1.80734856610856   -1.90113786733648   -2.27235514046712
C        -1.01593357725897    0.45823239666629   -2.62022581263030
C        -2.09482404508566   -0.48736082900886   -2.43454906085813
C        -0.23422852603522    2.74621063194938   -2.34951596836825
C        -0.23557121007737    3.88033913383431   -1.44538645061779
C        -1.31338463660863    1.86379328775369   -2.41345133704087
C        -1.13974353073973    4.27462571670356    0.74723713081747
C        -1.34243366737789    4.15097347167468   -0.65934053054932
C        -1.68429645069447    2.57288448663696    2.21819348571105
C        -2.22905444287639    3.58133005193386    1.39229170330974
C        -1.40416820403260    0.11997183725215    2.40925574325774
C        -2.27265842691042    1.28093254917140    2.27769417326872
C        -1.06964837286108   -2.31355101042738    2.02966862791330
C        -1.95493125407931   -1.18774135525492    2.12197445882843
C        -0.63393725641088   -4.28789209192740    0.55664271882970
C        -1.12856913794300   -4.26927281067522   -0.83155550176882
C        -1.53356255144698   -3.51717390445480    1.37113825468094
C        -2.77584638199152   -2.68840479991695   -1.58374050246574
C        -2.40174101554194   -3.79899099585400   -0.78780291210766
C        -2.72798095766165   -3.47153706498172    0.62359203223668
C        -3.27161409640446   -1.27658928605948    1.51569977717021
C        -3.77720501488140   -2.03218293692606   -0.79269058011280
C        -3.53131371761077   -2.35171896421588    0.61041317714337
C        -3.35492411074612    0.00604101256656   -2.02245700092285
C        -4.17596697469975   -0.78118930504502   -1.12688855516355
C        -2.54698896165312    2.32905849223733   -1.79586709262122
C        -2.54842654133696    3.41772680670412   -0.89026722087213
C        -3.18022273116858    3.24495989429625    0.41184128937561
C        -3.56373927965928    1.36657324176076   -1.62240687690197
C        -3.53760996566261    1.17051376479558    1.66035448800671
C        -3.99788177260132   -0.11458105045092    1.21481916447965
C        -4.61230090794375    0.04657773920263   -0.05837947999817
C        -3.95006761544156    2.12989043907640    0.66725853296746
C        -4.38404425539630    1.38917759826501   -0.46202813571107
