78
C78 Isomer 18354 Symmetry C1
C        -4.99883432957772    0.71267549793911    0.11941599301171
C        -4.66069834627839    1.00461931871125    1.42601535608107
C        -4.12352765257383    2.36410044724371    1.46820253104664
C        -4.58608590408686    1.84199612216689   -0.72126905192846
C        -4.10909517377108    2.87364113187137    0.13237641618576
C        -3.76712291201969    1.31209882112153   -1.72798787826024
C        -4.52703038286809   -0.48867293132618   -0.45780689275565
C        -3.80970674539272   -0.12635491416174   -1.64338135723104
C        -3.98969033462526   -1.49810466055328    0.37883972157167
C        -3.77757774408858    0.13944735371503    2.15159328252178
C        -3.48975549416551   -1.15222501278184    1.68874831661180
C        -2.93371661369322    2.31812751220623    2.19615769280598
C        -2.72417303259500    0.95782287494001    2.65604026663792
C        -1.80634873652447    3.10859439298092    1.83485282686358
C        -2.97629734651505    3.55504400085715   -0.28659274956600
C        -1.93104494379245    3.86007515088521    0.64798318301610
C        -2.54562380711581    1.93395081837359   -2.12470482767493
C        -2.31104853846722    3.17405804009520   -1.50392612205992
C        -1.40668586675826    1.13033881985830   -2.56509375603931
C        -2.74632043641887   -0.89972030558450   -2.12269165439678
C        -1.50755957315924   -0.29993259358870   -2.57812572554666
C        -3.28741311504253   -2.47066967517000   -0.33120658750811
C        -2.72547386715269   -2.20610443208686   -1.59964318322173
C        -2.44473659977424   -3.41774771961171    0.33090322270388
C        -2.26527064145489   -1.76831659470732    2.14240610200281
C        -1.91560831869946   -3.05686709535969    1.58804309990088
C        -1.44158840194457    0.45686686801305    2.85669071258960
C        -1.24506914479025   -0.96483017666118    2.73646367477122
C        -0.50132592697055    2.69134286287308    2.27440921203694
C        -0.32817430691143    1.38522046032202    2.82642315970185
C         0.64692349087153    3.40704866887391    1.74864308431497
C        -0.75012411979908    4.13162390695825   -0.10857657082497
C        -0.97690625464219    3.66278135858371   -1.42399733682896
C         0.52066007229205    4.09068164072681    0.47284414148915
C        -0.10443369481246    1.73229611729858   -2.63768784114495
C         0.06886835109641    3.07773177282147   -2.14660196330303
C         1.06457120536034    0.90053247396199   -2.71465769695377
C        -0.33191913961475   -1.13289238579044   -2.60773393337812
C         0.95674153275357   -0.51397606355912   -2.59558566051095
C        -1.60995908560038   -3.07620733717688   -1.77122118190130
C        -1.60280008669530   -3.99954624457372   -0.66792070593187
C        -0.42039344264523   -2.55431175934978   -2.30210507749746
C        -0.42526564217522   -4.63603503324592   -0.29436324011751
C        -0.66255312087263   -3.62993786449703    1.92314400024583
C        -0.04029501972335   -4.56151639170290    1.07899620073293
C         0.10660077347727   -1.46850223906343    2.83745045520472
C         0.35869103527494   -2.80446334239952    2.53195965664024
C         0.98989936879155    0.85564355134568    2.99216069936505
C         1.22776824824759   -0.56052124361185    2.90256556001671
C         1.91445203495325    2.99489661470033    2.12423783136307
C         2.07506838873571    1.74190956682866    2.81089448378073
C         3.08503968253844    3.20693860476955    1.27517448832722
C         1.58336373410629    4.07678870093908   -0.44538405386804
C         1.33954792503979    3.55477722102708   -1.76132031275421
C         2.90792501112843    3.67583314843647   -0.03741858529739
C         2.35100384892110    1.48531090543353   -2.49018177218901
C         2.48078036344333    2.82541431050609   -2.13540836006950
C         3.49685617689018    2.95752258020996   -1.09997825962106
C         3.41066190359522    0.77257427338346   -1.78995819096472
C         4.09639572555509    1.69431426952985   -0.90970050401684
C         2.09983289004227   -1.23940869272283   -2.07113528798142
C         3.20662403546588   -0.54302893322489   -1.43977769953557
C         0.75801677473338   -3.28808618317218   -1.96398212624164
C         0.72739056908676   -4.37875841184051   -1.08017679078886
C         1.98731020370868   -2.57357197609153   -1.74966533563206
C         1.39389926996823   -4.31530000035589    1.13266834608754
C         1.63167843544993   -3.23728686280712    2.01563431301536
C         1.87189985983753   -4.23825545997486   -0.17583522881367
C         2.64151224628800   -3.13490680209527   -0.57840262213388
C         2.48487466088085   -1.01601062879067    2.39811285811331
C         3.66571432506202   -1.00784419559189   -0.14708925928994
C         2.59304045689704   -2.26601496870147    1.70148897269140
C         3.14804314573679   -2.23875721973390    0.38007182212913
C         3.34688978433245    1.24464340141917    2.47174672909003
C         3.94565876424600    2.11555784975091    1.47027614933837
C         4.38352506877043    1.28973513398883    0.40214455237607
C         3.49181753783007   -0.08170202515787    2.08386522084648
C         4.12570694240014   -0.07618818884258    0.77565104855006
