80
C80 Isomer 22116 Symmetry C1
C         3.49823482332126   -3.38380993036274   -0.71282585101548
C         4.00621832824906   -2.49636167906435   -1.64256970219007
C         4.88961567128309   -1.57252350996101   -0.94122685190159
C         3.88608876389415   -2.90354123532468    0.61176417873721
C         4.67646183513509   -1.72567070165799    0.45438945137998
C         2.73918911416555   -2.91958698484354    1.40923419469915
C         2.11803251367103   -3.65991592101102   -0.70889699037376
C         1.70124354561819   -3.59838582812563    0.66074836213816
C         1.25602689285815   -3.05884293547331   -1.65563650803716
C         3.13565386480396   -1.72762268830838   -2.47151772929707
C         1.74461163934738   -1.97652283985937   -2.48496945493995
C         4.75666311027139   -0.31723662726431   -1.54794274081120
C         3.64372562769336   -0.38287761138857   -2.48177402409736
C         4.91645196557440    0.79426438368266   -0.71876014869480
C         4.38948728993998   -0.58887738403314    1.27319961960927
C         4.72562753320060    0.66495907373883    0.71423958508801
C         2.37743669237502   -1.81449745082538    2.23095019705531
C         3.25835775588213   -0.66720959621451    2.20270867540502
C         0.99097669480758   -1.70803739728782    2.60641561840941
C         0.37665695436820   -3.47232684352866    0.98591473791034
C         0.04081966472140   -2.67896983247390    2.13300323508925
C        -0.12499221131061   -3.13400261313254   -1.35749917262671
C        -0.57560677283152   -3.56481517957328   -0.08287170688205
C        -1.02950747155744   -2.36234752448722   -2.16500519700976
C         0.84327726643134   -0.88461481209278   -2.77942699221221
C        -0.57470651442245   -1.11365116904944   -2.71468759015019
C         2.76804947480936    0.70373815252265   -2.62384477835164
C         1.35109404070787    0.45610485383640   -2.80860713041902
C         4.27795670912647    1.97657090299275   -1.13338749844484
C         3.19500574421048    1.92979506578458   -2.03686482016047
C         4.07999196444494    1.88376379853243    1.15308813658100
C         3.86080225502532    2.72479244734060    0.03202329952710
C         2.68919867672666    0.53993996429508    2.63486059135495
C         3.07774135259039    1.81521682399257    2.11196591881351
C         0.43767249220853   -0.45160363931469    3.01346156511947
C         1.30896094837570    0.63738457480200    2.99945171548538
C        -0.98021225758859   -0.15832613409369    2.98291808348462
C        -1.31560872608449   -2.48033680395290    2.35462671506480
C        -1.83987167069490   -1.25446263631845    2.83127664639723
C        -1.95999508367850   -3.52548891063220    0.24264957597759
C        -2.33238314234391   -3.08893278333326    1.52731958332612
C        -2.38091704282993   -2.58040144401447   -1.98432948344165
C        -2.87115160632959   -3.30743079713367   -0.82364239796017
C        -3.35639727210334   -1.61123417305586   -2.36278611884148
C        -1.52352843886092   -0.05013835715769   -2.82661149812524
C        -2.94392160396116   -0.28404897161661   -2.63039100956088
C         0.42131458775730    1.51665792012192   -2.58904884309224
C        -0.99275959273451    1.28456791246644   -2.71022697454887
C         2.20742008839335    2.83107035073847   -1.53448845238194
C         2.59912248569395    3.28338047432697   -0.21679692400959
C         0.87420787102259    2.67050411350301   -1.85056325570926
C         1.89436093223446    2.61770754220574    1.99353496347066
C         0.82290534740815    1.92052425642782    2.63898268779872
C         1.61424496629001    3.31628624182586    0.80322438414857
C        -1.49367459938647    1.13673792430806    2.64375365331459
C        -0.52888433914393    2.15967513298508    2.34734405779779
C        -2.85962465154126    1.25751551112431    2.16259413657367
C        -3.20756119143660   -1.15191957420578    2.41710193106775
C        -3.54934587329298   -2.36819407630643    1.72057933907324
C        -3.73758055701709    0.09834398129309    2.06471834716766
C        -4.17180111395237   -2.88706203402200   -0.57001208101443
C        -4.52115617741616   -1.89303123071090   -1.58753337043511
C        -4.52062377506920   -2.35339928276637    0.71077394596022
C        -4.79742917009906    0.06785357752991    1.09532952401416
C        -5.20932927398587   -0.87068792405573   -0.97013476793621
C        -5.19402899635168   -1.12416820138513    0.47881865989220
C        -3.80820251860462    0.77645968630098   -2.14650560323758
C        -4.85431530668442    0.47271686877947   -1.21914586061050
C        -4.84272300117612    1.10206251187316    0.08338265218481
C        -1.85911597384309    2.31459862991754   -2.31269027250107
C        -3.23446580758066    2.05765540136750   -1.98793262119345
C        -0.05133057160086    3.35054967931252   -0.98500366115491
C         0.25156456509899    3.46743621573390    0.40906822165262
C        -0.79791835113417    3.13830776145553    1.33372936412989
C        -1.37460150927701    3.31852002739945   -1.39583402892193
C        -3.16436623041170    2.37188072406640    1.36330012285962
C        -4.12935143133961    2.25355837043459    0.27995847283411
C        -3.57076696601957    2.85910285646173   -0.87126498655801
C        -2.12462382801840    3.24824522091255    0.89908363143227
C        -2.38709142802211    3.55566633502690   -0.45523068317552
