68
C68 Isomer 2889 Symmetry C1
C         3.71958418094196   -3.12937802792545    0.20901257712396
C         4.19165557089007   -1.93734332182407    0.85358058450376
C         3.24384603085062   -1.55456026852561    1.85195923371616
C         2.52760180420137   -3.53141898056851    0.85705436127662
C         2.22213462488016   -2.56345747043854    1.87366793784493
C         1.51694147190970   -3.72303584860000   -0.13381066378836
C         3.32338888018018   -2.71840845849284   -1.10503554716792
C         1.95460673883429   -3.04899618410129   -1.33348316707616
C         4.47790132024012   -0.98025222654896   -0.15734419260043
C         3.76090702600962   -1.39127081312562   -1.36094947593242
C         4.42949193588760    0.33922830181099    0.23156948035979
C         2.87943158525844   -0.19369717461578    2.07046488494105
C         3.69877063265000    0.74446870768780    1.40872311345987
C         1.49582545642972    0.15481400773686    2.40730390039152
C         0.89054698597685   -2.23699712839554    2.15637281961630
C         0.51272678437823   -0.87436166126887    2.49638648881141
C         0.20430705838555   -3.64209087985292    0.26013975672735
C        -0.08889581142164   -3.09550660756405    1.55940196445758
C        -0.74028477310080   -3.37893827584837   -0.79152439870822
C         1.06152214360972   -2.13811415716811   -1.93907039285166
C        -0.33692269104580   -2.42823858615828   -1.78757146803264
C         2.89017935232396   -0.47685991613575   -2.01014880969089
C         1.49738480825618   -0.80262363113740   -2.27747897322188
C         4.10078064241470    1.27248105923084   -0.78109337928043
C         3.21186196267367    0.89279407361653   -1.82368620641430
C         3.19180601701301    2.06192611473557    1.15244426506918
C         3.57320820523539    2.44430619868668   -0.15933234375654
C         1.05279446118465    1.53616546638845    2.28989687726714
C         1.95435764833650    2.48668628949984    1.68515250525494
C        -0.35939961718880    1.85995788790646    2.37096236710670
C        -0.90571479531171   -0.54743123224971    2.51873059890705
C        -1.36018921678061    0.81234916003701    2.38125151320443
C        -1.43024492490520   -2.84601568272641    1.82682064084523
C        -1.85480539961030   -1.56826235342860    2.33625137486318
C        -2.08566424518148   -3.51052072812218   -0.41202947204017
C        -2.42121943250440   -3.36600859552393    0.98139380209747
C        -3.06980570978001   -2.87104495771998   -1.17178374879737
C        -1.30384201903998   -1.48620939207631   -2.26727908326407
C        -2.67976177625251   -1.82710047528327   -2.06032976816757
C         0.50739916018843    0.23597451468362   -2.40045210849983
C        -0.90190441695266   -0.10244181097833   -2.42144607532081
C         2.23201921704835    1.92324699804247   -1.98249062354919
C         2.58177437954999    2.96277242811308   -1.03222012564435
C         0.87864986764659    1.63733953223203   -2.23677681276780
C         1.41008130253768    3.61525710437922    0.99329973049575
C         1.60550828596739    3.70374963822387   -0.45496808164941
C        -0.77701793498695    3.16859976725046    1.97098980095785
C         0.11135641903489    3.99908431329270    1.23401830386453
C        -2.05045950046243    3.32581228974638    1.35175303774330
C        -2.68653217117800    1.02534987669952    1.85316618818136
C        -2.93084704617981    2.27624692863170    1.21859040521015
C        -3.19570123183787   -1.35311533733456    1.83975592744047
C        -3.57074566626892   -2.49661028076281    1.06455200444334
C        -4.06999305499579   -2.33266260368843   -0.23821247203737
C        -3.55142308366763   -0.05326069753293    1.42828887950223
C        -3.61297747309281   -0.77980964290058   -1.88925801707437
C        -4.40222629543269   -1.05263464791688   -0.66963545799591
C        -4.25566268800983    0.05824179696551    0.17385797581633
C        -1.87833357785427    0.94131790319299   -2.21817055304593
C        -3.32424859488546    2.24592106265390   -0.18571034599216
C        -3.20591330112933    0.54940962012309   -1.88866760849968
C        -3.83288589227616    1.12340442764909   -0.71138723119907
C        -0.10489491820784    2.65523768004857   -1.88207034640692
C         0.31570101923039    3.75522935792084   -1.07680435964815
C        -0.52561172343341    4.29243018819219   -0.06855784109649
C        -1.83048266076014    3.90390120566312    0.00960660566376
C        -1.49357482142352    2.28787662915089   -1.83070293816510
C        -2.35286651499718    2.99709752634860   -0.94293781778112
