76
C76 Isomer 10876 Symmetry Cs
C         5.24626211287488    0.41268304073946   -0.00068269274538
C         4.91472356713397   -0.20507072455809    1.20607459621628
C         4.18344131623323    0.74215061168735    2.00596491071827
C         4.62273252277742    1.75681984569351   -0.00211557364347
C         3.92467336941274    1.91478619855105    1.21212478805728
C         3.92817132051902    1.91367821368187   -1.21841982959039
C         4.91810769040032   -0.20602528109708   -1.20823199499182
C         4.18943594232296    0.74041732684258   -2.01070510950077
C         4.21320591919973   -1.46145116573204   -1.23329057223107
C         4.20962641012627   -1.46044743147763    1.23005816431828
C         3.91771639068544   -2.12189885852238   -0.00180936887691
C         3.12144243707364    0.06054487391519    2.61276878196628
C         3.17548208744193   -1.32860597387988    2.20515726711618
C         1.88278667129744    0.68495055825823    2.81812372921666
C         2.63554625717264    2.48187968480385    1.22911787046816
C         1.71910309759373    2.00584655032004    2.24946724266417
C         2.63912188866607    2.48071233662513   -1.23969577230919
C         2.06104527510668    2.94013666973056   -0.00639197831657
C         1.72570679490374    2.00396675320142   -2.26252339806268
C         3.12904263481657    0.05827769931894   -2.62013631156977
C         3.18189600993551   -1.33052314702234   -2.21158363810208
C         1.89117194326789    0.68250163041086   -2.82968231513447
C         1.98715467410831   -2.07035015989106   -2.18067275808776
C         2.74873969634894   -2.91276445803463   -0.00319418316632
C         1.89491828380464   -3.01444670034888   -1.14368437382260
C         1.98073531403481   -2.06841541075551    2.17132302534498
C         1.89161148029614   -3.01345462453603    1.13499056826596
C         0.72409956835178   -0.13339170950469    3.08164780028426
C         0.75813258254210   -1.52392680283481    2.73563607795056
C        -0.54115003825816    0.52302932611706    3.24048994576685
C         0.44201528963143    2.53934244810555    2.26228605558655
C        -0.65700060149807    1.88191305919363    2.86611785197566
C         0.68870661693315    3.38484817016255   -0.00863428839264
C        -0.06025488824816    3.34623760475018    1.18214414951113
C         0.44884083286380    2.53750203227931   -2.27964319070625
C        -0.05678021592819    3.34535936048737   -1.20178274579216
C        -0.64856100937100    1.87954155650614   -2.88626818424143
C         0.73322547640051   -0.13601220399350   -3.09611572958367
C         0.76621834204927   -1.52618474304254   -2.74890623024912
C        -0.53148193368399    0.52037967279648   -3.25940263802464
C        -0.47189662952590   -2.21611832202788   -2.51188167386774
C         0.60620071845009   -3.46362915799213   -0.71267215381748
C         0.60419702737401   -3.46307716259303    0.70064762625833
C        -0.55211511649501   -3.19205493082866   -1.44575727909467
C        -0.47923577867185   -2.21405825758520    2.49566388178193
C        -0.55632082191615   -3.19097761348635    1.43018151761427
C        -1.73005321911680   -0.22344773710153    3.20809315092573
C        -1.68951705531174   -1.59077533769250    2.84780533739936
C        -2.99436248952926    0.33270470960414    2.78597261239059
C        -1.85142754799870    2.38980048465254    2.27995057041044
C        -1.47303031225176    3.25698846615927    1.19503155141905
C        -3.04848413589047    1.64427237254871    2.24733440108083
C        -1.46930120752342    3.25623743206865   -1.21877081996164
C        -1.84452332445298    2.38786101637715   -2.30425971572016
C        -2.22502343210855    3.24918191220581   -0.01302500936372
C        -3.04162750678362    1.64230293326499   -2.27436064844746
C        -1.72047523907347   -0.22607023757476   -3.22972523019865
C        -1.68099580074187   -1.59316062828737   -2.86810497727116
C        -2.98579355884063    0.33038044951208   -2.81172563766701
C        -2.95079837798462   -1.91119523797245   -2.25328499601030
C        -3.76928904487985   -0.73074257606120   -2.26074034874419
C        -1.75659488221972   -3.34941688784216   -0.72159120562052
C        -1.75867093365618   -3.34886045213569    0.70265975157773
C        -2.98541217809037   -2.76159455661288   -1.16780256519611
C        -2.95750565386957   -1.90943780284312    2.22958134945870
C        -3.77614420990690   -0.72877229563569    2.23360161640676
C        -2.98887620532299   -2.76070661894479    1.14478083809089
C        -3.79394491635342   -2.44236187191382   -0.01291776559398
C        -4.64233506035094   -0.47911115438944   -1.19414300925090
C        -4.64605949066074   -0.47803476089302    1.16421307170707
C        -4.61210426055854   -1.33439558738721   -0.01461054775910
C        -3.93370139543991    1.88400906448755    1.15488992156902
C        -3.46594304280885    2.59314358074309   -0.01451004742935
C        -3.93027403383149    1.88293706638194   -1.18489897501289
C        -4.77474217747998    0.85012886955491    0.71127518300724
C        -4.77242983551698    0.84951500129283   -0.74281972335725
