74
C74 Isomer 6730 Symmetry C2
C         5.29314359614856   -0.15355558468050   -0.28819605527577
C         4.97145290278715    0.94067511977008   -1.02622371161717
C         4.57695657796486    2.01195806977208   -0.07567315313993
C         5.02498849143855    0.16996854569119    1.13916799373266
C         4.33515971341944    1.41959012678534    1.20728275494259
C         4.47834801503710   -0.95054751287605    1.69166404402706
C         4.70618332356168   -1.42739748875959   -0.59389719875716
C         4.44967660420656   -2.01025577989622    0.67596802042412
C         3.69992396807043   -1.50708644314887   -1.61846558788965
C         3.97197935143484    0.88246501206407   -2.07724839931953
C         3.21640897045144   -0.31496657389045   -2.30103300910972
C         3.60556273408006    2.74246874892785   -0.70228691612011
C         3.28555338713666    2.10088914724366   -2.00092266311346
C         2.39064567412343    3.01988589422927   -0.04932276582403
C         3.02048730254474    1.46708257693322    1.77602976322664
C         2.08180050217466    2.38578194644123    1.18719047577212
C         3.19516745383363   -0.92894988668528    2.32810929357223
C         2.43047108415239    0.26371669692318    2.36060548969265
C         3.31730695911456   -2.77830041701072    0.92363697338984
C         2.54807106034631   -2.15525475476981    2.00576030291029
C         2.75772003744394   -2.54153395547038   -1.44150986406213
C         2.62166727659090   -3.23049342386814   -0.18978089747303
C         1.45520852843867   -2.50210507843239   -2.01759897916201
C         1.79946927488441   -0.18970327715260   -2.63644894417925
C         0.91259601831415   -1.32752865478785   -2.55566053766279
C         1.91049721150238    2.19530940081093   -2.18922357589371
C         1.39555280707236    2.96688366625501   -1.09518282958208
C         1.13100165832027    1.08068121751279   -2.59153017303654
C         0.07372028382611    2.93695638648594   -0.78878585594561
C         0.69326841844468    2.28483493980717    1.50382890417853
C        -0.22116707501604    2.94394617297548    0.61547816322870
C         0.99830755761209    0.09870523498327    2.49908038594732
C         0.13707224952521    1.22646763598852    2.27498021231119
C         1.16810757465491   -2.30155432958708    2.06747771753211
C         0.35944876225560   -1.17986309872743    2.48004560979823
C         1.27007583678021   -3.61024364006317   -0.01263013012940
C         0.60013859800857   -3.36059537518127   -1.23484287531622
C         0.58675235635590   -3.28650059389048    1.18799818938747
C        -0.77830689439851   -3.29231829373661   -1.30725884859431
C        -0.53622447293663   -1.19872880249344   -2.61769261274377
C        -1.35267929235699   -2.31111840266234   -2.19542964776952
C        -0.29681872512391    1.20766003870926   -2.43334442122072
C        -0.84548713485706    2.27659671665887   -1.67137212543465
C        -1.16602154581980    0.08409586663238   -2.64773147711586
C        -2.23327290425915    2.39006506148334   -1.35563497349808
C        -1.54282976828619    2.98585272821419    0.92151800441084
C        -2.53759139021822    3.03693800367827   -0.12462868013618
C        -1.29169997086126    1.11081528399098    2.43416616140052
C        -2.06316143436008    2.22741758848019    2.02216524347067
C        -1.09022194431811   -1.29903914996531    2.41906675278221
C        -1.96911593011978   -0.15431717367027    2.49006263819275
C        -0.79215444648674   -3.34564247757692    1.11617518271236
C        -1.46386321371518   -3.60097352741930   -0.10389134046884
C        -1.64116725846649   -2.47456141394487    1.89153199955010
C        -2.81263331649875   -3.21009543284754    0.06985758053737
C        -2.94398683113815   -2.50967908094735    1.31568127217737
C        -2.73158522837451   -2.15457601369731   -2.13497058100956
C        -3.50508651267036   -2.76279707595835   -1.04746997520028
C        -2.59698802081677    0.26036015100251   -2.51067438661172
C        -3.17847453077764    1.47285650613610   -1.93646165187215
C        -3.37015097521171   -0.92656576640634   -2.46795174779943
C        -4.49330828014969    1.43963539955391   -1.36729390415435
C        -3.75442528669633    2.77377087830699    0.53076947033221
C        -3.43891562581579    2.14123533130436    1.83475525156540
C        -4.73094465660852    2.04460451200705   -0.08957009540128
C        -3.38703299407393   -0.27248339044011    2.15586699166850
C        -3.87886552924942   -1.46699954047410    1.48359880326696
C        -4.13406753694036    0.92838681766837    1.92167941303374
C        -5.13300451197259    0.98440753070035    0.87004776687781
C        -4.63208200565036   -1.98468363858419   -0.80654674867932
C        -4.65324679422868   -0.93347175311703   -1.83121812664074
C        -5.19217446167574    0.19550277396811   -1.28852655858147
C        -4.88451235400719   -1.38916076699294    0.45830754735479
C        -5.46262326790078   -0.11382015828291    0.14157765213418
