74
C74 Isomer 5065 Symmetry C1
C         3.83375764552725   -3.18820703485652    0.49537343679453
C         4.48507436810611   -1.98748139099434    0.74122587594946
C         3.80945684821844   -1.30345983381539    1.83422045575240
C         2.76178254372642   -3.32079676134585    1.44230479720478
C         2.68699802719051   -2.11654425119467    2.22379477009366
C         1.61661018370450   -3.62390554000034    0.70262695462890
C         3.23009441042663   -3.08992818022674   -0.83497634199467
C         1.87585807116244   -3.40395510619298   -0.72060916817273
C         4.57504298077606   -1.29537637057693   -0.52596689980138
C         3.59610419224544   -1.86167140519190   -1.44736821696761
C         4.69080896161242    0.04067462493113   -0.45681859912939
C         3.70180295102704    0.08418574086335    1.83125189064164
C         4.51076627846929    0.73201663134968    0.82259590422188
C         2.48418037536188    0.74649785891995    2.27714978641867
C         1.44998338898598   -1.50377870729650    2.52474617030329
C         1.33772854648949   -0.06598375366390    2.61416237521905
C         0.38534886595762   -3.23918031633741    1.20834375788302
C         0.25787583330506   -2.24447963956280    2.21073505511363
C        -0.66443065972790   -3.39071853649540    0.26175733163047
C         0.91445967124325   -2.66485734573947   -1.44449514802706
C        -0.43043257514278   -2.93469634266059   -1.06779677951931
C         2.62203567064005   -0.99866210144088   -2.02889535077369
C         1.24326262527558   -1.42754842201883   -2.07727716352032
C         4.10498065137523    0.87101857199133   -1.48535747125473
C         2.90990024646756    0.42147002441411   -2.11653464493503
C         4.31950234931227    2.05245952017778    0.51807176795576
C         4.21690095155433    2.17306519091445   -0.95886061288310
C         2.30023599931675    2.14241298999811    1.95019573742134
C         3.26763458380460    2.81063456757905    1.10687506790576
C         0.99021128286413    2.70149593860174    2.01797954579957
C         0.01230555776109    0.51451380685533    2.73405753662333
C        -0.10893472758001    1.93161880233395    2.56601776389671
C        -1.04580807205780   -1.69366473353166    2.42726405524949
C        -1.19065239515896   -0.30162832995876    2.72742496273845
C        -1.92815215819533   -3.31495993838781    0.82159355093160
C        -2.14395048691276   -2.42806451893450    1.94085292953201
C        -3.01675966319852   -3.25027117573193   -0.04114939416143
C        -1.49187100316481   -2.26597065595673   -1.72579708770598
C        -2.80528258154927   -2.65461755161045   -1.32685493886609
C         0.15905389236149   -0.48974343574763   -2.28892318758986
C        -1.21593714519520   -0.93598817051816   -2.21547220729663
C         1.82607901066663    1.36723959032696   -2.29736073392877
C         0.43752400683252    0.91737695509483   -2.33314406316228
C         3.24910710247043    3.09805885109393   -1.22235777933677
C         2.81935493001904    3.66157244747519    0.06604872311051
C         2.06932206990631    2.71840941598062   -1.93112317666643
C         0.64678412798594    3.74174557266218    1.08033129070034
C         1.47534981729574    3.94233098965754   -0.04807760591172
C         1.01184437076995    3.45977043014462   -1.32606762905445
C        -0.68250005136452    3.99206728607652    0.76147193927304
C        -1.41693549779633    2.46950864855536    2.50039546734870
C        -1.68585169249507    3.60105511866159    1.66791285730216
C        -2.51828830522974    0.25868742300635    2.56791316802918
C        -2.59018177063575    1.65590067740018    2.49066290549127
C        -3.46468705411027   -1.88562797793656    1.77787250906857
C        -4.06373817196472   -2.52639166104943    0.64121774865106
C        -3.65326338778896   -0.50540611466636    2.02528873609286
C        -3.88565849042927   -1.78730254891973   -1.55712473091639
C        -4.73112663736037   -1.78246850500150   -0.33978339651171
C        -2.29997586435245    0.01509022948165   -2.21028994376421
C        -3.63560971004696   -0.45420410722767   -1.94609186172382
C        -0.64617811043031    1.83371360159480   -2.07044097872848
C        -0.32562618617643    3.11432590681384   -1.49229695460659
C        -1.18113283110827    3.73013745965687   -0.55583714072484
C        -2.00704621829483    1.39553331566660   -1.95557415490788
C        -2.89182133886208    3.38845286163501    0.96256738934807
C        -3.53745675101726    2.29067209962228    1.58227692254587
C        -2.52573311155945    3.29298547045084   -0.42331396484059
C        -2.95884611613112    2.20777508476655   -1.20324219068799
C        -4.57587163812013    0.15240263401531    1.14790236869437
C        -5.02363985161788   -0.46707037501333   -0.05103274321245
C        -4.51993463764405    0.35495620125720   -1.16960795541636
C        -4.31930550023739    1.51401592805791    0.78061114883705
C        -4.12050299755855    1.57076237171898   -0.67017443770172
