66
C66 Isomer 2649 Symmetry C1
C         4.28381637265696    1.33076924501316    0.62588753262177
C         4.36058763240549    1.15139729295365   -0.72367359233713
C         4.50097025762302   -0.30183226959522   -0.97502853424652
C         4.36460555255666   -0.00781644904640    1.26366137725157
C         4.25143492160098   -1.01095353436174    0.25876895142082
C         3.49953890992878    0.00968149948689    2.32817009777429
C         3.18366364046090    2.04827993731929    1.20574581969631
C         2.85488498029593    1.32717864848635    2.38343513368754
C         2.12030455466431    2.52464337761337    0.38504004823491
C         3.33859241733865    1.67050421690719   -1.59409988810246
C         2.19737688807400    2.31960742342588   -1.05621566599966
C         3.79325369600126   -0.57481374212800   -2.10890498076218
C         3.14431908052042    0.65683209692813   -2.57205581532976
C         2.82718624679018   -1.62350587310429   -2.13443885150524
C         3.19513380772139   -1.96743567759654    0.32087839329743
C         2.58232097741206   -2.36477178176239   -0.94024439699487
C         2.49390201483150   -0.97917391401911    2.47387164430077
C         2.32655371493438   -1.98329299704748    1.49698521530369
C         1.54267365894975    1.13038300848415    2.77217084901569
C         1.32099759490740   -0.28781020973509    2.96013514475888
C         0.81069328872952    2.61260909273700    0.98525659564076
C         0.51521670739977    1.89951695124330    2.18979896386769
C        -0.30267990680586    3.01229346674878    0.17703311528250
C         0.95239104485880    2.18152277286002   -1.78171194451161
C        -0.23311000078573    2.78601936952472   -1.24293925428163
C         1.88293183073878    0.30316964865132   -3.01741337333709
C         1.72162383708134   -1.13906441584176   -2.89107499672673
C         0.78094517928631    1.14037342042358   -2.74989643968495
C         0.44611788878479   -1.69179218548790   -2.78643731717829
C         1.33188405572847   -2.99910304297600   -0.91203180385679
C         0.34326148042273   -2.80386827599287   -1.91541594321458
C         1.01103841984107   -2.60093348879567    1.47435792697666
C         0.62776866933266   -3.28527323337040    0.31579443260090
C         0.05197116118599   -0.82442666059318    2.91568995883515
C        -0.06904609748173   -2.14351859880969    2.33289299865674
C        -0.81373209737172    1.47090725786345    2.51363323544436
C        -1.05558306676418    0.11226757041756    2.95377193606379
C        -1.57364546104266    3.03991833678996    0.80132413698226
C        -1.85197363911354    2.19742737598807    1.93608569890878
C        -2.75504702095891    3.05674909782953    0.02207972518355
C        -1.43629607357371    2.58878807219604   -1.95754721568730
C        -2.69512397839763    2.83615599639919   -1.34095159034902
C        -0.51864105019586    0.57897106218052   -3.01523422759547
C        -0.70839804759236   -0.85875498472852   -3.01952430535143
C        -1.60433022909074    1.40604667025863   -2.75718247445349
C        -1.96417376021782   -1.36195695182580   -2.63605538838957
C        -0.93158421483217   -3.19207446874799   -1.38971976027890
C        -0.74330318454717   -3.53952410042793   -0.00660481354861
C        -2.07208499168215   -2.52976109899373   -1.78931378841350
C        -1.37789006546993   -2.59861339869771    2.11084358449183
C        -1.74910702489173   -3.27946723157997    0.90023640561094
C        -2.34767880881183   -0.40537596201245    2.81728989533016
C        -2.48243486584574   -1.77282689197634    2.46140883021503
C        -3.18349115959547    1.64102516749264    1.79483934051517
C        -3.74285324335842    2.13538601547804    0.60247114657954
C        -3.39824920508626    0.31630646213629    2.14664561781963
C        -3.60793348318883    1.74040719690504   -1.63473519985598
C        -2.92278873910158    0.87169936565659   -2.48407887130086
C        -3.05589385128981   -0.51336615208434   -2.30136701992755
C        -4.18278351096379    1.25414955058425   -0.41117811478078
C        -3.16074646686459   -2.31373286816402   -0.86973771845170
C        -3.02169703732681   -2.74170307760570    0.44759455168687
C        -3.49494779286715   -1.87029110944857    1.46288197364484
C        -4.02227020345684   -0.57750421273952    1.19705742846676
C        -3.76587927847267   -1.03870852334779   -1.16977080815678
C        -4.24456292601886   -0.15993928433846   -0.15115361155715
