70
C70 Isomer 4949 Symmetry C1
C         4.95261267303544    0.22623881728889   -0.66434489049592
C         4.68184345504454    0.63878286799516    0.64347540419418
C         4.04377666257653    1.94754169909399    0.55609644421392
C         4.25050807403555    1.15075966050475   -1.57622821991728
C         3.66125766023134    2.17040088276086   -0.80074860205480
C         3.44513666209349    0.38537389418949   -2.44320237163813
C         4.63095533961416   -1.07345587683918   -1.03289977335593
C         3.80592833588163   -0.98359179532734   -2.24164502350436
C         3.97719184093682   -1.94577048697312   -0.13091381942112
C         3.91481731042871   -0.16545134865142    1.52778169980959
C         3.54008133510182   -1.48534506835632    1.15499279699437
C         3.08582976986810    2.01398115348984    1.57114873663753
C         2.93830895345631    0.70999856204094    2.16805285385855
C         1.94958247029526    2.77239193198128    1.32733646139994
C         2.33551875451568    2.61082111654822   -1.11000453960266
C         1.63611805873185    3.15164256479296   -0.01578769300212
C         2.07012723442624    0.71543151288716   -2.68539669402522
C         1.54762783282146    1.93129072718448   -2.12718142766830
C         1.15402454746788   -0.36288984881543   -2.97360931259323
C         2.83752836067010   -1.96954818777703   -2.19308742947911
C         3.03314220059123   -2.68430193187003   -0.94262757561085
C         1.52239629690319   -1.71461476286374   -2.65923555535007
C         1.97225407085355   -3.29733593034082   -0.35686050412553
C         2.29349527479252   -1.99436428215894    1.69811235021234
C         1.66923194390293   -3.06798130107286    1.02797331888466
C         1.67803403062719    0.27432434763590    2.58269768089853
C         1.42419082540425   -1.14835855227799    2.49193262681751
C         0.72835273628410    2.45174986642465    1.97235758165912
C         0.54660486251944    1.20608169704205    2.58545380480256
C         0.22848302318239    3.33364283525642   -0.07628661404216
C        -0.33818795970020    3.00829599738752    1.17633480204156
C         0.13336906677387    2.19958644607231   -2.22493322973509
C        -0.48100094059742    3.07250414737016   -1.25962111406476
C        -0.23743869147178   -0.05123008616654   -3.15645701500593
C        -0.72566297777872    1.28427021470450   -2.92276629091891
C        -1.17180972711937   -1.10349708920685   -3.11803506272266
C         0.51493345154952   -2.64027017991965   -2.22140236507650
C         0.73051773461233   -3.44080137519791   -1.07442357192134
C        -0.82136035446700   -2.34175900744856   -2.50315044370307
C         0.28560303392476   -3.37035738444334    1.16711206446101
C        -0.30618008584496   -3.62263643823167   -0.12972230265283
C         0.10632038602125   -1.55084834759395    2.72552312060686
C        -0.46861410128148   -2.69838804197398    2.09919229927829
C        -0.82111643376109    0.74476190508874    2.71816001563609
C        -0.97911010634743   -0.62431225868443    2.93188785523453
C        -1.67564539670328    2.61782255940266    1.30788245211910
C        -1.96070497113918    1.49957029845785    2.18761756220387
C        -1.87905479715707    3.10076828150504   -1.08706571226807
C        -2.49407794786100    2.91201465314858    0.20353622749236
C        -2.13847197633360    1.47570912659632   -2.86490201089839
C        -2.68996873231282    2.46483231897829   -2.03623643458052
C        -2.57084798847332   -0.90067382707728   -2.88329474165581
C        -3.08127104813331    0.36956206940902   -2.82732609432835
C        -1.90623709158951   -2.78501845036713   -1.69186126752630
C        -1.65363792481031   -3.28911160618394   -0.39738802671878
C        -3.02866722739137   -1.93393650437492   -1.97362550659954
C        -1.87963739607715   -2.50003183972089    1.90374715689881
C        -2.20096478573768   -1.28747311859151    2.58389439235360
C        -2.51180623307893   -2.83485269729896    0.68401288014887
C        -3.19886456746996    0.87188620402061    2.02033933085357
C        -3.31296948551827   -0.54992937907636    2.21371156063102
C        -3.73855072965493    2.21264392407222    0.00511712693115
C        -3.88160358940817    1.95272825715652   -1.37859942450785
C        -4.14185201392788    0.65993375518890   -1.87387745922917
C        -4.09922667198436    1.22049530334168    0.92232308148313
C        -3.96241492932831   -1.65212337212049   -1.00548396497668
C        -3.69068293511821   -2.10417941166686    0.35516794447381
C        -4.14241985130219   -1.08161366135314    1.19996553944770
C        -4.55718520951506   -0.32760120471384   -0.96068083480647
C        -4.64845939078010    0.02481505571846    0.40697574710569
