78
C78 Isomer 20140 Symmetry C1
C        -3.57482625561803   -3.16158216622601   -0.48838838025733
C        -3.11405271823428   -2.99688535827910   -1.77764565045836
C        -1.81251484439477   -3.64522526816317   -1.86525609981517
C        -2.53473724055750   -3.87226695952559    0.27005835963297
C        -1.40776702736121   -4.07842362189395   -0.56737912489586
C        -2.39483575642114   -3.24209259993117    1.49697703325379
C        -4.01722743526056   -2.04914622838995    0.26046432339043
C        -3.42360634081075   -2.21256710509736    1.57977682632548
C        -4.08037371611008   -0.76469809924957   -0.32176075075886
C        -3.00856089360832   -1.69188954622204   -2.33278677264401
C        -3.52940481944616   -0.57636873469919   -1.65665991083332
C        -0.98376743163044   -2.79664805336924   -2.57871431980730
C        -1.70468770100393   -1.59101623023642   -2.93332037227009
C         0.38135393154350   -2.73417424958312   -2.26320472384590
C        -0.10587314556960   -3.77964960648512   -0.09052712198949
C         0.86196721621932   -3.30590295682100   -1.04681457227282
C        -1.10271246087822   -3.03753215765818    2.06058412638879
C         0.06173460729560   -3.38942815937228    1.29198544404926
C        -1.01485322613473   -1.98229390853633    3.03613210868468
C        -3.23107068398904   -1.12615992773571    2.37831057405462
C        -2.04058413301112   -1.01742346156062    3.16819006593520
C        -4.03290906369763    0.36038389018626    0.59264450760546
C        -3.61540011632305    0.18042864340755    1.93125675514692
C        -3.83854759270783    1.64112992775968    0.08668724000405
C        -2.98248050207714    0.70470856542511   -2.04422693716873
C        -3.44429275440430    1.82327905135022   -1.30632326944913
C        -1.03021946056288   -0.38275749900046   -3.06712355733324
C        -1.72973934739635    0.83062876083116   -2.73378690101465
C         1.08108953833510   -1.65762126007807   -2.88671690812310
C         0.40631554798165   -0.42987020675036   -3.18734564312993
C         2.46301335014915   -1.67347957235697   -2.68218287746892
C         2.19691503411895   -2.98038813561158   -0.61913024679525
C         3.04210744435287   -2.37735563772969   -1.55537768289674
C         1.36308730079288   -2.93030965344216    1.71889355977487
C         2.48942962500500   -2.86335285311872    0.79702476038005
C         0.24883030194665   -1.53309470985492    3.40337981590170
C         1.42818757485445   -2.14504484031922    2.87808789012430
C         0.53336576262927   -0.15969646120217    3.64820808564982
C        -1.74240457274813    0.36202635192291    3.28021620667406
C        -2.72740069710205    1.10397988404550    2.54153733458125
C        -0.42083327493904    0.83810304341800    3.39416998869867
C        -3.22502849292384    2.68056714815044    0.85056173621125
C        -2.42404349476907    2.35536041676654    1.98368200001159
C        -2.83614877265728    3.05954151653527   -1.43359070894989
C        -2.75068415090512    3.63736969859200   -0.08960932336416
C        -0.96227751060369    2.05366959879502   -2.64392624180487
C        -1.56741493967101    3.19008174534848   -2.06593224250371
C         1.14488209571656    0.78394558401884   -3.06515985954326
C         0.48171893744643    1.97347413832948   -2.60912158022692
C         3.20848494030716   -0.51663589636768   -2.91195102808740
C         2.54756319021689    0.72525686583827   -2.91891045955178
C         4.22045831973321   -1.64475986237657   -1.16039268860335
C         4.31228035052593   -0.48660789380481   -1.97282443074358
C         3.65355358380601   -2.17410240061131    1.17546941600558
C         4.51482528115688   -1.53038194868073    0.19965307937078
C         2.49560142292716   -1.22568215370294    3.09881938210815
C         1.92067558453872    0.05078493611964    3.41043651042376
C         3.63571324719958   -1.30873845588348    2.33461481312964
C         2.34569207324924    1.21598130009404    2.75221161033507
C        -0.02383679227484    2.05047617200053    2.71465342650249
C        -1.05362938293557    2.85276105437028    2.08997811479555
C         1.34855470353457    2.16513819861851    2.31195762002846
C        -1.50910591722685    4.19335605122233    0.05967771709347
C        -0.79623185843125    4.03594227956921   -1.20885060456189
C        -0.63342652912630    3.78451684949524    1.11942411797810
C         1.21795084989721    2.80195302088801   -1.71378562394268
C         1.65729308997512    2.88929865361328    1.10952881267527
C         0.51165646233042    3.72019715900077   -0.91094404053105
C         0.66221529421882    3.65789647580268    0.54049603840630
C         3.25839019910923    1.56097214922896   -1.97338455665629
C         4.35113478725666    0.80429437658439   -1.41026190811600
C         2.50738306892428    2.42938532772112   -1.19748375261827
C         2.76046248710900    2.51534234539432    0.23527733009721
C         4.87464519472098   -0.25132549208416    0.69401257800652
C         4.28078241509074   -0.09367070829171    2.00780779442362
C         3.58866153810021    1.12421725618237    2.06295364927923
C         4.62916105886934    0.92663315451215   -0.04204394994599
C         3.79537364233834    1.77716844916431    0.77704406984091
