76
C76 Isomer 12558 Symmetry C1
C         4.15875218493144   -2.39173743451170    1.00379573388384
C         4.22510724141336   -2.41663141451364   -0.38461636642577
C         3.10772726500113   -3.21227102071919   -0.86731325644538
C         3.00199141789652   -3.17356383513985    1.42452119746927
C         2.36190010679162   -3.67043986381396    0.26538486887281
C         2.25104860306128   -2.38434649377568    2.30822240765985
C         4.13678225297991   -1.14917203383742    1.70895753147521
C         2.95867627001401   -1.14697643348175    2.54256155140763
C         4.46837113899084    0.00170445774157    1.00893026206953
C         4.27497767355882   -1.19637441643547   -1.12677620884360
C         4.54453511381459   -0.02194876676832   -0.43034094210437
C         2.46261904008702   -2.44839777653142   -1.85731166914750
C         3.17110350215431   -1.21253051978914   -2.05921901979210
C         1.06662707410679   -2.50131964267555   -1.99904513822216
C         0.96784322174748   -3.67759743786496    0.20383870304265
C         0.39342308756645   -3.38297164694052   -1.08410317584629
C         0.83425353562476   -2.42848016198499    2.30576660442845
C         0.18492933842021   -3.26640246505948    1.33937826472932
C         0.12043990019447   -1.31885775754595    2.85591283965513
C         2.24640848778548    0.02030564791036    2.81781896924135
C         0.83164914635624   -0.08978227192247    3.09755351227796
C         3.84881779351633    1.23838353597602    1.38412717007423
C         2.80877326223856    1.27414157994786    2.33817444103169
C         3.97725649305382    1.19648286472286   -0.90446848276100
C         3.74399332205749    2.05874997973215    0.21790574010300
C         2.46317658066953   -0.06135380276518   -2.41695143344852
C         3.02868406653856    1.19562911958633   -1.96293206587943
C         0.34748270301904   -1.38577175567129   -2.54041082979016
C         1.04488506965887   -0.14566034243201   -2.72388809706862
C        -1.09239228437987   -1.40960243570679   -2.53587351538225
C        -0.96842843675609   -3.45214578867019   -1.16961027687266
C        -1.70794745177022   -2.61095640142220   -2.07193031107380
C        -1.24016177036804   -3.26589109081425    1.22991685478800
C        -1.77327139521932   -3.70891346749734   -0.00720693029309
C        -1.32479610807474   -1.34955068251612    2.78616030640423
C        -2.03100516574584   -2.38739151666256    2.05810037297798
C        -2.01012019527754   -0.15592272926562    3.05778273117816
C         0.08713774199015    1.13220477491272    3.17712072651456
C        -1.31377315638278    1.08419749235508    3.14801721092900
C         1.99133712051778    2.42028377875436    2.30214143052069
C         0.65759608913828    2.36158505561825    2.77660771979697
C         2.86903194566769    3.15181504672079    0.13846944970836
C         2.06765440699901    3.41600520837395    1.27593461416379
C         2.26543064113440    2.34742783350056   -2.11606161599634
C         2.30804575346743    3.42360748404087   -1.14328757562224
C         0.25860691322656    1.04806439312527   -2.82344885905984
C         0.94706083443763    2.28798435082116   -2.67556487538272
C        -1.87617796492618   -0.21284829619482   -2.51310880804881
C        -1.17158836432817    1.03606164688704   -2.61005236827771
C        -3.23472329112428   -0.25091000315113   -1.97211586847514
C        -3.04009864366022   -2.66511699493826   -1.66700614733374
C        -3.09034066542285   -3.39267975287442   -0.39001249965726
C        -3.81410286264000   -1.48879308654268   -1.55232555986497
C        -3.38651958590589   -2.15389686479497    1.68486646370639
C        -3.90022725628130   -2.67773248958332    0.46245400536018
C        -4.50079531306299   -1.57794596400547   -0.30250398671247
C        -3.30356431224701    0.12602310207693    2.51262890083313
C        -3.97384582207561   -0.84369411269418    1.81412373751953
C        -4.60508190018955   -0.48026375539036    0.54827525631501
C        -2.09415678778909    2.10842095336800    2.53294087467921
C        -3.30836487925856    1.50725418439068    2.08192477764257
C        -0.10866181578102    3.36071528640514    2.09360383579037
C         0.76637301365609    4.00577207860452    1.15489874504941
C        -1.47573187818792    3.17265031313920    1.83695540534747
C         1.09832467094056    4.11318042764526   -1.23617432638076
C         0.27903037436554    3.44195637822532   -2.22703385217323
C         0.27504782487373    4.35504212366705   -0.10253673865433
C        -1.79615784554374    2.21438078043023   -2.06491544134140
C        -1.97469638245615    3.48909725612812    0.50989394050166
C        -1.02971448754643    3.36247725816471   -1.75329375023680
C        -1.07680399095249    3.97841366947529   -0.44730349952594
C        -3.70420499985933    0.87657807486773   -1.26547257417950
C        -4.35270817532172    0.78310954429453    0.00739259698260
C        -3.81109632326897    1.82722806315923    0.82746007377023
C        -2.94513688164968    2.08352494996929   -1.26987022537634
C        -3.04051583021015    2.71238403216622   -0.00043353620520
