76
C76 Isomer 15216 Symmetry C1
C         4.26698133364845   -2.06018321286467    0.32613961735330
C         4.20383773861962   -1.84730204275215   -1.04262814629607
C         4.60034236695516   -0.47613185226833   -1.32570730778698
C         4.67753096103659   -0.81297251381118    0.96066478236291
C         4.92450808093195    0.14366339014689   -0.07772633348732
C         3.75639856738917   -0.54403957790866    1.97852246507525
C         3.13693839870209   -2.57706554260554    0.99918389592677
C         2.84600934839701   -1.67644381754542    2.07552846839652
C         2.05621796800306   -3.11942935284675    0.27953914153437
C         3.00453678114243   -2.14645716004285   -1.74491972835648
C         1.97609856377391   -2.88459215112858   -1.13871716249952
C         3.60997723184296    0.07504528285760   -2.15338498130066
C         2.66414373726598   -0.97605331459171   -2.49056132732019
C         3.16115223328554    1.41754057285361   -1.97557155374316
C         4.50202400530501    1.43991544123287    0.13477555090910
C         3.79242978871195    2.14165457098146   -0.92096375378762
C         3.28456079006620    0.78235974910410    2.21871469528286
C         3.85666798813286    1.78694091602990    1.38364898290832
C         1.95766948004331    0.95856867197715    2.74712698860563
C         1.56317037453779   -1.53195390437212    2.58092793232027
C         1.17209509910253   -0.22109673338365    3.04979388781300
C         0.84532367974523   -3.28577119358521    1.01968743842548
C         0.56810988823066   -2.51195761440594    2.18899957102244
C        -0.23687464036052   -3.80599567159801    0.27984916456875
C         0.67904412314728   -2.79137094989293   -1.76132622078465
C        -0.35124371632276   -3.49569066524873   -1.13726142413612
C         1.34685229620005   -0.68338490100820   -2.83448954598175
C         0.33791811524067   -1.69581128450205   -2.62584465076802
C         1.81652326406399    1.74914374631239   -2.36057621338658
C         0.99008337446390    0.70944668861376   -2.92734421382478
C         1.13208569982973    2.86024438865130   -1.74885615262614
C         3.06988497929016    3.17282365191380   -0.30246717188763
C         3.10015144516517    2.94458633985154    1.12963206824873
C         1.76305872638662    3.50577034352820   -0.66200428961561
C         1.23683571101269    2.18458869767024    2.50813287497102
C         1.81524382788797    3.13633775843366    1.63411195275244
C         1.00861458463453    3.66723196709487    0.55950541032968
C        -0.18636258469094    2.28267551118719    2.65368684255911
C        -0.17227894856876   -0.05269875776518    3.36365139191956
C        -0.83513066319982    1.19697248004658    3.25614500080592
C        -0.80073122737020   -2.32417542483220    2.58329553537760
C        -1.15567971113801   -1.09348199621424    3.17173451752726
C        -1.52153714603080   -3.81527183369524    0.80904289110094
C        -1.85551655955350   -2.98916570776557    1.90969987026213
C        -1.72671807875812   -3.26274397202426   -1.42995168483119
C        -2.46364974307044   -3.56574181571591   -0.25500602650744
C        -1.04865019469902   -1.38553596917475   -2.84393054998005
C        -2.10842465970418   -2.17135933545773   -2.24548362298547
C        -0.35636897153347    0.97527253463536   -3.14412718758455
C        -1.34821718531208   -0.05688113315665   -3.20532029634665
C        -0.29511436375408    3.00771435025875   -1.80512227643052
C        -0.98477229907834    2.17421388115794   -2.69096940285657
C        -0.37369260041619    3.62447709930843    0.58536503221036
C        -0.98346110647963    3.12730477278204    1.79404945836177
C        -1.04643510319917    3.54810821667660   -0.69189852219357
C        -2.37731122964785    2.93515955151266    1.76138045230275
C        -2.23037061686865    0.92265565717614    3.07202265092159
C        -2.42266671417893   -0.49969271430736    2.96615744171695
C        -3.01403077667968    1.79222021957014    2.36881912587770
C        -3.09805381021335   -2.33048529751931    1.60033120379377
C        -3.44937440547614   -2.70190258742499    0.24091073410920
C        -3.37852153473156   -1.03628532430619    2.06145485993452
C        -3.33771189770619   -1.54160320929530   -1.90924094849935
C        -3.95605251058947   -1.74461227420510   -0.62768899257649
C        -2.61906230126518    0.54015073776703   -2.92872641080218
C        -2.39255611585323    1.92713749029431   -2.60163312949504
C        -3.58852624830193   -0.17918259437689   -2.25564081498331
C        -2.44054092713267    3.38058957512107   -0.67230266385799
C        -3.08478236801205    3.18887279201614    0.57151771684115
C        -3.13872560683575    2.55774157622918   -1.63309170346702
C        -4.04366500534068    1.27573932031436    1.47515957351632
C        -4.15791684603893   -0.11712049106446    1.23005309376572
C        -4.42731164031128   -0.49073141194737   -0.11627362447225
C        -4.34060068602971    0.45148440412725   -1.19380182869077
C        -4.13365948019685    2.20095444998356    0.42088858341426
C        -4.16772032754210    1.80406850919328   -0.93229100097578
