78
C78 Isomer 10869 Symmetry C1
C         5.25111711033494    0.45989636958679    0.62779912942340
C         5.02590522823436    0.96090989958430   -0.62712399421960
C         4.26418039261481    2.20611535189173   -0.51201662576088
C         4.65342707963795    1.43054551183543    1.57672471538169
C         3.90171658173866    2.41276997966813    0.84346306575261
C         4.01174226639159    0.70137353712265    2.53718757485369
C         4.79418712870273   -0.86392481715733    0.96399419080180
C         4.15443588196164   -0.73262631713939    2.21591673642507
C         4.21234650788552   -1.71472877601366   -0.02503120086760
C         4.43582803814535    0.15769171869247   -1.64919186852636
C         4.17972814569025   -1.21829840615047   -1.39104519617326
C         3.30565623020662    2.17303210901307   -1.51758607372821
C         3.43952648988760    0.95119018223288   -2.28937612955538
C         2.02793259398662    2.68294819406649   -1.27060090580041
C         2.53721918603497    2.66602276248284    1.15651525929098
C         1.66538495215510    3.01085684987629    0.07101813292594
C         2.65341870202799    0.95256706454103    2.88284352188730
C         1.89271806583058    1.96228917361224    2.24500175585992
C         2.93251856226595   -1.33915749236157    2.48755610790206
C         2.05280974707364   -0.32903453525067    3.03129812040549
C         3.13593955353445   -2.59724878867908    0.40673204185170
C         2.41909391210126   -2.34700262311074    1.63075995725383
C         2.39652628863949   -3.28654133769493   -0.58488239854044
C         3.25607153962972   -1.78949714147313   -2.29613473561933
C         2.57851253742972   -2.95928978615928   -1.94090998318016
C         2.30566051991896    0.38543497365102   -2.92056671677355
C         2.33183357219087   -1.00033501102166   -3.07650210909489
C         0.99974393320311    2.31235911393457   -2.21407959432269
C         1.03725254003368    1.07088392340442   -2.92760084317751
C        -0.20707788542796    2.93742364839910   -2.03597981405736
C         0.28265865542877    3.25188973360768    0.35147186391283
C        -0.50020103766029    3.57598967843715   -0.77218993793824
C         0.45243685175935    1.83736704670193    2.30467501021235
C        -0.37318171949884    2.69085797511366    1.49988734603407
C         0.68638044628041   -0.49458079098985    2.99488018643113
C        -0.15193804290652    0.66030809929172    2.84443685036299
C         1.02648339343988   -2.63875371856163    1.77322820188549
C         0.22217959980834   -1.79232287534880    2.60654927256592
C         1.01103796586750   -3.64034455869506   -0.41796989381877
C         0.31527144647590   -3.35847208148031    0.75359625669246
C         1.27649276461452   -2.95882845430231   -2.58298013225967
C         1.08691034804252   -1.71050509020910   -3.20302154430790
C         0.32700127716331   -3.43439353530149   -1.68430121953268
C        -0.20346878201057    0.37073277783435   -3.11874191346596
C        -0.16687064015998   -1.06862885292418   -3.13170765740150
C        -1.42479200427770    2.39153632325367   -2.55051773425101
C        -1.47009523013465    1.02090656791941   -2.89080656289934
C        -1.88369353004166    3.62785777696939   -0.65919043951508
C        -2.47095418163807    2.98561001589585   -1.81456676439546
C        -1.81160648359699    2.56827565250889    1.53768153441408
C        -2.56011164212044    3.15928236981710    0.48796021849536
C        -1.56668147706576    0.46342330391847    2.80867398187385
C        -2.43495386069721    1.46673170497273    2.24811430133414
C        -1.15230213158705   -1.95467529499858    2.63031523792516
C        -2.03775034172311   -0.86454125755139    2.90980510674392
C        -1.12742036782812   -3.35878028771105    0.67824343611208
C        -1.84018983782948   -2.87258794004733    1.78181667295977
C        -0.97970935779018   -2.93839854204900   -1.74778406195503
C        -1.26990083185212   -1.78860686656281   -2.55926631493403
C        -1.78553811209702   -3.23019765966327   -0.59645334564672
C        -2.67388277998901    0.28050040991993   -2.56585217111651
C        -2.53806222518992   -1.13703638098953   -2.38977379177548
C        -3.59516140585607    2.27035565375485   -1.41631361153660
C        -3.76753721677898    2.54869175336128    0.00333492870889
C        -3.79525466557316    0.95381839797936   -1.91742877650723
C        -3.76631736715084    1.09556994796543    1.95716505834666
C        -4.42668511841018    1.63338060622164    0.78599796751123
C        -3.34421156037777   -1.25121043792701    2.48379173936962
C        -3.21017622723588   -2.48164245133821    1.72910831097284
C        -4.23968559118895   -0.26444313876686    2.08774822512156
C        -3.11090529502907   -2.83200079289282   -0.65583381516320
C        -3.51851212389990   -1.84885016696765   -1.64168005808494
C        -3.90415245659612   -2.62192131668111    0.52730965652420
C        -4.75396274577785    0.20330645903996   -1.18550173191341
C        -5.14889325311119    0.60987465225126    0.13026301474868
C        -5.12028669897470   -0.55051520540433    0.99344920996261
C        -4.66483741831988   -1.21060238068051   -1.15577706131053
C        -4.91232438896542   -1.67805216007507    0.20197282988952
