80
C80 Isomer 14642 Symmetry C1
C         5.37411665317438   -0.41624172936681   -0.06836877121433
C         4.98071981240786   -0.66182972596465    1.22449832615629
C         4.56444662678473    0.60281774067872    1.84912535070157
C         5.32325462563003    1.05435513728451   -0.24631895696391
C         4.66969809999357    1.64065442884990    0.90837365033590
C         4.83415165529481    1.28142702326849   -1.50381773095019
C         4.67019360443175   -1.03267850894874   -1.16424380830682
C         4.43655284531858   -0.00185828701636   -2.10278334790376
C         3.62608712473372   -1.96320902964444   -0.92622733142963
C         4.00812803697568   -1.64421429285937    1.51397899477506
C         3.44815116267273   -2.39224828497430    0.44563092926563
C         3.37528368929601    0.35209723976066    2.53899701907773
C         3.10027260537556   -1.06054724170545    2.46250795880131
C         2.30197841166369    1.27151719998693    2.50924195380727
C         3.57243857639115    2.52786198940163    0.75432928046850
C         2.44622849484610    2.43214236461901    1.67291204564104
C         3.79150573411428    2.22012150046569   -1.71279343267554
C         3.28705269105920    2.95081086263604   -0.60177889644365
C         3.18835014592190    0.19443914450241   -2.68729847516848
C         2.85207571085622    1.59424841628965   -2.58747769635870
C         2.43746154917925   -1.91631781889340   -1.76444503940223
C         2.15086520228080   -0.76649045757984   -2.57729421753715
C         1.32473458377792   -2.76091786520749   -1.45790777792317
C         2.24995636800365   -3.03422171394290    0.77224641921211
C         1.34152889108924   -3.44513028520876   -0.22588925176796
C         1.79954124204523   -1.52820857051143    2.63154913523343
C         1.48241152174203   -2.71740260933841    1.94530723221251
C         0.99685165800453    0.78129720934322    2.89166663294444
C         0.73499761138963   -0.62563626559402    2.95612729273686
C        -0.10365760013601    1.69388092593847    2.85453064452644
C         1.25938370037750    3.21302184664881    1.43304016096416
C         0.02610973529360    2.94157083625032    2.14574243906065
C         2.04813921686638    3.53607603852268   -0.84548790198954
C         1.16394069265864    3.89716700767978    0.21179398403749
C         1.52025300149022    2.00082234980383   -2.66576194079997
C         1.23778658978429    3.18643398790197   -1.96512182502627
C         0.79583788565945   -0.34579216536420   -2.84480669242230
C         0.46337121650070    1.05442340531323   -2.90332344973248
C         0.05052308384323   -2.56437387309612   -2.10070348610734
C        -0.26257790902491   -1.30769893892471   -2.72583966774904
C        -1.03310189174686   -3.34788062518508   -1.61578234766211
C         0.11262197791105   -3.74489011113666    0.45564331869155
C         0.14526785396627   -3.13233485146474    1.74934853471903
C        -1.04651980924545   -3.79909056821337   -0.23776406113150
C        -0.61299767050506   -1.13228761404575    2.86138772595522
C        -0.95013707450632   -2.37237333643172    2.20016738058197
C        -1.38807324933058    1.18119566589464    3.09577581511536
C        -1.64980625127022   -0.22018421652577    3.02040115486948
C        -2.58435950660316    1.85178573720966    2.69956927244027
C        -1.16608010019478    3.55041797501151    1.70554201791047
C        -2.46782447995904    3.02279170518515    1.97989738510285
C        -0.10886614591232    4.14325808115216   -0.38691711709347
C        -0.09801346314961    3.55713221771383   -1.69293855091600
C        -1.24464860953086    4.08228936529619    0.37244909423066
C        -0.89167680598259    1.50405542880301   -2.75542440911294
C        -1.17642303556609    2.79181863790968   -2.14982663523509
C        -1.62577931468184   -0.86865664536764   -2.88002585680548
C        -1.94947067062146    0.54174333718324   -2.85464912557289
C        -2.33877117172205   -2.97597982413942   -1.89101219996661
C        -2.66063016561358   -1.77316697224693   -2.52254479952424
C        -2.27210255237083   -3.37179416330006    0.39363947087220
C        -2.23291942403486   -2.53502981301688    1.54514183499838
C        -3.14949266407224   -3.07292620414681   -0.66005793775190
C        -2.96927147834443   -0.43185452134232    2.50704520839340
C        -3.57039761865680    0.85496263362883    2.34885722708624
C        -3.25676449691613   -1.51897428163940    1.65151563620716
C        -4.46679799204385    1.09130580264127    1.32223436304542
C        -3.31495243045913    3.20703206018847    0.81981721463183
C        -2.47187448779641    3.69870112892157   -0.23846539400874
C        -2.44257796534805    3.05195926773814   -1.50273955295828
C        -4.32375399861088    2.30672949552203    0.54357546157620
C        -3.25650936041824    0.95141916053627   -2.49985667861083
C        -3.49866490106185    2.16769670498625   -1.78833017201457
C        -4.52080537754631    1.94165076185152   -0.82019643591007
C        -3.87759059186846   -1.31380303272247   -1.89509784270432
C        -4.04388682947588   -2.01609364565505   -0.62743594369436
C        -4.21658859745584   -1.27982847533030    0.58636455267770
C        -4.78469969181297    0.00896341983020    0.42816748222466
C        -4.21927445909408   -0.00016133350776   -1.98262332812203
C        -4.90493004611548    0.57823265720993   -0.87576151462058
