76
C76 Isomer 18021 Symmetry C1
C         4.39624860112060    0.01062039540150    0.98728093942771
C         4.12971788760748    1.19994105688966    0.31141824244630
C         3.25816222044509    1.99435491430645    1.17453584370280
C         3.68490201586428    0.01907286494527    2.24201948529649
C         2.92986283984354    1.20791621182207    2.32288008437530
C         3.09438212845936   -1.23886860316943    2.43093343690840
C         4.20531035616891   -1.27017296946348    0.38955438753651
C         3.43173561766483   -2.08110236042088    1.30957802771071
C         3.92547631179679   -1.32147869212487   -0.96546987030103
C         3.88290864315578    1.15831447676752   -1.09083550698905
C         3.77101074343649   -0.11152312733564   -1.72220430180194
C         3.10356248563681    2.19165000845728   -1.61609179416183
C         2.33956163655958    2.90577083585682    0.66064088017726
C         2.47093407741741    3.16541328492875   -0.74873940311452
C         1.06954084634750    3.08901096563574    1.32371516197650
C         1.62840781349838    1.21092963562095    2.86914392016836
C         0.72009896840633    2.24274224270147    2.44477617462928
C         1.83584480824285   -1.29545594290747    3.07032161796843
C         1.14749649005971   -0.05697618339048    3.38688078496525
C         1.09677186371431   -2.46303727882997    2.79344541909911
C         2.51853259344917   -3.03716588140081    0.84326195594681
C         1.41416166803869   -3.31088494213940    1.69661442414409
C         2.98063406090118   -2.29050684095880   -1.45418323189702
C         2.32670116855326   -3.18939575158686   -0.58874167915448
C         2.74274440089354   -0.34831952917980   -2.68961411624606
C         2.29463391754763   -1.69856816432128   -2.55048882209743
C         2.22765906959547    1.97432204252450   -2.73185241314842
C         1.86736978913791    0.66372470769266   -3.14202707982674
C         1.40627530917241    3.72193888885257   -1.45587079332860
C         1.23441056949832    2.96821941231490   -2.67689449503438
C        -0.00063159826179    3.68664824449784    0.55650092490586
C         0.14643055330232    3.87435013325131   -0.85106930949987
C        -1.32788265255864    3.55498160060936    0.96193009442215
C        -0.66098374228476    2.14289968052812    2.85906227452948
C        -1.65740224420105    2.89858826792060    2.19959252588673
C        -0.22218537137353   -0.15125727963117    3.65893141019514
C        -1.10864368772150    0.93492994602520    3.45788010645376
C        -0.32699621912860   -2.48523292908656    2.95520274961070
C        -0.95973358784751   -1.36781359817182    3.43180337814777
C         0.17515767394371   -3.81372145916648    1.17964624888472
C        -0.92955563389960   -3.25605113113795    1.92095054099432
C         1.09782477496897   -3.69089958269453   -1.06469021438984
C         0.03011211822395   -4.04862739036059   -0.16842517648562
C         0.99761642524839   -2.07223333915188   -2.92671519911490
C         0.48793061013437   -3.20623151135696   -2.25419043331897
C         0.48093300452935    0.34626477632986   -3.41596496582620
C         0.08903243220830   -1.04898636928700   -3.41739569638002
C        -0.11660886428247    2.63994001795729   -2.79360731361026
C        -0.83450493500619    3.34044647714693   -1.75787140778672
C        -0.53061526291210    1.34659722724388   -3.19465229990720
C        -2.38918605698768    3.30281041241240    0.01805162910588
C        -2.08244113988350    2.91647695596141   -1.31302403012375
C        -2.97818957755467    2.42066437969863    2.07951291958885
C        -3.39117309779792    2.61844087192777    0.71885635905526
C        -2.40417585923418    0.37675348666186    3.15375707223111
C        -2.25911924065922   -1.04187534280024    2.94957674678781
C        -3.31699746314164    1.09087656252590    2.41392224041368
C        -2.13502161435556   -2.86375459580420    1.31027273724183
C        -2.83803362507659   -1.71615033072299    1.86074289063572
C        -1.23281287637632   -3.81423402646345   -0.79489939434544
C        -0.92451647101764   -3.40735383299035   -2.13688864567350
C        -2.31974037810042   -3.24036491343238   -0.08167512826985
C        -1.27248616842446   -1.34622204655723   -3.41895614399015
C        -1.77756766110592   -2.57210814783550   -2.82876107131197
C        -1.89581859893757    1.00300371765666   -2.87543744525709
C        -2.68072192222167    1.73925599837753   -1.90594892494809
C        -2.26506861041865   -0.32391414843002   -3.17526917905356
C        -3.93990633970797    1.41906663460531    0.21136992663475
C        -3.93451227221315    0.44907766135383    1.26863004535664
C        -3.71593173348887   -0.92483580555162    1.00571255676147
C        -3.67268225575151    1.04088706773600   -1.13182811595086
C        -3.25274966488394   -2.50953432904385   -0.85781504961831
C        -3.02393712144077   -2.29617592986263   -2.22806605756735
C        -3.34758019674255   -0.92354846998348   -2.51613612442461
C        -3.88282520336091   -1.31180570875891   -0.33124749325566
C        -3.91215754643195   -0.33051357963483   -1.37535783711165
