74
C74 Isomer 11922 Symmetry C1
C        -4.48362854310788   -0.58771394369085   -1.24463991220625
C        -4.14791467941915   -1.87224752436139   -0.93638377867588
C        -3.20594067745748   -2.34147989368278   -1.96727262607167
C        -3.69993349426511   -0.19723621103466   -2.42994995144443
C        -2.78903739051950   -1.23305369929901   -2.76058432080993
C        -3.24738998001514    1.08564997793359   -2.19280385509717
C        -4.37282671922581    0.43302246780959   -0.25927692503756
C        -3.78293467780669    1.55396226059732   -0.92205408901909
C        -3.97199930904455    0.10992136467129    1.07281754783487
C        -3.60222249260210   -2.19996929639134    0.34849695155214
C        -3.45427096698642   -1.22620241064635    1.35915816021199
C        -2.26460021320081   -3.11224744624915   -1.33176953894869
C        -2.55038371881772   -3.12082592114664    0.09535712092279
C        -0.91597880882919   -3.09039283332815   -1.80166162312934
C        -1.38848839909799   -0.94813570402905   -2.93504559461372
C        -0.43087817904217   -1.95353478043163   -2.56794549537482
C        -1.93625785092701    1.44718270371431   -2.61576549847800
C        -0.97021093263691    0.42699523919658   -2.97445850252274
C        -1.50169331995018    2.65959087062987   -2.08133247705285
C        -3.11340592047579    2.55777393811313   -0.20924216009770
C        -2.05612852959798    3.20785613215939   -0.87880874119352
C        -3.44530868139143    1.20643133036923    1.80171620916200
C        -3.03520401419850    2.43041333282992    1.19298211692716
C        -2.55274724873754    0.96586905218639    2.88128349186987
C        -2.29343872771634   -1.38386047029713    2.24242759258284
C        -1.88482336950617   -0.26858962843843    2.99729731106272
C        -1.49742470609323   -3.32838002197568    0.98190335435739
C        -1.29000590214482   -2.39260220907602    2.05329029395481
C        -0.07049737645157   -3.81934940195374   -0.99300188351656
C        -0.40159189033116   -4.01187855076545    0.40676337014165
C         1.34832454961846   -3.68945043406923   -1.11836534226049
C         0.97123773755430   -1.65205306254478   -2.52407097342202
C         1.87929395907184   -2.61726746329280   -1.89572776916900
C         0.43349660978390    0.74171902021232   -2.92492620066015
C         1.41185991458220   -0.30336442361295   -2.76590151795146
C        -0.13384553594930    3.03149571705734   -2.18335292730722
C         0.82178446709586    2.12133040702257   -2.68218514138528
C        -0.96701918512282    3.78223516233852   -0.16106287682457
C         0.13721295623257    3.86731901870767   -1.05809736635263
C        -1.84268931044586    2.89597983639203    1.88044010214746
C        -1.59465029252970    2.01376685219872    2.94616145617365
C        -0.74728588203770    3.46703048578007    1.20361981838602
C        -0.49284586860317    0.02360079760278    3.23439300163444
C        -0.30603855683428    1.43548187068003    3.11698611742601
C         0.07741943677210   -2.18147504166873    2.50068507109110
C         0.51724637777424   -0.86429091186741    2.90427979592824
C         0.80543833092355   -4.03643553806160    1.08866549482863
C         1.89452050327156   -4.02414161726219    0.13421874645823
C         1.08924048348520   -3.05317328612513    2.06727032385172
C         2.94775632370584   -3.27871530046597    0.67953122508105
C         2.44612980367966   -2.59331770544065    1.85523244830947
C         3.17500306176893   -2.22772508716514   -1.52770513935095
C         3.73209206859817   -2.59774570686842   -0.24370882098231
C         2.79897896973933    0.05346200183407   -2.46366073604257
C         3.65485076332698   -0.90804314837939   -1.85181117592522
C         2.16116958642570    2.43253245584566   -2.33680995610920
C         3.15207697379459    1.39528041955385   -2.22696339386938
C         1.41606854467908    3.93447477818091   -0.54828819753685
C         2.43527122775639    3.41121087533377   -1.35985805372372
C         0.61571443827838    3.12059040795405    1.62854695306724
C         0.82872168631986    1.95755605395113    2.49069586326196
C         1.66713236209065    3.50142500501771    0.80845295930356
C         1.81927731749965   -0.32834910709668    2.58231756726319
C         2.81732722684892   -1.25444162591221    2.09522964466215
C         1.96054652521668    1.07942237447689    2.32751053700588
C         4.41324761458060   -1.46938692368956    0.24296065825312
C         4.55786725770882   -0.52316590076210   -0.84001645284261
C         3.92632491613922   -0.75635703847103    1.35198338303886
C         4.02780239106652    1.75782137886179   -1.13321502755937
C         3.46560820714781    2.87741853950251   -0.49519286664277
C         2.92068514445972    2.77447887478610    0.79745022625949
C         3.08248436420232    1.56002697083643    1.54050361049083
C         4.53176661830647    0.77185805967320   -0.29886679569253
C         4.03656263161309    0.65741323554272    1.05315518039768
