80
C80 Isomer 23283 Symmetry C1
C         5.03056773717706   -0.56792314269904    0.79595018515550
C         4.94103299274028    0.80496714808525    0.82064331515261
C         4.86196935754800    1.28457540959129   -0.56623780030131
C         4.95463025258920   -1.01651824308069   -0.59833292683127
C         4.84043021840419    0.14228938971752   -1.42301960034419
C         4.00913764962741   -2.04302029729537   -0.64921344930124
C         4.13754318838221   -1.34064145265657    1.58253594713172
C         3.61976287008632   -2.35156580433740    0.71732305541517
C         3.25971921802468   -0.69635337094255    2.50050808331147
C         3.93939859504634    1.46302083853790    1.59516152440270
C         3.08483145542997    0.73703721620505    2.46300627187610
C         3.85830707236382    2.25122386147020   -0.62168119713599
C         3.38482880226845    2.45681362273326    0.73558248514063
C         2.90590848715409    2.28686847277610   -1.68731204535517
C         3.87926860829034    0.11613823610298   -2.42572883901694
C         3.01796878698061    1.24811933424779   -2.62849897920604
C         3.01800940761218   -2.10530220041372   -1.68191882759483
C         3.07015019631411   -1.05832131931182   -2.61958374667962
C         1.75666566469931   -2.78547267225240   -1.43642981524784
C         2.41425770208324   -2.98875786843144    0.97469893567268
C         1.55162902330836   -3.36045650893847   -0.13272893919691
C         2.15005070745064   -1.46146286368027    2.87553170452323
C         1.82668275607553   -2.67976727897641    2.22683548468373
C         0.91924801500511   -0.87714629043370    3.33055045670324
C         1.79587619204042    1.30875954861156    2.76147971112822
C         0.69418069035134    0.49366890769167    3.23783475736588
C         2.14273669199161    2.99873075722853    0.97333945510029
C         1.45826779911850    2.55526002224203    2.16431482216772
C         1.62520594801037    2.91962329402402   -1.46428960889259
C         1.38424214903207    3.47741027036430   -0.16444478506905
C         0.48827640346823    2.61692328118440   -2.28724781216488
C         1.82406797362803    0.77955878096517   -3.24911794215536
C         1.85581661552583   -0.64122142229407   -3.24145914060638
C         0.61501690643737    1.48914568670591   -3.16917601972157
C         0.60565769963437   -2.51765389450020   -2.25569705864029
C         0.68110365531793   -1.39713118539411   -3.15616700193777
C        -0.71407554029136   -2.98254885830800   -1.89425747482192
C         0.26956566960029   -3.79487283003293    0.19865203256275
C        -0.82539776985471   -3.70515326359009   -0.69951182063548
C         0.44707600339399   -2.93574119925018    2.46772264246061
C        -0.13835361567096   -1.80887820219263    3.13639610611740
C        -0.27415658101299   -3.62605623412902    1.52849925860634
C        -1.47459857364023   -1.43345642093973    2.90448335221951
C        -0.69788844883800    0.90397114178130    3.14744209802076
C        -1.78408839246687   -0.03153981529116    2.93752985255119
C         0.16508661952621    3.05811770472126    2.36482984988146
C        -0.92009816092252    2.25257645888011    2.85489912891312
C         0.12353645734065    4.00413257609285    0.10856644323881
C        -0.36826683998198    3.96888244772879    1.44049423468630
C        -0.84943423490009    3.03533538980708   -1.91771429210000
C        -0.98656025350335    3.84013513497914   -0.78198905490927
C        -2.02912673175444    2.28641032952996   -2.35364082525587
C        -0.51810683012312    0.72911532866074   -3.49978869647562
C        -0.48601660626155   -0.68737187082705   -3.49649518123021
C        -1.83802137286454    1.13978023754681   -3.13980785039216
C        -1.92996030844321   -2.32916741749266   -2.38450542866017
C        -1.78536889508084   -1.15636275060144   -3.15386603096383
C        -2.64941178839190   -0.02658586574723   -3.02213758713550
C        -3.15372860237047   -2.44058505320736   -1.68874615675057
C        -2.03613032034744   -3.67649904776682    0.08437869159868
C        -1.67858194492357   -3.42286847924746    1.44690601151141
C        -2.30056437474355   -2.37364553617985    2.17900140872840
C        -3.19647406120024   -3.14464463716293   -0.43146609581950
C        -3.52704374907861   -1.90671181952642    1.66459291497569
C        -4.03145276449488   -2.42535129925878    0.45499993887421
C        -3.02105894020491    0.43262192939308    2.33024960785493
C        -3.87914794645542   -0.50826309794798    1.74129065950768
C        -2.13868468276468    2.71821931836531    2.24649846101696
C        -1.79437969322718    3.79086255103863    1.39364039821526
C        -2.18196843917816    3.78323686202975    0.03709317831720
C        -3.15138110533479    1.80883631342578    1.88268995193361
C        -3.21263167756851    2.27803783880983   -1.56876120489979
C        -3.23282241885074    2.95894368696979   -0.30863222138056
C        -3.82335607106802    2.08876947120829    0.66452411897001
C        -3.77209611156344   -0.06347124680850   -2.17523743099845
C        -4.06993165592202   -1.32195173413868   -1.58267257361988
C        -4.62567929248826   -1.34394198605468   -0.28620244607448
C        -4.62092303522712   -0.19079087642739    0.53686124533649
C        -4.04807568657226    1.12076855849071   -1.45132484137104
C        -4.44766872149171    1.03828799982310   -0.07249503213615
