78
C78 Isomer 12754 Symmetry C1
C         5.29993585833080   -0.81887513931132   -0.07560643203647
C         4.79373800161710   -1.12461941216633    1.20735662311486
C         4.01682614106755   -2.32931328496613    1.08314006460137
C         4.61125378650173   -1.68871475913682   -1.04705282590826
C         3.84486549886704   -2.60418893437714   -0.31587829771741
C         3.97209242021997   -0.87183085879885   -2.02455495932052
C         5.18961605115228    0.47929639722914   -0.53167416984093
C         4.46823259470117    0.43823064393705   -1.82700793433670
C         4.56858356778843    1.47769227992185    0.25556939875408
C         4.00164013151957   -0.17649782447327    1.92389381417566
C         3.86733910925374    1.15265411489750    1.46639342218454
C         2.86111724455418   -2.19055073598233    1.88348748143774
C         2.81240148053963   -0.85325377525164    2.39095553654223
C         1.69623146841420   -2.86463183090944    1.53356681547967
C         2.56677616535299   -2.94870761562177   -0.78418589598959
C         1.67198477055470   -3.46097086476565    0.21977985697075
C         2.59107736990532   -1.04072268614250   -2.35827950671984
C         1.97369957006034   -2.24006163867484   -1.87818628953507
C         1.73339155465763    0.09105820315723   -2.62105109199325
C         3.61685318161500    1.52385014180641   -1.91567788856298
C         3.86597622459011    2.28743014236854   -0.70415078155612
C         2.27374465554940    1.40191085091400   -2.39680484349363
C         2.90234529407291    3.11785131510115   -0.27176052316833
C         2.62388626051748    1.84336444067389    1.79010732168628
C         2.36941409677381    3.01981991524397    1.06369485535231
C         1.55951832935705   -0.23822822709601    2.55389091233484
C         1.46087116511513    1.18270026333198    2.35071398514781
C         0.45665263036250   -2.42029211523012    2.08277150708759
C         0.37753069973950   -1.06368261853818    2.54231694284171
C        -0.71761833542948   -3.16199971326488    1.72205031805385
C         0.48613629055849   -3.95148202618289   -0.24781974248126
C        -0.66141451948910   -4.05863583287600    0.61281286518252
C         0.59590020683346   -2.45518871652239   -2.17188415903277
C         0.03655730455733   -3.60105146649049   -1.56759960083774
C         0.28301151155614   -0.06975242211500   -2.70374657785539
C        -0.27294433127687   -1.39552420591804   -2.61191954678334
C        -0.59841347296177    1.06511409383331   -2.65210739070242
C         1.39243262246659    2.49244036891067   -2.11394319916428
C         1.81823246404873    3.44055710567283   -1.15271442192709
C        -0.02548125426993    2.37082162793462   -2.36603845713676
C         1.10581805343423    3.63743605964060    1.03464316512439
C         0.87774638476369    4.08701362082028   -0.32512329661999
C         0.15225791979482    1.79419977505068    2.31960983114741
C         0.01872118804715    3.12007653125853    1.76744035117652
C        -0.90829511437090   -0.42900956381534    2.61584997432258
C        -1.04368182727281    0.99872884104686    2.48178636822489
C        -1.96783995040062   -2.60206981477617    2.02117866036975
C        -2.05016227363473   -1.24447295580919    2.46586179189433
C        -3.14175462166390   -2.88066574057326    1.24292598587815
C        -1.77461135987562   -4.19241519997429   -0.22907958185378
C        -1.34337408026441   -3.79813850992715   -1.57319000335052
C        -3.00499027558210   -3.57558759011325    0.03526431907498
C        -1.70217018771267   -1.58135222133991   -2.54713704506451
C        -2.21454954639698   -2.83006899777121   -2.06278237750552
C        -3.37910108299775   -2.88138883356273   -1.19195501020848
C        -2.03350683339505    0.88681291994730   -2.53903848251969
C        -2.57866085625361   -0.44652625529317   -2.50219038377928
C        -2.85447331670336    1.98208609488340   -2.05893380744955
C        -0.84568439794485    3.40303195722943   -1.88804940604511
C        -0.39385930590623    4.24859035532889   -0.80281457497213
C        -2.24519134546925    3.19551574802256   -1.68031215805267
C        -1.25631725335959    3.60670804819854    1.38690110961322
C        -1.41834534466687    4.31276139758506    0.15749704831227
C        -2.61502026061475    3.83584048576152   -0.46691014226953
C        -2.35355989729527    1.53273939625461    2.13807088946166
C        -2.43203928087409    2.83309188632000    1.61143538428645
C        -3.33754203611391    3.11205740271481    0.50638230559204
C        -3.32659362482912   -0.72118115312586    2.08382648504252
C        -3.98861124695003   -1.72719191638675    1.29875534188482
C        -3.48733508104922    0.65494460699363    1.86253647506611
C        -4.19775378378440   -1.80800612430097   -1.13698633170142
C        -3.89325518261366   -0.64524687917808   -1.95945640156691
C        -4.68993138628129   -1.34027165775610    0.15304096262133
C        -4.05193386394141    1.70790912351672   -1.34018315812245
C        -4.18067120323729    2.15059172643802    0.03189797521510
C        -4.44840278616462    1.00582316090354    0.86081063199278
C        -4.57141789436755    0.41394163336514   -1.36105738488471
C        -4.95690085339684    0.02167744230122   -0.00337269518270
