74
C74 Isomer 3671 Symmetry C1
C         5.28529354266278   -0.61072809149542   -1.10570348033276
C         5.23936679029062    0.30556001828259   -0.00464213666358
C         4.60928443483661   -0.33309897366206    1.09804374363552
C         4.71944326901674   -1.85715588145252   -0.68367098478220
C         4.42154220591521   -1.72311739114504    0.71115486621184
C         3.65290849379659   -2.17702462029851   -1.55811635641784
C         4.45299480215448   -0.07394540513421   -2.11972099011823
C         3.41443866235772   -1.00860445975504   -2.40216302116776
C         4.71632942457777    1.53626823437580   -0.48906934903841
C         4.11476495458153    1.27566066517355   -1.78519437631184
C         4.01507182337081    2.30467763600305    0.42923579818698
C         3.57846693143569    0.32650933694325    1.85572261730316
C         3.42788598552755    1.69940030079148    1.62325897475704
C         2.40738113107770   -0.40488498538943    2.35249857339774
C         3.33260589586566   -2.39921040790344    1.19631368449746
C         2.39640093178196   -1.78943280086598    2.12823620285945
C         2.56566210971879   -2.91474331701979   -1.07285845571015
C         2.55880369272591   -3.21398448911482    0.31360374040856
C         1.29487436919309   -2.74369930637667   -1.73982069554611
C         2.09578618578449   -0.57096907089283   -2.62607481952793
C         1.02969782105109   -1.52784113987418   -2.46181271465342
C         2.82373671010462    1.75994116296962   -2.09229553005836
C         1.78706261325701    0.84657060867150   -2.56207767645341
C         3.06161778723218    3.17887672105579   -0.09928842422328
C         2.41461215398790    2.88677997787545   -1.32620661654362
C         2.16325828444161    2.33729388251225    1.87417011569528
C         2.02449196507607    3.35749284433930    0.89703539832204
C         1.12043160489395    0.22683272939787    2.58315315807565
C         1.01119448013545    1.64059353127818    2.32098688339446
C        -0.09698509387885   -0.54950913702624    2.66257750390566
C         1.18559295319114   -2.51723312470160    2.06801850375001
C         1.31232157091665   -3.43960851657297    0.97390109135564
C        -0.06411458154610   -1.95122885833040    2.37159366170529
C         0.21169090887046   -3.43460354220043   -1.17586388112090
C         0.21580268517398   -3.76348524900438    0.22607912369381
C        -1.11829414707713   -3.13467264393882   -1.51350335489465
C        -0.32392782551523   -1.11086972517449   -2.66328344975395
C        -1.39022272993733   -2.03609626713271   -2.36231377791568
C         0.41674888276411    1.23067612579017   -2.50054507575716
C        -0.64555390605678    0.28391739532318   -2.72380749784361
C         1.02571534166658    3.17059651755001   -1.15690262708021
C         0.81731942906822    3.50353214547116    0.23943978400301
C         0.04342025360616    2.44129996061900   -1.81188338325289
C        -0.27249989941987    2.18780458451191    1.97669664744713
C        -0.34632598302053    3.07965569257641    0.87438000015260
C        -1.39491934872029    0.09847039045224    2.65928708091109
C        -1.48081560510429    1.48997426989999    2.31876910703510
C        -2.56904371606193   -0.66500464241766    2.47404847774279
C        -1.23398944518962   -2.62261727646436    1.84304399510397
C        -1.08654023981976   -3.50187014728737    0.74402560690452
C        -1.96155512203564   -3.35611117573738   -0.36740617022334
C        -2.47852364967570   -1.98650781407823    1.94630850085430
C        -3.21443584217091   -2.74539683219339   -0.25139036220202
C        -3.54245238532577   -2.17353008644377    1.00266264413173
C        -2.71248714722351   -1.60559027713491   -2.38870656758576
C        -3.69654908248195   -2.09047527606461   -1.42551338850189
C        -2.02499414793832    0.72302552369716   -2.66267042119813
C        -3.03601893115476   -0.25973322342582   -2.72315977436647
C        -1.30484163953855    2.63952194176454   -1.34084609541078
C        -1.47236031064602    3.05909173391616    0.00753477689241
C        -2.38011216325667    1.97520847208660   -1.99368003569172
C        -2.69654585420678    2.01596129654136    1.84988603465157
C        -2.68764584305160    2.84885733088144    0.66191914810888
C        -3.82028151064283   -0.11399804427668    2.01752801140613
C        -4.43716988161615   -1.05439838637935    1.09800247460562
C        -3.90947102624035    1.25061917349352    1.78263241118351
C        -4.70155181509198   -1.14176224604749   -1.31538960631794
C        -4.34789573323574   -0.02568173025345   -2.19414511505677
C        -5.11095707988951   -0.60270671463610   -0.04847354620822
C        -3.68425190173132    2.16737701549743   -1.44922861690278
C        -3.81709518004936    2.62026670304977   -0.10483821718068
C        -4.66913868022307    1.69462711204265    0.64084828683030
C        -4.68497214726272    1.15156993547478   -1.58351794220037
C        -5.23848148607200    0.81462030699342   -0.24881209490539
