80
C80 Isomer 503 Symmetry C2
C         5.77163897756857   -1.45900064243673   -1.16145779787370
C         6.04012752314017   -1.33344465643692    0.21706188268503
C         5.96145170367934    0.06130789860975    0.57715255330888
C         5.46170768081368   -0.14249986005514   -1.64691686201386
C         5.55623457129817    0.81669321141811   -0.56811115821090
C         4.23651766544334   -0.19437836659001   -2.35456683647812
C         4.55717980347383   -2.22873810294957   -1.30796928436763
C         3.67751661118968   -1.52966182473965   -2.17630380035513
C         4.97749459139553   -1.98054958277887    0.93987296640726
C         4.05245389938484   -2.55095845907093   -0.00007066210121
C         5.16192268003197    0.16163883369619    1.75958862566896
C         4.46911368962831   -1.10877870395192    1.94753635851764
C         4.43721818041397    1.31181243230270    1.94087765084302
C         4.57966692261116    1.84575222818853   -0.45113175068038
C         4.21278269086348    2.24240165549931    0.86218289895206
C         3.34417495768786    0.88294134568226   -2.34440345487479
C         3.52510644516250    1.97984117429828   -1.43141228493216
C         2.02388752447129    0.57764618633236   -2.83502230269896
C         2.29782910402869   -1.68787515886707   -2.03329891424223
C         1.44788666136870   -0.71758375868634   -2.66596111908680
C         2.67491208603792   -2.48825571764806    0.25918837915363
C         1.78488005336338   -2.32244820791549   -0.86339453589750
C         3.10529791261058   -1.12144549324251    2.28142153349565
C         2.20256241946980   -1.94610880494410    1.51248064358452
C         3.23638988837513    1.26502673082649    2.72805162328973
C         2.53341212942528    0.06217053545506    2.89084789659395
C         2.99557907606479    2.92733241054279    1.14756569825865
C         2.51332814387161    2.45274449386677    2.41290368656713
C         2.38266737624906    2.81169053314781   -1.15622851587500
C         2.05682096169928    3.28886784113617    0.16288630555762
C         1.14117281704166    1.64152606889258   -2.92002503773246
C         1.30419306473348    2.76162651869809   -2.05105827726855
C        -0.24144095550026    1.43930287424180   -3.17154935733759
C         0.04241184531345   -0.88310453770334   -2.61032683847242
C        -0.82618907801249    0.16825996967013   -3.05147047319230
C         0.39791246736522   -2.28456878045277   -0.64746602976993
C        -0.50112422719449   -1.81708140761785   -1.66559989933762
C         0.80757961885852   -1.83414560335676    1.71138528126467
C        -0.08768337475514   -2.29502337809122    0.68714344684385
C         1.11723682623682    0.13557865440229    3.12298301522450
C         0.25665154596057   -0.91671529866819    2.66832054457058
C         1.18777500412519    2.54389371184876    2.72313101737831
C         0.52258771199433    1.40034513737736    3.25919380009312
C         0.66735363596344    3.52472174589300    0.54168458779743
C         0.27209169677270    3.22222454969954    1.85740994277446
C        -0.00484552984470    3.24452766268067   -1.74622630778496
C        -0.91536023289105    2.57059127074712   -2.62073062662485
C        -0.40223302439863    3.52694348424618   -0.42669402798405
C        -2.24019423639958    2.46505850374974   -2.31161235515069
C        -2.24173230537078    0.08083980140955   -2.82021167253557
C        -2.95412631838446    1.27598974185347   -2.64214704825353
C        -1.89524444447079   -1.94250159762217   -1.46817984168964
C        -2.80419639672531   -1.11489005740568   -2.22602837053938
C        -1.47443409922788   -2.34638130341493    0.90247557556273
C        -2.36327562710742   -2.50508834605411   -0.22214826805443
C        -1.14983868356889   -0.76279487470001    2.72586207228240
C        -1.99222984654414   -1.73096381458767    2.08020628283842
C        -0.86144804286885    1.59517144247810    3.01032558133141
C        -1.03320154060239    2.72548860297338    2.15589384284526
C        -1.73600259928005    0.52590302033819    2.91161875564849
C        -1.78980683285255    3.27550571015953   -0.05106584229570
C        -2.72579723571725    2.91940851842341   -1.04023208631677
C        -2.11182902529394    2.77875608543431    1.26183732267921
C        -4.15517570965119    1.30329432930205   -1.85417588926993
C        -3.93768569988275    2.22121497540506   -0.76364198794395
C        -4.16823034926585   -1.11740653859802   -1.89183234572719
C        -4.87107010589863    0.14532306567600   -1.68732020342660
C        -3.74011902220534   -2.58229189570414    0.03610200277272
C        -4.66927680768013   -2.00650569754646   -0.89639834043888
C        -3.37334353840322   -1.58560239279187    2.22498003421948
C        -4.24709985061030   -2.28054466433984    1.34846106047629
C        -3.05845133728039    0.82739385790568    2.42462859506498
C        -3.24792795293889    1.93455737264631    1.52622692271713
C        -4.30179983096405    1.80531397784281    0.54449132579757
C        -3.94305196631679   -0.25663338321406    2.42081459099409
C        -5.66971614086751    0.02397111409340   -0.50672634676572
C        -5.73618888620726   -1.37607362925023   -0.16450135416596
C        -5.46717701972992   -1.51756545213358    1.21151589450888
C        -5.27068733555782    0.76769199475132    0.64835654157949
C        -5.16849295471621   -0.20468128027615    1.71495136761782
