76
C76 Isomer 15827 Symmetry C1
C        -2.50340734697667    3.65082081230738   -0.93945331288905
C        -3.34937570625705    3.13254896816588    0.01414117820960
C        -4.01305263327462    1.95916876132106   -0.55489618028107
C        -2.57174074802133    2.75302980650154   -2.09594343918015
C        -3.39201853558836    1.62194568207501   -1.77890096085628
C        -1.28097802775606    2.56352656249562   -2.53816126110283
C        -1.14136508932302    3.88484218406042   -0.62960630103590
C        -0.37634873646236    3.36302607972990   -1.72070955775040
C        -0.63712161793874    3.65772518900676    0.67200840872242
C        -2.84620313691887    2.76635363018216    1.29575792244331
C        -1.51405992573544    3.02607397880949    1.64627102933554
C        -4.09082225495619    1.00296747365542    0.45300683482407
C        -3.43082134492616    1.49537813753113    1.63133707300141
C        -4.02875419230853   -0.36514173391137    0.09707812555189
C        -2.92018772392644    0.28310996046461   -2.01062610191364
C        -3.39380916137383   -0.76056407360559   -1.13230321989247
C        -0.88350401018166    1.27887352450609   -3.00410082068997
C        -1.68239548837217    0.10179555069765   -2.71593259268545
C         0.49059113471006    1.17246965701558   -3.16888287701883
C         0.96093295183803    3.00593246446149   -1.57692492081460
C         1.42146104214008    2.03884284742102   -2.49331535879136
C         0.78839929637262    3.49320571855024    0.79246445489761
C         1.63517812932570    3.16318076751732   -0.31947945119126
C         1.24717072117099    3.15570478552147    2.08531279245833
C        -0.92108023204920    2.13457071121830    2.63197131132710
C         0.40409617980974    2.35030150714486    2.94531785525070
C        -2.78546898234815    0.57932819382672    2.48015613167695
C        -1.46958839066336    0.84826335159530    2.97128555405859
C        -3.93926958923605   -1.19467829895625    1.22890702437395
C        -3.21774841581420   -0.74731843731191    2.39039180862713
C        -3.68636218155817   -2.55369774093391    1.04946734054776
C        -2.79616504522820   -2.07502561503827   -1.20176363490682
C        -3.11781955644032   -3.01015446190672   -0.15278455245513
C        -1.02167914654618   -1.17908779243493   -2.71272419453545
C        -1.58875900029492   -2.26563865051764   -1.95412697619164
C         1.10854114576793   -0.08562968258897   -3.37111577406028
C         0.35251146289040   -1.26827850433840   -3.18050881233696
C         2.60256946158700    1.31224406412255   -2.26141390828305
C         2.46999540041808    0.05397853183318   -2.95597358931053
C         2.89503668589748    2.47107517675754   -0.11849011020283
C         3.32633557995067    1.44869787065619   -1.05570823949684
C         2.56808349787304    2.78506918871180    2.29595500002813
C         3.39645863509241    2.39245067056287    1.20843280780671
C         1.22008270572174    1.33477934021996    3.53806346252356
C         2.56377082509146    1.71155364564519    3.28771132671120
C        -0.59199590416286   -0.24819956926938    3.28372464666742
C         0.81043023141546   -0.01703574340028    3.46607029882722
C        -2.39917261506152   -1.83132344786933    2.85356478849604
C        -2.84954155247090   -2.99178532586452    2.17134872735174
C        -1.02340434007408   -1.61398198383854    3.10537454882593
C        -2.16767254460917   -4.01360327828094    0.25339006655050
C        -1.94717185589715   -3.91150371447564    1.69678234596136
C        -0.69595798868386   -3.35050861884067   -1.55773201675124
C        -0.93526421110545   -4.07173672559730   -0.34418072455480
C         1.14506769361705   -2.40295480261357   -2.86642432018789
C         0.63296570469035   -3.36258429739693   -1.92884358976439
C         3.17245303057080   -1.05052376292524   -2.52655642608283
C         2.52561381082701   -2.29479043503496   -2.63180178890455
C         3.99986298450520    0.25013636277172   -0.57976314421626
C         3.86680055909941   -0.97533154651244   -1.25837817993523
C         4.08567592857587    1.21849435610940    1.64572631106422
C         3.47966259583872    0.76286932601667    2.89243945016631
C         4.22174100635692    0.11388838861299    0.81611861113397
C         1.77580844847236   -1.01702385269184    3.03762264210239
C         3.08797692165420   -0.59157176481844    2.73413875260873
C         3.71496905217448   -1.04689421199070    1.52610887499649
C        -0.06475092497174   -2.60773414534642    2.64580927040380
C        -0.55873580230904   -3.72236198204578    1.92644625305876
C         0.08479881290292   -4.07491975890242    0.69893153925229
C         1.30672467956693   -2.22335493456227    2.40517260697923
C         1.68855088277013   -3.66849176373929   -0.97332403162390
C         2.83096422541458   -3.02487449946426   -1.41254027980809
C         3.57864708875523   -2.18999934119723   -0.54997938217947
C         3.24019801450395   -2.15340180355197    0.84080877838587
C         1.37629185877420   -3.68915173171286    0.42178231096046
C         2.06515557367885   -2.82336519431528    1.34197176571274
