74
C74 Isomer 12524 Symmetry C1
C        -4.23359116112746    1.03793098551046   -1.61508748271684
C        -3.99289846846641    2.12952963785551   -0.81877531818259
C        -2.86860397438538    2.86027667617800   -1.39097716723711
C        -3.25815556426007    1.06292882635026   -2.71287770270190
C        -2.34358731399419    2.12822228690875   -2.50012802963024
C        -2.80163283737068   -0.23108616095940   -2.91062841984524
C        -4.28632909957286   -0.28088934621261   -1.07356939100614
C        -3.55435361913484   -1.09509126533302   -2.00499470110479
C        -4.18334806976088   -0.50834981554849    0.32327433803561
C        -3.76635541489770    1.94311632313879    0.57864002893707
C        -3.98169982449078    0.66600886527231    1.17220091148534
C        -2.02870842735001    3.18327291325473   -0.33875833293108
C        -2.60356849313905    2.70607481222733    0.90593466076571
C        -0.63328339281240    3.17905079956032   -0.52653354980477
C        -0.95280401999153    1.89426301956092   -2.60672062502837
C        -0.07602105492317    2.62322500879088   -1.71411773998795
C        -1.43112571790997   -0.47494981642165   -3.18239663230473
C        -0.49834496628539    0.61616906456396   -3.10191480977954
C        -0.97464577305270   -1.82336667345041   -2.93474761005869
C        -2.98788629323502   -2.26583050781094   -1.58775477985245
C        -1.73637926299535   -2.69794768434451   -2.13984511651700
C        -3.61530297429771   -1.78857857292643    0.73917120256960
C        -3.06121469821169   -2.65538414351989   -0.21864330411165
C        -3.05409744537167   -1.92066251633343    2.04678073464981
C        -3.30266967722749    0.49222736035963    2.40120150764021
C        -3.03456092766088   -0.81929695893658    2.89286858793477
C        -1.74998100111402    2.33991600936360    1.95809657733647
C        -2.19344680131292    1.30121678842164    2.78299684153662
C         0.15612240265764    3.21731983554842    0.67623287041899
C        -0.34077375315941    2.63534909552809    1.88307200648991
C         1.53249885436821    3.32850552636545    0.47624870326252
C         1.34731584397662    2.40710503381282   -1.78423653686085
C         2.14303376298304    2.98866012511430   -0.79172889934446
C         0.91887886066483    0.33733646240965   -3.09211805789251
C         1.87530763940403    1.30092429255040   -2.56262237882944
C         0.40544504804790   -2.06608225793924   -2.97133169246695
C         1.32880638320693   -0.99639040810765   -3.21634900132027
C         1.04310582436847   -3.03016368123592   -2.15630010631767
C        -1.10615442026078   -3.51902306840719   -1.15958249879703
C        -1.88746573664372   -3.46263319529890    0.02994836240260
C         0.30891881561694   -3.67536464809580   -1.12740671567596
C        -1.84257842301563   -2.69210515251544    2.30379759665999
C        -1.24512928930469   -3.45625463720158    1.28850791438480
C        -1.77168644305480   -0.81386451798856    3.58851529421310
C        -1.21540137602270    0.44762681067149    3.44660074108523
C        -1.02247066756030   -1.95763429123050    3.21643503093715
C         0.58105062034384    1.87560764138227    2.68144050261651
C         0.17798057957670    0.61688942023134    3.25496234219442
C         2.41076715359679    2.93977384527106    1.49228201673864
C         1.95556459468868    2.03800553535333    2.47121924039020
C         3.47722757858789    2.51624528939256   -0.51259928327291
C         3.62750874454657    2.43830243554456    0.90031662234434
C         3.20157095560647    0.89987539035014   -2.33950896054037
C         4.00491086978904    1.48970095684869   -1.28799119988006
C         2.60266760239485   -1.43981187210717   -2.75272102209670
C         2.41284185535157   -2.62692317201194   -1.98092551751371
C         3.56231070253693   -0.50614579557883   -2.39631982842470
C         3.04250686449200   -2.74544407077428   -0.71982468875220
C         0.92777516148374   -3.78360884755663    0.12957319239532
C         0.16743244921543   -3.59012273891699    1.31983811080203
C         2.24608666841960   -3.24089405190925    0.34065647601886
C         0.37583458513083   -1.83427636569173    3.04091934363099
C         1.02161253998291   -0.53215556074936    3.13896169969904
C         0.95919916689891   -2.79445749068147    2.19542803765657
C         2.24521410596001   -2.59573954467032    1.59563620910964
C         2.86786376257316    0.92028937111875    2.48053091947129
C         3.93976904767326    1.22433555378843    1.54123481216341
C         2.37626805867417   -0.37733107633682    2.64072027322546
C         3.01681993852259   -1.44327855337780    1.86589537742049
C         4.68466006185385    0.43729614116126   -0.61544318885039
C         4.40469146800790   -0.79942437099373   -1.30739001735941
C         4.02679806997483   -1.78470239428130   -0.36458055020017
C         4.49725490770226    0.20611708136874    0.76387435732212
C         4.02963483449484   -1.15342999567306    0.93543741325202
