74
C74 Isomer 9571 Symmetry C1
C         4.72629376394579   -1.62121756486318    0.49885477328000
C         4.42067712796028   -1.98283213835430   -0.81008529724761
C         3.32529010250513   -2.92521498273428   -0.77801901217389
C         3.74487302837708   -2.26218825863206    1.37289090059495
C         2.91557116709235   -3.09918286909479    0.58495677272923
C         3.15490678714958   -1.26772220731692    2.15632046486790
C         4.82912484466006   -0.25691977544213    0.86478275831810
C         3.87968521888255   -0.02788254102229    1.92697552982156
C         4.91768402990549    0.68529985361051   -0.17800933037035
C         4.10314279251717   -0.97716445173189   -1.78781107742441
C         4.42838886846296    0.32781441508362   -1.50887041222833
C         2.37432864742984   -2.51598509395041   -1.73282309867188
C         2.78973764872984   -1.27725316603220   -2.32707318926527
C         1.02204167156834   -2.79931689842434   -1.52890202562360
C         1.55993125404093   -3.16947932466066    0.86953528401764
C         0.70653191961599   -3.40122803997212   -0.26778814295755
C         1.75396581102781   -1.28340223930736    2.43409550344648
C         0.98312366792439   -2.37645478714372    1.93081153397076
C         1.07806913146795   -0.05966936780665    2.75098397230291
C         3.21080784614255    1.18756280438619    2.09212023389243
C         1.83974420985329    1.17244401172414    2.60155487601989
C         4.42469828212898    1.96094771669502    0.09913019693112
C         3.63560112522227    2.25300209037217    1.22931169274299
C         3.51413041631680    1.36596955509290   -1.94490644231157
C         3.69255524110423    2.45072411638246   -1.06760164844103
C         1.81503936827943   -0.30227122447324   -2.59289536024048
C         2.20485123389764    1.08293141826081   -2.41670290833202
C         0.01698499380254   -1.99607250254376   -2.15522793575495
C         0.40923992701953   -0.68802077861406   -2.59912879124459
C        -1.36090804230978   -2.33931833273258   -1.92131481789123
C        -0.60884334372898   -3.61882139015640    0.00564339580693
C        -1.61850082582515   -3.37233806680183   -0.97877271499667
C        -0.43454952904513   -2.37771342247837    2.09252703840996
C        -1.15133952158499   -3.33738140351198    1.31172726350220
C        -0.36339565083830   -0.04031110330543    2.81417680066221
C        -1.14079309457009   -1.23469330654150    2.57194276974191
C        -1.05099558506710    1.22537003158527    2.75134949176066
C         1.11173271973763    2.35457962391766    2.45105714322172
C        -0.30650094856685    2.38553905931345    2.49136548583448
C         2.67503649792306    3.23419566844048    0.80181213478782
C         2.63488662368647    3.24837149788608   -0.65197919687969
C         1.50605171690467    3.35278189056238    1.48942315603156
C         1.17498306160609    2.05290141319000   -2.20063853988527
C         1.39283389003131    3.15883677163576   -1.30993489398712
C        -0.59796543857585    0.31764741386287   -2.71650650380478
C        -0.18181572188336    1.69725256330801   -2.54316203412001
C        -2.40007104772734   -1.37582065781065   -2.18742979126163
C        -1.99887893396964   -0.04748808498078   -2.59439574931703
C        -3.66448162609021   -1.54442387668524   -1.54547848929678
C        -2.83478314799648   -3.43768025153553   -0.26402808592960
C        -2.52755985918352   -3.29741270764082    1.16606466414910
C        -3.84085394853364   -2.54837471765729   -0.55605461785684
C        -2.58966844397442   -1.15848032292117    2.35794027198236
C        -3.28686840123672   -2.21851982358674    1.68741876626188
C        -4.26547581905125   -1.90890988788883    0.69456348868997
C        -2.41476161237562    1.29895800094628    2.39022677502624
C        -3.19040580625160    0.11180755018910    2.22642563669747
C        -2.93945983241625    2.32609303975023    1.55394733659022
C        -0.79185355136248    3.37945884839575    1.57340806325982
C         0.33101861527722    3.81068267507224    0.81697176697511
C         0.27539914882296    3.73315049953159   -0.59905050814715
C        -2.07715769796972    3.30691847300978    1.00792717546314
C        -1.16038599740015    2.66682958187444   -2.26677840602262
C        -0.98137446575096    3.59578235890960   -1.16910841734241
C        -2.18110888051465    3.59600661752169   -0.38536807030433
C        -2.94899170520769    0.98882284774989   -2.41220223863722
C        -2.51579480322206    2.31652538049271   -2.27826572004568
C        -3.16543264858602    2.92204093119315   -1.14179899984394
C        -4.38268121965649   -0.39736322672715   -1.03955494501111
C        -4.62464999077628   -0.60040689112211    0.38937223641204
C        -4.21860758594263    0.40659070965918    1.26987596826873
C        -4.00443121636127    1.73375213413552    0.78302147493161
C        -4.06751566304294    0.84203350514622   -1.50026776028443
C        -4.06210079442459    1.98531061731762   -0.59257762425000
