64
C64 Isomer 2205 Symmetry C1
C         4.39214515810493   -0.33651400575734   -0.23382957969100
C         4.07802751007870   -0.84763382374521    0.99859270874089
C         3.68643793314182    0.24502510748518    1.88825287672141
C         4.23182733788113    1.12548423442064   -0.12933090597956
C         3.62377561852236    1.44956387136585    1.13368643836667
C         3.62526274361242    1.54062251658910   -1.28508553726577
C         3.68763603889474   -0.79589327141899   -1.41355497204780
C         3.34397641117321    0.36572362555123   -2.13119311910389
C         2.73644534783049   -1.84010920414558   -1.33747505808111
C         3.13114848432750   -1.90753426894556    1.12799390604289
C         2.60201809423771   -2.50663879349182   -0.04628862136449
C         2.59628199761036   -0.23063423280687    2.62400203095528
C         2.25443596964782   -1.57877551833209    2.20870085295674
C         1.54735371660493    0.64265114360213    2.86625790658518
C         2.43052659680250    2.24211680446846    1.16932347514107
C         1.49867057794035    1.89237970063012    2.18009364911131
C         2.47677258468170    2.37789752311269   -1.28278284011254
C         1.85309043075966    2.76814483650564   -0.07092630799840
C         2.09235318572773    0.55102650430016   -2.72376829713474
C         1.66618037210230    1.88218275460958   -2.36252378050522
C         1.54704092717783   -1.73766814142729   -2.17985809442239
C         1.14113048375055   -0.49928337616555   -2.78587652741106
C         0.50199420699914   -2.66485311390595   -1.97223826091039
C         1.43947519979987   -3.24947859315049    0.19692340150635
C         0.56337482565449   -3.54401775542389   -0.87696351644709
C         0.91129519279524   -2.03109592251129    2.25661993039722
C         0.61392009208008   -3.05102369620475    1.34498086670148
C         0.20671045452335    0.15419660022963    3.01928880315422
C        -0.17259280497906   -1.15474145203548    2.69982314218247
C         0.11704069303821    2.26221083551895    2.11230611551169
C        -0.66529920774702    1.24464147783917    2.72784862305634
C         0.44506058699305    3.11266431958742   -0.14085898384289
C        -0.40598890732969    2.98784602275397    1.03014272455985
C         0.34154869364113    2.17138235952307   -2.39929187128504
C        -0.23069068442391    2.97662059766193   -1.37153300678346
C        -0.27374273920106   -0.15260666555711   -2.90858463673301
C        -0.63016113692623    1.19879095288249   -2.82028637852157
C        -0.89504206950815   -2.37887015981322   -2.24211333728054
C        -1.33310489499591   -1.09943396328913   -2.61203456944561
C        -0.75726309049633   -3.74108514785296   -0.36906676969097
C        -0.75706052477703   -3.31379972398541    0.97437493919094
C        -1.65797056309869   -3.15796228846833   -1.30048564413121
C        -1.55685797271844   -1.39145462006363    2.31904470828245
C        -1.82741707173543   -2.53831676918022    1.48207458307947
C        -2.02851540061462    1.05814523890899    2.47727262946869
C        -2.51948688037605   -0.30570538456460    2.37071317405636
C        -1.81056019138175    2.96202190332010    0.92417368077469
C        -2.62436757604584    2.13101259003885    1.75632152270899
C        -1.64027123097104    2.76910892219082   -1.47797739986366
C        -1.89908075519157    1.64333130736191   -2.33202342574751
C        -2.45787067202916    3.00021840351066   -0.37888513446811
C        -2.68137289908425   -0.65760094668669   -2.23944270313557
C        -2.98529372633709    0.76255698684245   -2.11132332652055
C        -2.83167074126543   -2.66458738197506   -0.80767152274299
C        -2.98388245508008   -2.51806353748081    0.64018928725644
C        -3.45374076705476   -1.54270750635598   -1.44361123632811
C        -3.78251805756347   -0.47004359355370    1.72045204203655
C        -3.96111874072369   -1.56161653053360    0.84206377477459
C        -4.37243828370969   -1.03871660881951   -0.47572996912338
C        -3.84464995182041    1.88682854018331    1.05745699270441
C        -3.67739144126509    2.32600613558883   -0.32690771927386
C        -3.98073464153981    1.23150936542178   -1.18843336093878
C        -4.42225006381312    0.64490082478446    1.06976080833298
C        -4.65955132233144    0.28865399085853   -0.34977918002534
