74
C74 Isomer 12210 Symmetry C1
C         3.60807713579543   -2.42654669648407   -1.45294397233621
C         3.92966993276653   -1.19755429661174   -1.94387585492777
C         4.38263866858373   -0.36715958143384   -0.81650063821831
C         3.80261017445033   -2.38573332505611    0.00533412186245
C         4.09627537930706   -1.04458172488817    0.40207409609862
C         2.74058476818690   -3.05789418347957    0.56090187420649
C         2.33130406677845   -3.00195441943723   -1.72946994302609
C         1.88875856435040   -3.57736837772641   -0.51200011123646
C         1.39748228334793   -2.32730755951012   -2.56614222522634
C         2.98019989248998   -0.44414969547780   -2.70313167838488
C         1.71155693484838   -0.99230040761310   -3.02831031675886
C         3.88487823415207    0.89888061530796   -1.02908573870721
C         3.06210364408294    0.88881944019122   -2.24238625516012
C         3.48232250155970    1.66999892937605    0.08023390739570
C         3.30430068774993   -0.40116020319084    1.40675841726380
C         3.10570319517592    1.02146288329091    1.30386968787495
C         2.14182865340254   -2.56929349474667    1.75683928243447
C         2.34690040964171   -1.19354406182681    2.13955744180974
C         0.95563927482149   -3.24501048868799    2.08371053561685
C         0.54508957380357   -3.88601643767301   -0.27537046665252
C         0.16114217403226   -3.94527176508935    1.07824467860020
C         0.02366367032236   -2.73183394315997   -2.41121559015354
C        -0.41211162213259   -3.57198126733493   -1.31557327706079
C        -0.93202470262725   -1.92469558631662   -3.04652887751142
C         0.64454833308440   -0.03727932755060   -3.24661019918252
C        -0.63089024406142   -0.57576743628733   -3.41256263882033
C         2.00251740700515    1.80236139249502   -2.37192367298529
C         0.74030311367525    1.36348580882899   -2.89438257890182
C         2.85983086905020    2.87363962203423   -0.31329834827723
C         2.07184898106397    2.92742170608596   -1.53914595696342
C         2.26839966679460    3.67669617045917    0.63860525042557
C         2.09810965924497    1.69034173804301    2.11176974437040
C         1.83844657242413    3.06225155243615    1.86652684584943
C         1.25684775906868   -0.52156075693094    2.81351361846670
C         1.06069427888886    0.89545135227676    2.71432664456342
C         0.06864876265903   -2.66069182972717    2.99140143176876
C         0.14186868559400   -1.27629323854484    3.23124263207706
C        -1.21070639665357   -3.78672637237667    1.43672258067812
C        -1.28017393763492   -3.00051983196113    2.61287348248328
C        -1.76982792529032   -3.53520594784838   -0.94330661205724
C        -2.15851539134035   -3.54680995359051    0.44452070392708
C        -2.31936274770640   -1.96643638447482   -2.71628379050855
C        -2.72469463106299   -2.73697463360533   -1.64176864743751
C        -1.81399296674788    0.21824390458949   -3.29975385122254
C        -2.88582868130450   -0.66279400266221   -2.93407354465707
C        -0.43362838161932    2.13816921090366   -2.59796068326320
C        -1.73047918642077    1.55313350072911   -2.84362180504195
C         0.93036451905466    3.72602371553717   -1.28997498683227
C         1.12850244265765    4.32470973724077    0.01255172702134
C        -0.34069710497461    3.29117835450865   -1.71367226461791
C         0.54479115146010    3.58825200675009    2.11224698525267
C         0.11169794471662    4.34250867326603    0.93502857619678
C        -0.28931871895701    1.41259932431717    2.80973874634514
C        -0.51351101165213    2.74820862940249    2.44470730638823
C        -1.21042334189215   -0.77281928436808    3.10409103293252
C        -2.06183656539876   -1.83841522174101    2.65307816863689
C        -1.44126528946672    0.54116004409409    2.75045973172619
C        -3.17656142283476   -2.56055553734675    0.64300639555903
C        -3.62646846659379   -2.16638165957218   -0.66609503395516
C        -3.06053157669870   -1.59401738157782    1.67457863236058
C        -3.90140057291630   -0.21071162818926   -2.09659191959966
C        -4.17886705357832   -0.93154493908815   -0.86474167589441
C        -2.86139311430971    2.02636018430448   -2.11872259133411
C        -3.91367089637007    1.16173815048315   -1.78900107751481
C        -1.45033276110640    3.57089220398281   -0.80476384974699
C        -1.18734439794965    3.92341163540797    0.55968204154574
C        -1.64895544005554    3.05984533800375    1.59147708681980
C        -2.64155297536898    2.88476913209264   -0.97844932304844
C        -2.64276356371452    0.85006149202624    1.98216426779902
C        -3.42114833112310   -0.21962910241748    1.42208430969835
C        -4.17060941404932    0.03407494867932    0.22815855493131
C        -4.15888439444778    1.29756625103513   -0.35945184523744
C        -2.68772328999891    2.14676892517906    1.36929489924874
C        -3.36265344803241    2.33600541224634    0.13731640222495
