74
C74 Isomer 5962 Symmetry C1
C         4.83192772320132   -0.77891284170758   -0.58258330642583
C         4.40046239133526    0.36343631376741   -1.33387463265181
C         4.11061092457932    1.41932011504450   -0.43530894431882
C         4.54035833438383   -0.50245429690191    0.78311042884810
C         4.18618886197948    0.86061225881849    0.90217408410633
C         3.62251047190410   -1.48129725324167    1.29600416205332
C         4.00914605144080   -1.87582474813221   -0.95604935900319
C         3.41135834906276   -2.42122927000457    0.21500899007844
C         3.33496664249576   -0.04299082059198   -2.18595873795066
C         3.12296119292924   -1.46098506373532   -2.00513554690551
C         2.22169956798226    0.79110075261448   -2.43578500243079
C         3.10320597829318    2.35917122741411   -0.76169237088874
C         2.16423985490322    2.09587474623129   -1.83958407175489
C         2.66674969426990    3.12626418045459    0.31968866387419
C         3.23230494422730    1.24873603554236    1.85785965954425
C         2.78113161720535    2.57389453212381    1.65549889239294
C         2.51605066623203   -1.10687298999051    2.08468797938978
C         2.33264577279777    0.28274521793401    2.44872505827334
C         1.39681751582988   -2.01588522316440    2.15281210268103
C         2.21467960065955   -3.10255713707602    0.10101657338121
C         1.39448696999962   -3.17332088161507    1.29116325939278
C         1.85952167416931   -2.04848038973487   -2.10011630084071
C         1.55836994172566   -3.10818435543366   -1.18019556441094
C         1.01016153205515    0.12286097212145   -2.85006253390275
C         0.77386343646358   -1.27299809925644   -2.65481216249540
C        -0.10729825172787    0.94234967904964   -3.04769970476496
C         0.94651077581471    2.85763451827834   -1.89317013225026
C        -0.11107411093856    2.31475898055214   -2.64688085093336
C         1.47216717575201    3.92502049682339    0.25231767369753
C         0.60038942938275    3.82149016744395   -0.86339889839315
C         1.68187306502635    3.02593022674623    2.36677796891740
C         0.94596194142067    3.98618060546208    1.55352812343223
C         1.03382858015161    0.72635291250139    2.87920262766946
C         0.75714804429188    2.11576935346843    2.90743605464976
C         0.14327035556778   -1.56148971521320    2.68957888235381
C        -0.10765226968345   -0.15370493087616    2.88443750871949
C        -0.97260290630312   -2.42727346566558    2.58851287473714
C         0.25247771973064   -3.97517463061856    1.17883214120272
C        -0.88220676155492   -3.67361277027748    1.96358702038513
C         0.27368948076839   -3.65743457747011   -1.22698751300636
C        -0.23734856611175   -4.33432058469295   -0.12318005041920
C        -0.57977871299344   -1.75236367280118   -2.55275324692152
C        -0.81273674794454   -2.98597052353055   -1.92092634515628
C        -1.43875269023919    0.44808104613214   -3.06018178567268
C        -1.71925589902182   -0.87588026433493   -2.67732793826221
C        -1.48058636953968    2.69853493740230   -2.46945079977170
C        -2.30640743465403    1.55019555135052   -2.76484165430152
C        -0.76977459928596    4.06818345230161   -0.59487443495985
C        -1.81957839206797    3.54832585837855   -1.43407076557805
C        -0.41806125799806    3.81544698550181    1.80736752854266
C        -0.56275395379989    2.63706950796014    2.64416005133538
C        -1.28138127530487    4.00979821829237    0.73959251274722
C        -1.43517215007047    0.38026186978681    2.73864842686296
C        -1.64945900897102    1.79298031667654    2.48422704250909
C        -2.29183952655969   -1.88684878243119    2.32713205930436
C        -2.51698650963693   -0.50566499316154    2.39353709802458
C        -2.08105635860394   -3.82317325374138    1.14004387602548
C        -1.68193183998111   -4.13787751510507   -0.14191478245290
C        -2.02612837654394   -3.26963810245581   -1.23503851321624
C        -2.92972535449882   -2.71029215912465    1.35348781804888
C        -2.94942123199791   -1.14275727024888   -1.96977538126769
C        -3.02427474528309   -2.27800741849027   -1.08012232341845
C        -3.57321839832872   -2.09574356191419    0.24930684971008
C        -3.48334517119765    1.32325696595670   -2.09468827849366
C        -3.81082707475647   -0.03977904061138   -1.71015694299936
C        -2.96702501635819    3.23242022961247   -0.62559638196409
C        -2.54107551759745    3.33120694709724    0.74186765275570
C        -2.76180190195161    2.26873096307381    1.65525801363926
C        -3.83406625121800    2.21338074642938   -1.00520724613392
C        -3.62409723011825   -0.04570715647058    1.64859132414771
C        -4.12058279066611   -0.84082339852235    0.56814302616835
C        -4.46718845095269    0.04364230086445   -0.47184642754840
C        -3.75675672675741    1.34295934526949    1.28465994207751
C        -4.36650644681382    1.40355262386579    0.01726498018623
