62
C62 Isomer 732 Symmetry C1
C         4.58960224175328    0.57056060628314    0.50017344316524
C         4.03273967904960    1.73328281122086   -0.16782466116303
C         3.73742593356431    1.33915644929807   -1.47378442777764
C         4.41270308074542   -0.58978278951488   -0.35568352471399
C         3.98508991460717   -0.11430994427770   -1.59133550261654
C         3.61657232946748   -1.57388309060574    0.33858257518417
C         3.84592477554093    0.35478004215287    1.66385415336761
C         3.39271197324485   -1.01507687592008    1.66061588061293
C         2.96019987411171    2.23453541176462    0.63172328720732
C         2.86667691214092    1.39834264543755    1.81914114616208
C         1.75497950061143    2.64350356870290    0.03726858094078
C         2.47685594948374    1.60361428503799   -2.04665077446073
C         1.51321953395535    2.37554315887294   -1.36966081728196
C         2.86167734589734   -0.68417457320571   -2.21977481471827
C         2.02142027383054    0.38309361322344   -2.68535391092715
C         2.55888724740893   -2.25125408840960   -0.31072270718887
C         2.24348815606565   -1.85566882744441   -1.67348756995619
C         1.45149007531334   -2.76560624051385    0.49100412078201
C         2.21566544491820   -1.27982907629435    2.29918718998472
C         1.35546270981458   -2.31129174250674    1.81301903700201
C         1.62064272341618    1.11641036261784    2.40908964393760
C         1.37517761440443   -0.21789050779503    2.83090269365896
C         0.60047158504409    2.72264693475245    0.89725041340706
C         0.46941796688485    1.90415822931461    2.05877555160144
C        -0.57013205921988    3.21541624130813    0.28293194350264
C         0.15736018100399    2.31193344756946   -1.87108414631317
C        -0.81458678102252    2.98989522344665   -1.13510857440373
C         0.67806115213410    0.17983332702123   -2.98701537335714
C        -0.27318278103263    1.23983724015207   -2.74053840362206
C         0.96608826625236   -2.11959612502298   -2.17669996796311
C         0.24378723063816   -1.16574219574154   -2.94664804356441
C         0.21146996049974   -3.22716814321836   -0.12159041970248
C        -0.00187539303093   -2.94572494915956   -1.48590396414850
C        -0.97117188538990   -3.33379232135642    0.67190210438899
C         0.08116515359031   -2.07101680920214    2.43268595662237
C         0.06659358962413   -0.71677666473817    2.93599212267831
C        -1.04914220680304   -2.64310131309153    1.94366573537866
C        -0.85342868212603    1.48054416021713    2.48342333946125
C        -1.09176336556026    0.09504536155599    2.81570220478346
C        -1.78022671330780    3.17284585683573    0.95900981272733
C        -1.95893954818481    2.23441578194972    2.02200534141441
C        -2.21730081184069    2.75650484017440   -1.29597526831452
C        -2.84010347653555    2.97521180435131   -0.02546982225129
C        -1.64151036259992    0.91593020098665   -2.78130570071366
C        -2.63260282029336    1.66096342671318   -2.05891789070473
C        -1.14611194456070   -1.47964694831661   -2.85345434924881
C        -1.29240142618366   -2.63555967183633   -2.00918666594301
C        -2.07674778456146   -0.45868712794606   -2.82435040797698
C        -2.24791305191400   -3.19440633881572    0.10333589506650
C        -2.44052584390659   -2.74874628842412   -1.21836759802396
C        -2.30073830344339   -1.93150006318847    2.05264113787222
C        -2.33102619160931   -0.56167207020828    2.45784656383655
C        -3.08167249836142   -2.37420205382980    0.97551191227654
C        -3.20906233280718    1.60537559736720    1.78420041564034
C        -3.73048504125109    2.05569279638958    0.48784402602317
C        -3.36798718802615    0.21845437001718    1.86669531321822
C        -3.62698013571826    0.74200718457484   -1.55086474148948
C        -3.26847318112990   -0.57741501454217   -2.01499579536100
C        -3.43877523816971   -1.69434261012119   -1.21163607717541
C        -3.84080349116040   -1.49110564144791    0.17170629519352
C        -4.12580074366308    0.90536352761343   -0.25214294407288
C        -4.06555709160346   -0.21492840022767    0.65984702805626
