80
C80 Isomer 27483 Symmetry C2
C         4.67700869912215   -0.77602303958088   -1.90299898095402
C         5.22859556311668   -0.36456120671873   -0.66600156405971
C         4.98588279057519    1.06205397377714   -0.53461355368336
C         4.00111400627762    0.36274676836802   -2.48368615745552
C         4.15982702131019    1.48764426903993   -1.64860752118294
C         2.74134555681389   -0.03603249713009   -2.95569069194856
C         3.82212886188629   -1.89578582168427   -2.03137520625316
C         2.61861067260558   -1.45402509522207   -2.70970200880967
C         3.71263400178996   -2.76451425037804   -0.93904452940192
C         5.05489445417015   -1.20333855074154    0.45118827456656
C         4.39959454745856   -2.43410976453677    0.25918312623838
C         4.51673191966407   -0.64323682843321    1.68978050609101
C         4.72322141944253    1.59197294631822    0.72145697900969
C         4.38293879637314    0.70476728137426    1.83405331234152
C         3.84624580416862    2.68980202655810    0.80402341792007
C         3.05557157073410    2.36503866526327   -1.49316732176530
C         3.00841861309468    3.06976971002683   -0.25810744477844
C         1.62376860174717    0.81353854671671   -2.83544146423902
C         1.80293053444425    2.05952214070374   -2.14801877557887
C         0.32180895674384    0.20354663271308   -2.93513560991846
C         1.36581036808325   -1.97990047290119   -2.41727299400756
C         0.18990850915692   -1.19638797601389   -2.73097354216559
C         2.40287856846787   -3.24802498688937   -0.58420042257460
C         1.28091148983658   -2.94211926466257   -1.34927018671227
C         3.46555357618037   -2.62944863481133    1.35214341821733
C         3.44329645683970   -1.50104200025057    2.17563392539693
C         2.27054236219788   -3.17680538941011    0.85096265081470
C         2.19756522295431   -0.98439379126080    2.63941390780958
C         3.20247196251439    1.23941410748010    2.49630416502288
C         2.99290511694387    2.51830470745030    1.97233339609707
C         2.06968337005468    0.43377267949061    2.82082251231140
C         1.73492339970117    3.40569818636785    0.31273732627735
C         1.70907469254284    2.99570106980830    1.68773082208249
C         0.60383372154553    2.69591303540186   -1.70922090782314
C         0.57360070573620    3.32483272903782   -0.42488938044345
C        -0.84444453352298    1.02563962023909   -2.84714559007226
C        -0.65040451618874    2.32446973576416   -2.27598021090074
C        -2.15066402554215    0.43044089754070   -2.88754059716531
C        -1.09602555828110   -1.75292742100515   -2.45246266869870
C        -2.28310561217719   -0.98669272525340   -2.70119650316611
C         0.01300410583687   -3.11778860921304   -0.72669681594325
C        -1.15193315884995   -2.82632279078615   -1.50170617623615
C         1.06057482490858   -2.82467596023923    1.44643364890436
C         1.00809731383698   -1.74776617235215    2.39341740940682
C        -0.10525177614205   -3.11516830867646    0.67246471832403
C        -0.27601362039580   -1.18617973346684    2.66999416801923
C         0.76539191239602    1.03296311282779    2.77829933519790
C         0.57549518467402    2.33043359558034    2.20258867293114
C        -0.40347698708948    0.21491236525561    2.86920450627323
C        -0.64528371375413    3.32813917903160    0.34794766988825
C        -0.67750607344707    2.70384111940205    1.63450215680192
C        -1.78181034871220    2.99522654255623   -1.76353279697937
C        -1.80634656913576    3.41014503693479   -0.38995204412646
C        -3.28089001357273    1.24080064737108   -2.56590358960090
C        -3.06718852353857    2.52085516628495   -2.04637102612630
C        -4.46313561623704    0.71227778231873   -1.90176178166139
C        -3.53048568579158   -1.49774020414534   -2.23553683180940
C        -4.60123562871935   -0.63480837226535   -1.75274308332747
C        -2.36301065102371   -3.17263282554714   -0.90503749313392
C        -3.55634428863052   -2.62325627991876   -1.40813635230808
C        -1.37258233613634   -2.93338130503136    1.29446495828561
C        -1.45441049878765   -1.96710013809938    2.35911105181578
C        -2.49553891632301   -3.23830032447860    0.53044525945257
C        -2.70554018678307   -1.43618257292283    2.64960633560287
C        -1.70350139230188    0.82868011802650    2.76733241511571
C        -1.87864878261096    2.07281924284007    2.07553330487930
C        -2.82378719535494   -0.01688968947380    2.89070076122240
C        -3.08088877707171    3.08024905715773    0.18207120527350
C        -3.91990653551134    2.69914980930630   -0.87864955281823
C        -4.80056978777190    1.60443708236729   -0.79224608881698
C        -3.13034031382126    2.38003763634012    1.41966743530600
C        -4.08236222346699    0.38426127085205    2.41738414289634
C        -5.06482296818945    1.07977704674783    0.46564725460999
C        -4.23734917390167    1.50667500657311    1.57819185555771
C        -5.14105077961909   -1.18882510202528   -0.51210612749074
C        -4.48976260755626   -2.42106454121515   -0.31583000425853
C        -3.80372140304445   -2.74931090597804    0.88356691681935
C        -3.91046109063100   -1.87645571137876    1.97281781030104
C        -5.31208691598625   -0.34559911476518    0.60213888840748
C        -4.76190647032533   -0.75445216835145    1.84065397690635
