74
C74 Isomer 13534 Symmetry C1
C        -3.97117584307844   -1.44095512689988   -1.49538379863317
C        -4.29229406517005   -0.45388813929376   -0.54593448454499
C        -4.05464683225670   -1.01677410548625    0.77148970291873
C        -3.51314666705311   -2.61897158386378   -0.80773019038315
C        -3.59691402952517   -2.36339041846077    0.58475671768123
C        -2.30979162347907   -3.04290304127630   -1.39303666859315
C        -3.05218371744079   -1.17519856968275   -2.53979619472652
C        -1.97429781541263   -2.13310520199714   -2.47144044978735
C        -2.75965865934124    0.14770086621436   -2.82807656567639
C        -3.97772721214478    0.91191023416619   -0.82577836971426
C        -3.26453077766630    1.20938296517922   -2.01383404553190
C        -3.74194998244164    1.74335837815025    0.27792377041173
C        -3.53365172646523   -0.22131619884242    1.80759251083817
C        -3.62515069215907    1.17968916523093    1.59134742540367
C        -2.43576863792982   -0.72026971511642    2.64003665458647
C        -2.58587545815642   -2.86112297227145    1.38783331116776
C        -2.02133839083266   -2.04691567199271    2.43917493164993
C        -1.29130668174094   -3.59074180977976   -0.59285463614477
C        -1.53468857103899   -3.62518746514784    0.80303676662105
C         0.06590962829745   -3.49754668267059   -1.08082446158935
C        -0.64213101778055   -1.77969803728256   -2.72939136170529
C         0.42281757948196   -2.54819067349817   -2.11068840841276
C        -1.44098309913067    0.47517831505559   -3.27564496919263
C        -0.37154817127875   -0.43539203206233   -3.22197069799417
C        -2.29070765757828    2.27274455516284   -2.04532256853420
C        -1.25905240491153    1.85268999185735   -2.92776065564953
C        -2.83189828779033    2.87357428837272    0.19459298201755
C        -1.97111838326618    3.06222483795436   -0.92065918042399
C        -2.78358557206264    2.02742596892755    2.32814584730283
C        -2.32919425112543    3.10836619499063    1.47151246675312
C        -1.43935776337438    0.16804295489465    3.19303612736614
C        -1.69431107928581    1.55918318136738    3.07018820732170
C        -0.05961106073747   -0.25247916050154    3.34254585250842
C        -0.67220190140335   -2.46516154095326    2.64612864063800
C        -0.42699736485896   -3.52320672436306    1.70897076170553
C         0.36299203831495   -1.58842119750364    3.01936740739342
C         1.05706246627889   -3.90720736369456   -0.16268547022039
C         0.83026229388775   -3.77480590392349    1.26676671197670
C         2.38167781855583   -3.55093706641875   -0.37278501036845
C         1.78121064546598   -2.06685898156447   -2.21614109125671
C         2.76517912804474   -2.65435213137177   -1.37913976611255
C         0.96876666041145    0.10219120437567   -3.16660732845818
C         2.06750910391356   -0.73345845965687   -2.73105627467617
C         0.00591123247935    2.34779974458815   -2.78278270634348
C         1.11673769830195    1.49987102455805   -3.07679968763791
C        -0.58835990020016    3.47234650052890   -0.67861560228956
C         0.34349613508274    3.21101337925790   -1.69554846530290
C        -0.96075186040536    3.35123303491642    1.72315186236284
C        -0.62257520528109    2.50203487385093    2.83965642950880
C        -0.04930352946018    3.55573678868494    0.66814391438629
C         0.96048484040384    0.71994787718102    3.32076322724870
C         0.66307249945846    2.08721775122812    2.98096199347159
C         2.27398511976662    0.45537964184089    2.86259346085111
C         1.72846073185794   -1.88472346381903    2.61337104496351
C         1.94359590373102   -3.06040470437050    1.84747247431143
C         2.96228570175779   -3.09420695861877    0.88428511934691
C         2.70502706529975   -0.82880705907138    2.46329026285907
C         3.84911682066348   -1.87593737526184   -0.81511884965590
C         3.82456414261195   -2.02541682454471    0.62693201817309
C         3.77633941390308   -0.89213063843167    1.48349515124849
C         3.27556109083453   -0.09962471864165   -2.37330383194745
C         4.14498790429380   -0.65981641521443   -1.36121278636259
C         2.23354096303784    2.10248108637092   -2.42465519610091
C         1.75034701268267    3.05419336045011   -1.46640823274876
C         3.34650722203167    1.32862529057655   -2.17575019681605
C         1.35317834709128    3.25798947024550    0.92327406313870
C         1.68228714325025    2.60270640346823    2.12521909208547
C         2.75676123009572    1.65683397850743    2.21343625275208
C         2.29373985662388    3.09699912730921   -0.16687094478336
C         4.27420342246042    0.31046797052646    0.90407713036668
C         4.56359909736266    0.37162431675896   -0.47360522051433
C         4.08315003205604    1.62002590419539   -1.00097183948251
C         3.70900868824920    1.59373155932633    1.23758118740698
C         3.50744921522368    2.37960194728019    0.03703472757184
