78
C78 Isomer 3982 Symmetry Cs
C         5.49115772422738   -1.12937943153166    0.07388342714788
C         5.26921490751674   -0.31976705773647    1.26744945541466
C         5.17305277169775    0.99599229144019    0.84577992410621
C         5.22210238021118   -0.30054647388436   -1.09642121330389
C         5.14325429286602    1.00813819345995   -0.65001519353970
C         4.08454867327636   -0.83568025358300   -1.79853029983959
C         4.55007630020314   -2.14686818222769    0.08432830671505
C         3.76768405321998   -2.07187318229248   -1.13441916039788
C         4.16013684884694   -0.86649557745415    2.00516800823422
C         3.81672434141462   -2.09189010055236    1.33418682559606
C         3.08464284676034   -0.06481244644122    2.47226759621552
C         4.13168364505718    1.81922481735489    1.30404325949537
C         3.10978479568422    1.34778748679787    2.18675238244094
C         4.08481809398933    1.83833199830387   -1.05308868581223
C         3.69723231901465    2.55067751556330    0.13945738938433
C         2.99164301976253   -0.02678877081416   -2.20943840576530
C         3.02850910331527    1.38107932593432   -1.90213016798221
C         1.69328513589048   -0.64923426135504   -2.39786956412441
C         2.48909523531277   -2.56736481888295   -1.12189802619272
C         1.47204414615513   -1.98774593157731   -1.96461371264837
C         2.53849032224184   -2.58748921247473    1.36444398921737
C         2.05078146258842   -3.15762455363403    0.12575535283990
C         1.79458061009511   -0.69070541927093    2.70196760820226
C         1.55580912367622   -2.02202669698654    2.25618258100823
C         0.63976258026553    0.09943722489040    3.03624074218252
C         1.87344638395574    2.08437156723685    2.24337281611553
C         0.67715271160311    1.51376016788397    2.80062037894701
C         2.51349568411539    3.19957041269878    0.16826238071495
C         1.69842366245456    3.15926237980316    1.34365344299576
C         1.79125382021043    2.11801781333607   -1.89770659614049
C         1.65236257780673    3.17812612818468   -0.97431509106895
C         0.52640792902124    0.14587453987364   -2.67311558335108
C         0.57361188479937    1.55619444107924   -2.41614151701203
C        -0.74797382274087   -0.50614358387113   -2.84420377032853
C         0.16761760344233   -2.57659938854795   -1.93536790049056
C        -0.97564255147622   -1.86848822071814   -2.42470788003853
C         0.81962230236318   -3.71127710028612    0.14571719251625
C        -0.04173896007144   -3.63919138457477   -1.01302240400959
C         0.25112692961139   -2.61079905838050    2.26922559319250
C         0.00496553384940   -3.65833354828724    1.33876428323011
C        -0.62701197602085   -0.55569880560521    3.24719209975760
C        -0.87156791265556   -1.91114978436566    2.81500494232717
C        -1.75054372772021    0.27004140650731    3.47833683422343
C        -0.56495543477417    2.25456945610425    2.68362357086922
C        -1.73923278935063    1.66477087238718    3.13504189074791
C         0.41515864283419    3.58724051295343    0.92801865495985
C         0.38686796743498    3.59892527944062   -0.50105799846498
C        -0.72335962720465    3.27149537370629    1.66565990740533
C        -0.66262571904902    2.29464632551003   -2.23780133266377
C        -0.78024677589235    3.29470854245406   -1.19794932076121
C        -1.87959224209715    0.32283282499110   -3.01711144932452
C        -1.85407220778719    1.71180570370039   -2.65173131618450
C        -3.17563167975623   -0.15199017628572   -2.74414677734388
C        -2.30237345610871   -2.27366892854010   -1.99296999381107
C        -3.37177626564638   -1.35319609945972   -2.06256959066824
C        -1.31781934880334   -3.94217145575399   -0.54427287111128
C        -1.28881586701264   -3.95404950989309    0.91619503207887
C        -2.44416434157541   -3.22362587529259   -0.94940477849842
C        -2.21452872381721   -2.30973977201806    2.42973635557482
C        -2.39790562938319   -3.24256093984749    1.37731610899540
C        -3.21305808208307   -2.90606895459151    0.23234741271778
C        -3.05654281909505   -0.20085063214085    3.24931301448895
C        -3.27989704514209   -1.39080754406679    2.55664965519064
C        -3.03975074629876    2.00171900828387    2.57419526866025
C        -3.84496756747200    0.84976337717998    2.63703877022474
C        -1.94384048645846    3.42149183936369    0.97599549834941
C        -1.97226197126255    3.43302243908014   -0.45794338836803
C        -3.13004215255692    2.78145835138958    1.42588402544416
C        -3.13133097486929    2.03936939742618   -2.03424805791557
C        -3.93868186688925    0.88830910554632   -2.08385327669978
C        -3.17554073085092    2.79996289287772   -0.87055850095024
C        -3.90242806168574    2.34162872429639    0.28888812342089
C        -4.25204288139747   -1.07899698788254   -0.94923234286300
C        -4.07646053700517   -1.79056448606809    0.25859289602973
C        -4.20371769205024   -1.09877741277637    1.48386563343327
C        -4.48869722740837    0.31851345390865    1.50351818503466
C        -4.53716033662194    0.33858604481992   -0.93440770368956
C        -4.54862812870044    1.07633478418443    0.29132705551743
