72
C72 Isomer 3683 Symmetry C1
C         4.86981057589695    1.60759373340142    0.99277795306026
C         4.89967099974256    0.18810462130074    0.97712162438461
C         3.87317045720007   -0.30299164816103    1.83244198806287
C         3.79522567701783    2.01357558847842    1.82941622941902
C         3.13380589487830    0.84563549901083    2.32425227201105
C         2.95771712359542    2.89325331611540    1.08860406846209
C         4.50819402393816    1.99270332526832   -0.34486876232271
C         3.38303091530971    2.83688666508119   -0.29792320091154
C         4.90671633124827   -0.26370870439113   -0.39076894088380
C         4.47040024298560    0.85501373922687   -1.21241691404741
C         4.40969555047593   -1.52367658356293   -0.63230555693711
C         3.20044682549929   -1.49726555749993    1.51713165129085
C         3.63659732266561   -2.21672465380393    0.37253452133811
C         1.83019917070196   -1.63691259781678    1.95227057791200
C         1.72795598880536    0.78956223757787    2.46406727734465
C         1.09363519059155   -0.49369417033249    2.43001825605914
C         1.59921203360663    2.98570773511974    1.40905578694414
C         0.92505050473761    1.96048992149975    2.17557650955813
C         0.84992729585819    3.62371887440152    0.40852320306951
C         2.38938361978298    2.74981782320703   -1.30399686232096
C         1.21640979262303    3.42198906356339   -0.96546145033081
C         3.38938515672230    0.68051106087419   -2.13054909587299
C         2.28340629403060    1.61601260570214   -2.17956297221735
C         3.74911210362590   -1.73165303279015   -1.88417709294175
C         3.10948389370872   -0.65223825194036   -2.52001687926918
C         2.68720865368489   -3.03061987683236   -0.33014493570500
C         2.78358479793669   -2.77185168544875   -1.71443005523318
C         1.09651112455411   -2.76123556325457    1.47495702465120
C         1.43889477023857   -3.36020229876779    0.21267364336191
C        -0.23276113873470   -2.89756983331421    1.91156772552359
C        -0.34803738048274   -0.52340020954687    2.52003881510692
C        -0.96936250402882   -1.77510564393050    2.43645639671480
C        -0.50014590032192    1.90429756865383    2.13675343445230
C        -1.17095256147095    0.65349990567207    2.37101023255851
C        -0.54246929869063    3.73959269227625    0.50927702324508
C        -1.24238633819622    2.97284564570679    1.48030157674440
C         0.01358169280858    3.23320402539539   -1.67385310587136
C        -1.03711016167558    3.76008662535539   -0.83696952276025
C         0.95751650846021    1.20333150711025   -2.59888168606903
C        -0.18802671666220    2.05445256410990   -2.40647171086809
C         1.76319138357676   -1.07357692939372   -2.85868699006790
C         1.59971860665640   -2.41987196210245   -2.40545075761156
C         0.68001910645822   -0.19104973146703   -2.85596474914859
C         0.36958241047506   -3.64224905800490   -0.71243459052535
C         0.37303827246082   -2.89431815445465   -1.95459965957232
C        -1.11791828584992   -3.72989135285495    1.22180145148331
C        -0.87542487752784   -3.97491509824769   -0.16024218042755
C        -2.34780618087006   -1.93239207335113    2.09300024704182
C        -2.45510146377530   -3.16834126152032    1.36919102623434
C        -2.57694427754043    0.49775862444727    2.05611777509392
C        -3.11875647062477   -0.81969419440771    1.74299607710871
C        -2.61846122397284    2.83819438969722    1.25248384558500
C        -3.30140395168214    1.60898778935022    1.57577962472203
C        -2.33275629332635    3.46616267202704   -1.10417765462094
C        -3.19875419372295    3.33148407250524    0.03320235257252
C        -1.56328027522663    1.55530734966871   -2.50879853818134
C        -2.62391795823647    2.39236168146112   -2.04578054123087
C        -0.65478774900776   -0.74941691167532   -2.70403025484147
C        -0.78709774456260   -2.13156284012141   -2.33648556825157
C        -1.78636056214798    0.13894937267661   -2.58420126951895
C        -2.06251363874082   -3.63493674761547   -0.85781943530217
C        -3.05821995717895   -3.19351902293961    0.12604472278384
C        -2.01679454351376   -2.62215749208671   -1.82564586066034
C        -3.95528815439911   -0.95695667255460    0.56549899631094
C        -3.03106903042227   -0.38700262363825   -2.07008240732969
C        -3.69403346054236   -2.02179089615499   -0.33861282574371
C        -3.09989309656027   -1.70492881769237   -1.60039173420397
C        -4.35302665738565    1.43993754406246    0.61158657641792
C        -4.26004275091574    2.48183794287065   -0.34785654045734
C        -3.86060270604086    1.85885911029444   -1.59311033205509
C        -4.37577331578314    0.20055210498664   -0.08899542194975
C        -3.98620949273808    0.46114315352072   -1.45336443036656
