68
C68 Isomer 1547 Symmetry C1
C         4.73758917313177    0.58942828312873    1.47066863356930
C         4.47425040417675    1.71177121168507    0.58114924448715
C         4.56733619387840    1.22492434952297   -0.71751321850337
C         4.77680962032631   -0.62843910083250    0.67900758489205
C         4.76003497186023   -0.24709209036833   -0.65799807619292
C         3.74209412767501   -1.51164800257449    1.13478293800457
C         3.64761288847858    0.48029772402748    2.33295681774274
C         3.08527420099713   -0.84743018716670    2.23676458329057
C         3.24124081494311    2.33105954779482    0.97458422264727
C         2.76490282795677    1.59909791891274    2.12506324470944
C         2.27549696774397    2.72051349216686    0.02454728873217
C         3.56304676279997    1.49252102776776   -1.66829445551974
C         2.46610680787289    2.34665099647401   -1.36201484108649
C         3.86242763793501   -0.83686343015882   -1.57038846306872
C         3.29585310757192    0.24640212334090   -2.35197970123654
C         2.92295844062120   -2.21004077591253    0.22577302782813
C         3.01259758198960   -1.90785217836840   -1.18900051224960
C         1.67585824876697   -2.72243820620086    0.75549533617899
C         1.73730420909098   -1.02813218406777    2.50453182154380
C         1.06262142701930   -2.15577210592932    1.91800440619013
C         1.40927383930338    1.45109559315423    2.40130939583525
C         0.95978979987724    0.15031292801353    2.84340404773051
C         0.92739433110634    2.92132555886697    0.52526315366179
C         0.47568706364896    2.32944767371116    1.75203424359468
C        -0.07546219283713    3.22479145978141   -0.40509379783463
C         1.30201756852920    2.22308128057570   -2.19716233859204
C         0.09582622770728    2.80678265217814   -1.77248258461381
C         2.11088631993948    0.06666701833999   -3.01518510258182
C         1.14528253880257    1.12304376725488   -3.06696770992421
C         1.85035706785625   -2.15046404241318   -2.01956145905256
C         1.42478469203187   -1.18144269008030   -2.96048546433004
C         0.82498191198959   -3.38252753877244   -0.16170056438967
C         0.84223662833033   -2.99714756061232   -1.55520651582567
C        -0.49388592082465   -3.69382609799958    0.17806024492621
C        -0.35819730019335   -2.31043371504375    2.15868602924734
C        -1.13186534451775   -3.12710285148818    1.30499676424094
C        -0.39469064720070    0.00114149228580    3.01413450656956
C        -1.06504861059935   -1.25349700420105    2.78497958212381
C        -0.92841776962140    2.18971763771158    2.02632046744659
C        -1.31592082967166    1.06186022761697    2.77837039176711
C        -1.46115310475168    3.22083502277160   -0.09114231350188
C        -1.93650307984632    2.77003153119339    1.16491054146780
C        -1.16867044431098    2.37832551299967   -2.23942958704929
C        -2.14913938844517    2.83265464918010   -1.28839450445087
C        -0.12520871041948    0.51298639984837   -3.25899993376098
C         0.03377342740043   -0.90616656227032   -3.17095679548864
C        -1.32836430332611    1.11723337312865   -2.86123799063552
C        -0.52526173941916   -2.87841230281379   -1.98556181599989
C        -1.32783179016293   -3.43445207424084   -0.96274157763516
C        -0.99402764300778   -1.71795399567147   -2.65767935881990
C        -2.45682963537389   -2.72672226383551    0.90026081572455
C        -2.51092520233133   -2.82296894439055   -0.54028748877036
C        -2.43312804947040   -0.97996209511907    2.56147063016094
C        -2.61074056459351    0.46163150349131    2.65253521312576
C        -3.15059950845843   -1.70025315355508    1.56247367078488
C        -3.27675674261938    2.29905546072631    1.21431413383701
C        -3.61727827348526    1.11127584670729    1.97657204148767
C        -3.38307626146388    2.24194638309859   -1.25074247995963
C        -4.04659370804797    2.20849300830463    0.01379964903247
C        -2.46997678582454    0.28359991099593   -2.52822656165090
C        -2.28680309812524   -1.13175771028216   -2.32620773469305
C        -3.09477576939994   -1.77955861428844   -1.31418890701452
C        -3.56726791983176    0.93974875973603   -1.90501696937202
C        -4.14002539843632   -1.01281692228296    0.81316067054287
C        -4.53902549790511    0.30829477621168    1.19560856478177
C        -4.86030555030439    1.03679197418264    0.03948409869182
C        -4.10068139044202   -1.06133726648489   -0.63595237350842
C        -4.47226965608979    0.22567359053772   -1.10067680928477
