78
C78 Isomer 17118 Symmetry C1
C         4.20448769326434   -1.19877587229386    1.81331108239795
C         4.56724931690175    0.10742796070338    1.53447517533389
C         4.81955948151340    0.20986515569496    0.10401654519683
C         4.18596004155477   -1.93601877155552    0.55486451622627
C         4.41217543039635   -1.02138252640943   -0.50147418931340
C         3.05492087673158   -2.75336447094979    0.56488624377953
C         2.99491546238571   -1.46995529625133    2.49414034963223
C         2.36731308812931   -2.57381595258516    1.81554950600483
C         2.17999641632995   -0.42419184030681    2.96738197031416
C         3.72999666402030    1.18454661821883    1.92545075184668
C         2.55661582314335    0.94791805568722    2.67115722623678
C         4.29395651787990    1.43284332428747   -0.31410423961186
C         3.66764939360688    2.10301271771525    0.81746844484616
C         3.63432937871196    1.46820903236416   -1.55288349041057
C         3.47374122100113   -1.00746329104048   -1.59316656252404
C         3.20156021562327    0.23662473551652   -2.17260095182981
C         2.26358228500257   -2.93389754786012   -0.60124274032796
C         2.42459149473011   -2.00081817827262   -1.66922875408691
C         1.04997917578648   -3.66049569709159   -0.40434509593403
C         1.01048209765322   -2.86594917310997    1.93471243334879
C         0.44641842458474   -3.70997616017514    0.90967550638162
C         0.79772955242888   -0.76752484356663    3.18939825841825
C         0.20201322342437   -2.00600811015651    2.74356791621699
C        -0.05426797579529    0.29840843821013    3.47495723043141
C         1.54445253617853    1.97352108090074    2.60399920112883
C         0.31655652333739    1.65967107804331    3.19582288082327
C         2.60118941487454    2.98039371518978    0.64109246798517
C         1.56299911984963    3.04685979213912    1.64489654895620
C         2.66432760836655    2.45392941506173   -1.77012573024939
C         2.25872334713056    3.32345971924956   -0.72300612894696
C         1.94068997995811    0.52901994512284   -2.79802351953647
C         1.65429449699714    1.90607303332637   -2.64170127125630
C         1.24365298666156   -1.72063290369293   -2.45221026621909
C         0.90055428375542   -0.38741199899948   -2.88169440637089
C         0.20229110044294   -3.74413270020651   -1.52741085567165
C         0.20972653766226   -2.63780828465478   -2.42780554743527
C        -1.14536220040767   -4.15627221831605   -1.39265257790029
C        -0.92181562112124   -3.98740135478873    1.02434319492325
C        -1.68451502892313   -4.32735033777952   -0.13386350413054
C        -1.23043434871105   -2.13414723240132    2.66313200941621
C        -1.75250854282065   -3.17470064628408    1.87338237537215
C        -1.46499681215564    0.19774933433343    3.38306816603402
C        -2.08403183095950   -0.99052051897020    2.95125145526306
C        -0.86207012443350    2.39854018854791    2.94567168917805
C        -1.96948783600955    1.49770407708861    3.07541006496434
C         0.37506230262598    3.83082047642067    1.39937924074644
C        -0.87364729115951    3.51361115803909    2.08118199718656
C         1.08573470366767    4.01229719310116   -0.94669787539761
C         0.26972626308837    4.47613588691264    0.13254775638385
C         0.35459629261361    2.39305414839640   -2.68493892203403
C         0.20472152557495    3.66358492827064   -2.05430640538706
C        -0.47359538294522    0.08436829411726   -2.87252094855311
C        -0.75900280889903    1.48212290850078   -2.75581448441571
C        -1.17049236061190   -2.23360305475017   -2.64971500193811
C        -1.99855366033454   -3.20930039862310   -2.10643869046656
C        -1.52750690342993   -0.85225678399296   -2.63219856308963
C        -2.95342551917340   -3.61249295238298   -0.07701111164269
C        -3.01776357645576   -2.99991931182668    1.18225898969436
C        -3.08309873638661   -2.83635835282371   -1.26330409591699
C        -3.30466403208748   -0.83391317335722    2.25180307444400
C        -3.67448993231240   -1.78225365268674    1.25858777382908
C        -3.09956936233334    1.63726772709776    2.24698890240087
C        -3.71160914965368    0.45425742583355    1.78555410355464
C        -2.13049396108561    3.78002939188632    1.46028296432498
C        -3.14239088616386    2.76195313121730    1.41085065252757
C        -0.99781366196751    4.76028675287152   -0.44622041519774
C        -1.05230187391814    4.14392858368594   -1.77912474290915
C        -2.16187467251760    4.41554423169251    0.19460349283828
C        -2.04555588780022    1.90881960221911   -2.25938228766802
C        -3.56675724341311    2.59891630320501    0.03445946961772
C        -2.19223888785969    3.27708293396293   -1.85436823913936
C        -2.97335508433652    3.59845253155244   -0.72160545041511
C        -2.73350896941678   -0.46208188274304   -1.96007388490280
C        -3.45429024102284   -1.46336781529733   -1.18985942418273
C        -3.97885409546768   -1.06284599431352    0.05803847016343
C        -4.04268528952476    0.31033073676830    0.40456649818464
C        -2.94039904894071    0.93459633101626   -1.68732196679220
C        -3.71809345703446    1.30517120634709   -0.52774425474929
