76
C76 Isomer 2779 Symmetry C1
C         5.34756521646070   -0.74762008642596    0.51955853960230
C         4.59552071068457   -1.96449098343809    0.49002322046870
C         4.15054889516638   -2.12199737475879   -0.83144965149192
C         5.10388770787805   -0.02264055187429   -0.74069970373290
C         4.42838374734179   -0.88037218055103   -1.59073706566627
C         4.52192429439400    1.25577988059142   -0.46141642984577
C         4.81174808599278    0.04961709526249    1.53727328323196
C         4.52117701542862    1.34693730514123    0.98676985387468
C         3.59332367914334   -1.90451456627072    1.54145479764597
C         3.74745856465008   -0.64608601137540    2.22446860652708
C         2.29087698440904   -2.36098840104600    1.31805507984299
C         2.82592080714654   -2.47389637330428   -1.08347630428113
C         1.95179445293643   -2.79687290277768   -0.01895809713850
C         3.21638044578428   -0.47934850123481   -2.21227424297929
C         2.28875964785630   -1.56147077642427   -2.06210471279751
C         3.37961424958945    1.72402984920231   -1.16940537679001
C         2.69244198100158    0.82957669696821   -2.07934818827135
C         2.58103032287144    2.75576663633070   -0.53795164111238
C         3.55223026814009    2.07119007865824    1.61241739979641
C         2.77114895737468    2.98254705711553    0.83665117911632
C         2.62840896907471    0.06615687591775    2.71372279033509
C         2.67713647104592    1.47897939844116    2.59905289619304
C         1.19518057426640   -1.79962672433807    2.09077571350494
C         1.31446508819295   -0.53182524757847    2.72943760749716
C        -0.09326386690177   -2.34227750594602    1.89332161273462
C         0.60064768272038   -2.90273650876624   -0.36670021086833
C        -0.30857025738518   -3.10601059427314    0.71057721018540
C         0.92047746623770   -1.38995474480465   -2.21198558062566
C         0.06675596592319   -2.31965655863221   -1.55499252829573
C         1.28534441977292    1.01272242890094   -2.36616839987169
C         0.40470440787332   -0.10105857462852   -2.55453641725361
C         1.31669720646858    3.14498458665797   -1.10999325578852
C         0.69296531819572    2.29041416438706   -2.08755839014176
C         0.44797659277928    3.94663490443102   -0.33416777865491
C         1.65209272947460    3.29294421498338    1.65584792123077
C         1.49234688626976    2.24027661205173    2.62098983178567
C         0.55817123871691    3.87189279698837    1.09545586440109
C         0.11126720063572    0.25976283515334    2.90231800811933
C         0.20886136973489    1.68509142166947    2.83157323441455
C        -1.25866821633469   -1.74607256097219    2.49414911462724
C        -1.19712832638203   -0.34120968485694    2.80338503169423
C        -2.49980375770686   -2.36173605057933    2.24958541691442
C        -1.58059453932746   -3.51560005050051    0.34325071157126
C        -2.61855727887754   -3.43773202503375    1.28700438817380
C        -1.34276593087950   -2.24499973126621   -1.74077070321538
C        -2.10184557989627   -3.15007900230811   -0.96779790662472
C        -1.02825792923286    0.03060975613841   -2.60281766790037
C        -1.93462077588505   -1.04672747756299   -2.25885377060778
C        -0.67805376792556    2.43972674074886   -2.35037812941512
C        -1.53022117528570    1.33288705037163   -2.64078484509063
C        -0.94202666581854    4.07995386490151   -0.60826517844635
C        -1.49549665085837    3.41561436654400   -1.68641302296347
C        -0.72622649379847    3.62580359645650    1.65976315612789
C        -0.93878097109522    2.47558631935730    2.45861345715866
C        -1.66021452107006    4.01917643011626    0.65351697100357
C        -2.38986100298129    0.46371401997050    2.67431827847651
C        -2.24642082153308    1.88409329243181    2.44997832994186
C        -3.68300435245104   -1.57478223198036    2.13822657872316
C        -3.63692298567352   -0.18282758136355    2.30059722121414
C        -3.83890613082883   -3.29100024292473    0.56630768362227
C        -3.48456406193724   -2.97559021593688   -0.82146512122594
C        -4.48015173138465   -2.15804171676673    1.06801015148766
C        -3.31384915144186   -0.76695569486036   -1.93467732538044
C        -4.05851760735220   -1.73921669876926   -1.20866426909189
C        -4.83769099671062   -1.31605686604024   -0.05006296146772
C        -2.87593724807889    1.63846721851448   -2.24076070858562
C        -2.84862674550450    2.93735636338961   -1.63796144737092
C        -3.75685157935502    0.61682212897255   -1.83176178234869
C        -2.93900758146048    3.55271893915118    0.72247988605424
C        -3.26722904149798    2.59043297550262    1.75220575856655
C        -3.63056942346552    3.17519131166402   -0.50061442641884
C        -4.58637951893005    0.54343823361428    1.50395603940975
C        -5.00068922457497    0.00028266681839    0.21702511027625
C        -4.68894698444892    0.97617140290819   -0.81187366486887
C        -4.39052579558742    1.89288294424101    1.27654749400757
C        -4.57048693177389    2.20183853950536   -0.14781852292910
