60
C60 Isomer 154 Symmetry C1
C         4.34881754724915   -1.22581286494381   -0.98619988800098
C         4.80106929894958   -0.16304192074058   -0.21210536712022
C         4.28624418988389   -0.30909023215731    1.14538283803484
C         3.55117654703936   -2.07129150509263   -0.13372256441269
C         3.46955176795081   -1.48691095483299    1.18871028432920
C         2.34173064096708   -2.29804625318905   -0.80758403006861
C         3.46839895813295   -0.68995524513152   -2.02047649078229
C         2.26418647617023   -1.40032896955400   -1.97626843009744
C         4.25870779847290    1.05818775701260   -0.75109067375428
C         3.39808133207722    0.74148263974696   -1.86398629002093
C         3.72593540770737    0.93205055625169    1.53186011242611
C         3.74567732205158    1.80563744906471    0.34615514564829
C         2.57701959014065    0.93783278697107    2.32557430274627
C         2.21185379588295   -1.45517486807776    1.85171739780200
C         1.84893676558810   -0.27086952355361    2.55081478252690
C         1.16924372179216   -2.50514594629173   -0.09165682604046
C         1.09024283754053   -2.16503156437821    1.28861850090208
C        -0.02969472454349   -2.48988678197112   -0.89372670243165
C         1.02148293525050   -0.78195607953523   -2.26896171651257
C        -0.16545191945592   -1.53047771253219   -1.94107143314736
C         2.14562448044610    1.39037814357407   -1.99939513579760
C         0.94951316050428    0.63586208682946   -2.37203778506590
C         2.65950041094818    2.61677257680952    0.10639744412554
C         1.93306041040671    2.49834528490352   -1.12922249976574
C         1.59367384442159    1.99354750825474    2.21261454306973
C         1.66854690818771    2.85774392389344    1.13493245896708
C         0.46896781167307    0.08004480225458    2.77163773921072
C         0.30432799978623    1.47879722511191    2.60081656036384
C        -0.23469017069016   -1.99506967770874    1.82586136897451
C        -0.60061983886181   -0.79559788534237    2.52329551854664
C        -1.15182421990407   -2.98322389925397   -0.24724395489922
C        -1.26319254385096   -2.71394892311045    1.19001947763838
C        -2.41118072504162   -2.78341342997978   -0.83144916744883
C        -1.46263098748423   -1.00079731187991   -2.22428789282787
C        -2.59085628824735   -1.72486384961653   -1.74867884237823
C        -0.36162342288964    1.23473678747146   -2.32011137424227
C        -1.56244171258283    0.43412921961375   -2.43907305231044
C         0.61959060161123    2.95594671450341   -0.89491956064731
C         0.44733916887562    3.21887401544234    0.50221906080714
C        -0.47348925102042    2.50458106878460   -1.66331769643424
C        -0.91814523393286    2.00933924396374    2.14272186876845
C        -0.80749763008097    3.00107123171787    1.10529666900113
C        -1.94346682718030   -0.24774412860732    2.42159903834920
C        -2.10591071935021    1.18374396749542    2.20873809541882
C        -2.60370091985303   -2.40067583380854    1.45953229734648
C        -3.37026213527635   -2.62650253071126    0.25116698238444
C        -2.96326923247468   -1.12102546073459    1.98024503352663
C        -3.80392578075919   -1.02426540281823   -1.31600637817512
C        -4.18013001817167   -1.53180175194101    0.00039059930511
C        -4.05354811170050   -0.63528671604346    1.14492091312406
C        -2.82260774865215    1.04751584161628   -2.19757507811325
C        -3.90998845559577    0.31303860329635   -1.54630777739479
C        -1.72021039533088    2.96309667569477   -1.19436681420407
C        -1.89825570955527    3.20568227191967    0.23784282058230
C        -2.88947695195971    2.36460833782698   -1.67242585272513
C        -3.26280943599053    1.64550299119183    1.52904688147490
C        -4.18595583090968    0.70721346835909    0.92043295245882
C        -4.41878198810022    1.14420082278962   -0.45661065060623
C        -3.16579330227193    2.74836300459296    0.61553135981907
C        -3.87606949798937    2.40591021657950   -0.59821312225296
