72
C72 Isomer 1401 Symmetry C1
C         4.97097796061957    1.76082200003726    1.06836442175574
C         5.06021288910145    1.74826549202404   -0.39575948592650
C         5.53182540384235    0.47873300307252   -0.75984361102968
C         5.01212779748955    0.38045185349571    1.50794277044570
C         5.44940831735109   -0.39612308981814    0.44819898299639
C         3.75020925301142    0.04977070071394    2.16145491429823
C         3.70826898974416    2.23516467079283    1.39372689571906
C         2.99522225225984    1.25585504675267    2.19273732098532
C         3.82011514298177    2.20807226142619   -0.94293963014735
C         3.03324432529734    2.65510966578714    0.18954869721542
C         3.12465941809318    1.47884085410166   -1.96430732794649
C         4.90900514607016   -0.20787794175354   -1.79411405137756
C         3.72040879902829    0.27050456072398   -2.43141521196857
C         4.74258149973291   -1.58265818655481    0.09763470538541
C         4.60979907822883   -1.54782810339873   -1.31742222170703
C         3.05911730975674   -1.15991119904750    1.90406101542326
C         3.62284771141570   -2.03560336905124    0.88221704300305
C         1.63183223338607   -1.17782885496994    2.17007624304470
C         1.60746859829242    1.25451533890184    2.17237785839335
C         0.90828794406268    0.03350402884470    2.40897032380021
C         1.66139094558985    2.64514682444935    0.16880563781546
C         0.92968506600417    2.20032133012411    1.33446252454672
C         1.68834549512630    1.57467577145261   -2.03745153941763
C         0.99635634721656    2.39360825903790   -1.08287982941519
C         0.87222370999580    0.54435397407199   -2.60876812787917
C         2.85679555529895   -0.86132662833175   -2.66434096767367
C         3.44362948765997   -1.98660196358835   -1.96508754485904
C         1.46771315032108   -0.75143916187248   -2.76198608059196
C         2.69631580763141   -2.84163083286343    0.19511191325674
C         2.60093968857245   -2.80956659969441   -1.24573006680956
C         0.81939030524430   -2.26625389143093    1.69479879013919
C         1.37725026437574   -3.05050132305335    0.67545268054771
C        -0.60730720837772   -2.26799860279648    1.83752825581128
C        -0.52205154967199    0.08277660676867    2.44453235940286
C        -1.25661580842416   -1.14833229785178    2.43939424435776
C        -0.45571155287722    2.19706347829281    1.29293867310917
C        -1.22119178104508    1.27392679878661    2.07540068349195
C        -0.38077387357170    2.53143446220303   -1.11096701145497
C        -1.07864689662068    2.77964238522467    0.12908987183551
C        -0.55510554252396    0.64825768397623   -2.62207986487219
C        -1.14134785733707    1.87665027551740   -2.14534548766894
C        -1.41436738712862   -0.49043583030392   -2.67473540205452
C         0.62764445531286   -1.87368328170041   -2.40435151642296
C         1.22760182373341   -2.87101172550814   -1.60881065115610
C         0.51932588824190   -3.30048026126162   -0.45672614454467
C        -0.79052247673181   -1.74578724605799   -2.33956411347140
C        -1.41065079028525   -3.06007618288757    0.93329778396457
C        -0.84489265752143   -3.21990504568362   -0.38482457777361
C        -1.52899375813115   -2.65042296149500   -1.51783427280308
C        -2.79767757781564   -3.00971304308783    1.00273951960481
C        -2.67045467210246   -1.08419096067310    2.45438592788616
C        -3.42678957453465   -2.13871536894093    1.91817030012249
C        -2.66309534861402    1.32457626968941    1.97530579546846
C        -3.39534212964846    0.15409132671133    2.25384283263486
C        -2.44178881862318    2.93268674549895    0.11368329537695
C        -3.27388638626596    2.28266212768778    1.11070742205654
C        -2.50912856707082    2.06643695852344   -2.17428550824619
C        -3.12510089121045    2.88173027326894   -1.15397819790216
C        -2.85437941112971   -0.33596617703019   -2.54540391130333
C        -3.40875724267817    0.96783726037966   -2.45420331064470
C        -2.92006985169474   -2.50413965024212   -1.39504112650396
C        -3.56632143461559   -2.92600497770686   -0.22346354340234
C        -3.62231377343860   -1.38113819492015   -1.96888805950946
C        -4.60194703222217   -1.55538315887151    1.27831261258606
C        -4.60902895928974   -0.15345557561158    1.53628851568324
C        -4.68628022794823   -2.04140775054473   -0.02208183518227
C        -4.76196102713238   -1.12204831095309   -1.12758136652783
C        -4.50936499924588    1.99815204959634    0.47008594509391
C        -4.41172883859781    2.39450810978952   -0.92167004684531
C        -4.59980537853874    1.20265525029386   -1.70494542122594
C        -5.06972196951401    0.69709974210865    0.52257030825952
C        -5.14110480791105    0.19254430942950   -0.86139001925243
