76
C76 Isomer 13174 Symmetry C1
C         4.52635927147669    0.92700595333353   -1.29964395837923
C         4.88056624022998   -0.14253335433655   -0.51034574252988
C         4.79028597371058    0.25984777568499    0.89755997844395
C         4.29968275947244    2.05652663677319   -0.41044584643030
C         4.27508424126978    1.58375927389803    0.94034066843876
C         3.21669270664097    2.75765974121991   -0.90293251230092
C         3.41617855871651    0.85727134961186   -2.22127516866840
C         2.69907051016301    2.06532687786999   -2.07276153503009
C         2.71307499184962   -0.34229771298353   -2.43809331755803
C         4.21743848231582   -1.37683460207883   -0.69515406466469
C         3.26383521680195   -1.50474152144497   -1.75898226593163
C         4.14523072844352   -0.79751490052020    1.55027739372921
C         3.88801530364625   -1.87396831129222    0.61024621222107
C         3.12327889631072   -0.50772968256785    2.45714722731470
C         3.12519719799379    1.88677791292668    1.75362677804517
C         2.64368587463883    0.84423604372764    2.56730820374440
C         2.30310108361812    3.38364903071552   -0.01904886036874
C         2.15706234845185    2.87361183959276    1.31969296325238
C         1.20074716093929    3.90801081114113   -0.70159745014999
C         1.33929662763534    2.15174463716715   -2.41597222384238
C         0.69276232869761    3.28387600752141   -1.90482652547884
C         1.28151486289259   -0.28780091326442   -2.73943772564809
C         0.59325360738095    0.96579408548633   -2.75048498977205
C         0.49962331147603   -1.50597571675047   -2.68124113526578
C         2.45759028590159   -2.62213214320097   -1.64513952384042
C         1.16980902496091   -2.69148641732649   -2.29280814729643
C         2.83135552931053   -2.77334354312189    0.79055088214658
C         2.38410364602714   -3.36725926097140   -0.41947489591376
C         2.02272411164849   -1.39324753741005    2.60617721468036
C         1.85306213287109   -2.56992752402465    1.84351463021177
C         1.25877165254973    0.76146373549051    2.92320145386979
C         0.88723749850955   -0.60383147335127    2.98691807173192
C         0.82806361360990    2.89886581800000    1.89399299332537
C         0.32198670307743    1.75001409839394    2.62016553802730
C         0.08887156337670    4.31974517615502    0.03616681394379
C        -0.14446873371912    3.72831533500166    1.30004492407594
C        -0.72893071953311    3.35575260189579   -1.87799246754380
C        -1.09566214143032    4.14925179545657   -0.76553270338752
C        -0.85496601465514    1.03181538852857   -2.68282883762181
C        -1.51628054616453    2.23936577324548   -2.26384426448090
C        -0.93565975786432   -1.47570796677142   -2.57304271047070
C        -1.60347536258091   -0.19828509141689   -2.66859091480970
C        -1.64505387508723   -2.57228427279612   -1.95395435172306
C         0.46399712163988   -3.72452893692597   -1.66119417099473
C         1.16844786221419   -4.04688987671692   -0.42564145515754
C        -0.89669248744153   -3.62989542037558   -1.39781794400477
C         0.51693377140311   -3.08784953676082    1.73230721998826
C         0.24540975075768   -3.95235282183261    0.63124692436438
C        -1.05535324176927   -3.95536381481204    0.01161545484812
C        -0.42830699358423   -1.02576420456724    2.82190778540487
C        -0.60699444919727   -2.35859679600280    2.29938688507585
C        -1.06955636772201    1.36663862836828    2.63801628680530
C        -1.45438502512744   -0.01329480492577    2.76622111854444
C        -1.54394849983499    3.40723542402874    1.36048149994118
C        -2.11952846249043    3.69812958753993    0.07468335134312
C        -2.02504410351333    2.29194536796122    2.07321260312431
C        -2.86162628580411    2.21255935890485   -1.72340558412723
C        -3.14192087999238    2.91255517629861   -0.48158480589657
C        -2.98296471427772   -0.13524915760408   -2.40575455471370
C        -3.62877464329206    1.07072815682719   -1.99561130949446
C        -2.94408541883581   -2.37083205588197   -1.36141194159711
C        -3.68235011552154   -1.24256382991225   -1.77748995616531
C        -2.11495277754175   -3.43170430865329    0.68036246106946
C        -1.90535322531341   -2.66737303895595    1.87664192627404
C        -3.19399300785528   -2.83772906260615   -0.05052270030554
C        -2.79769590012504   -0.42925405105171    2.43324626076258
C        -2.99462629513061   -1.75030532426270    1.97717597324879
C        -3.90871470757407   -2.02196149281484    0.88275408079429
C        -3.31865478173822    1.87360785344779    1.72628161514282
C        -3.93747429236572    2.28676953651783    0.50124281869817
C        -3.76265909663272    0.52943227651200    2.00424014584207
C        -4.71880665837220    0.70414690598054   -1.14052504184640
C        -4.72252474519891   -0.74104838635233   -0.99040456131760
C        -4.77003342723490   -1.04272633287231    0.41155754977370
C        -4.83938504388632    1.26534401760318    0.12065484220654
C        -4.79549975422222    0.19740521068970    1.10964741427336
