74
C74 Isomer 6833 Symmetry C1
C         5.08239770364967    0.20220973891256    0.85385818609183
C         4.54304858237055    1.40177210541511    1.22994046648370
C         4.33230053642262    2.21192747588406    0.02826298375190
C         5.10540160742722    0.19720848413218   -0.62769627677414
C         4.44237004538842    1.36814349572134   -1.11373572951035
C         4.65780903466292   -1.03407322567883   -1.01831779821130
C         4.48508498983856   -1.00915293321694    1.31793360182313
C         4.46843785703401   -1.86382252466940    0.18028677060920
C         3.31263878818154   -0.94198510847739    2.15679938296105
C         3.34625395764792    1.49706036584746    2.02302443103797
C         2.66301061684660    0.33051721815992    2.45498138470633
C         3.21159931441711    3.00598106748694    0.25049294150095
C         2.60877776866992    2.60436329965936    1.52431520273844
C         2.37049307518421    3.21167285226027   -0.83313013206337
C         3.30612234791774    1.22748821538671   -1.98220649112337
C         2.36997478855912    2.28010257628041   -1.92077660102895
C         3.49405610774493   -1.20205898602958   -1.84175641393888
C         2.74910116598098   -0.08107405419069   -2.29243605888175
C         3.40812291400588   -2.72213658923466   -0.07205445145866
C         2.81272271178513   -2.35491009254819   -1.36125553346552
C         2.45829118327840   -2.05093022037594    2.07183223077420
C         2.54946329600249   -2.98554314818135    0.99282605923059
C         1.06862047005144   -1.98137988609050    2.42416077047635
C         1.22344413100202    0.42415097600887    2.64427053306518
C         0.40419722793851   -0.78095334995506    2.69481890141044
C         1.23928808033648    2.71029045373580    1.71497999449539
C         0.53776356349532    1.65021812801565    2.39410891923271
C         1.03277988882746    3.60129983988885   -0.56764904798851
C         0.51694999607458    3.50407410232206    0.74710263392905
C         1.00683140169343    2.12287389087396   -2.31372918573087
C         0.22375941932009    3.11011606822008   -1.61954226052207
C         1.32151791313554   -0.26555278310835   -2.51271902470643
C         0.42857580559345    0.87413646029113   -2.59755533987528
C         1.46228639169133   -2.54886980231361   -1.58866862290344
C         0.70161750685640   -1.53084055028980   -2.28118171954482
C         1.25289413619038   -3.45711517737228    0.69376708633164
C         0.36896266487728   -3.00529092691734    1.71753556867278
C         0.77710989445672   -3.40248013352651   -0.64223218818319
C        -1.01040902679156   -2.99655418298827    1.54485531789213
C        -1.04146463605163   -0.77068649873659    2.59443919155134
C        -1.77329883723559   -1.91697822411928    2.10744135776053
C        -0.90679629567422    1.70412021664581    2.45416992486007
C        -1.70078026332922    0.50762607492611    2.65731991509284
C        -0.85765523364073    3.53792966060821    0.84603982838508
C        -1.55907700902652    2.80862678645494    1.87257046418723
C        -1.15461447561126    3.01424664098130   -1.49574971981867
C        -1.69822760822748    3.54580287914124   -0.30056305597424
C        -1.01661508477178    0.75735977158145   -2.54512046106173
C        -1.81622734425852    1.90756178989536   -2.14220090078694
C        -0.73142474811851   -1.67495039945661   -2.37096280007998
C        -1.62106583398089   -0.53495673784078   -2.53764312636312
C        -0.57741025935613   -3.55504662260257   -0.79194958078072
C        -1.45238342271280   -3.62473360719171    0.34465785849057
C        -1.29391435553838   -2.86356744274880   -1.84717682238001
C        -2.73564600095413   -3.36470034678302   -0.12927610192846
C        -2.64855115743621   -2.93443060352581   -1.50239837735529
C        -3.15183131365163   -1.79164347312856    1.68980349023023
C        -3.62819551020102   -2.51195050327889    0.55300767612410
C        -3.09120658216976    0.57261293097394    2.46112798812833
C        -3.82924332710243   -0.57913997684733    1.97359855821237
C        -2.93392084473735    2.78711295687125    1.50106485759307
C        -3.01133890226102    3.20338070986106    0.12107267684259
C        -3.73848302104323    1.74049723628296    1.94048591908924
C        -3.17256999128980    1.77195299300629   -1.85007299469231
C        -3.81285194669548    2.50911363518809   -0.77723439348796
C        -3.04116354407667   -0.66649925753163   -2.25394748587668
C        -3.54056963516240   -1.86122372955095   -1.67194414262329
C        -4.36045331104359   -1.80864766637740   -0.47671363994162
C        -3.81861193053915    0.48941000162125   -1.95186044466707
C        -4.89771505487704   -0.13826112688483    1.17715815811182
C        -4.81099923758555    1.31338889989794    1.10148353938036
C        -4.82777815819352    1.66972023757630   -0.24433987309084
C        -5.02925816429609   -0.64724497174496   -0.15584565519937
C        -4.89832481691510    0.45231462749818   -1.04795231923554
