72
C72 Isomer 8054 Symmetry D2
C         4.52554750163959   -1.64987513772697    0.01892922542756
C         4.94226036498868   -0.47373929229892    0.56172062898154
C         4.94215025325259    0.51269269725075   -0.54974516028737
C         4.15996727198424   -1.42903072722322   -1.39266036967095
C         4.23068534040565   -0.05444613467139   -1.68180827300560
C         3.02090280268760   -2.18037363535468   -1.64627446591491
C         3.49707479491759   -2.42168262677748    0.62561874735803
C         2.70986141576421   -2.94220904115143   -0.44627837936333
C         2.83713375037578   -1.91606606886668    1.78412704417208
C         4.23437612727715    0.09481080833019    1.69522561073323
C         3.08751809771740   -0.56475846817469    2.24592664269333
C         4.52899711575021    1.68967434610857   -0.00614999337108
C         4.16590078076638    1.46964291313126    1.40622657820875
C         3.50079070378785    2.46355321601817   -0.61072788747072
C         3.08405383975021    0.60751207879653   -2.23018337137420
C         2.83745520127736    1.95936149151107   -1.76793479098948
C         1.96326999819251   -1.60359820219139   -2.39750053448839
C         1.94638438686724   -0.19754703506753   -2.65536201639996
C         0.73663662043631   -2.30044936227890   -2.30416828167341
C         1.41451004899365   -3.41923431017045   -0.23219852401501
C         0.49335516711989   -3.25567767009701   -1.30289509109082
C         1.55936834198919   -2.45605929477920    2.00415721911818
C         0.91774451371858   -3.32056392681417    1.08556996245863
C         0.52279452044868   -1.72087682583204    2.66759271493575
C         1.95240710099049    0.24268482353323    2.67346248284515
C         0.63430957934666   -0.35915956018708    2.89068561771308
C         3.02893910000556    2.22325015543714    1.66216022378268
C         2.71691150135411    2.98573526706635    0.46263462819076
C         1.97162131692966    1.64865114221698    2.41547744316561
C         1.42208884875626    3.46548474565215    0.25131867562753
C         1.56044186453627    2.50215637106077   -1.98541431008632
C         0.92248381938727    3.36806793476132   -1.06547433548931
C         0.62915430382497    0.40707270395856   -2.86983385780224
C         0.52095235745114    1.76904421465759   -2.64653999908184
C        -0.52809018567561   -1.71228175072034   -2.65077984391636
C        -0.63682636911649   -0.34962216267135   -2.86962154249281
C        -0.92634113981129   -3.31556350464424   -1.07332693099968
C        -1.56625718027406   -2.44707644277694   -1.98940015815660
C        -0.50181082047045   -3.25819577163909    1.31523767248093
C        -0.74311784118735   -2.30534106562755    2.31921766963616
C        -1.42331281128432   -3.41678134050041    0.24413978650697
C        -1.96825873103692   -1.60628627728846    2.41467577017155
C        -0.63010978565292    0.40016230088645    2.89316820729286
C        -1.94859533313321   -0.20105699063900    2.67684203193586
C         0.74626412810443    2.34808150599046    2.32467711523296
C         0.50291758854247    3.30391816149043    1.32399588389810
C        -0.51894169029304    1.76256514190571    2.67391854018581
C        -0.91710596163174    3.36689824406488    1.09757785780453
C        -1.55696549163658    2.49965209513952    2.01494153486877
C        -0.49768563037579    3.30865891979409   -1.29216074074191
C        -0.74301064577413    2.35615231926930   -2.29554855481871
C        -1.41645221557319    3.46899900588076   -0.21900617384333
C        -1.95364201569477    0.25439337979954   -2.65062471138006
C        -1.96978972322854    1.65963447700163   -2.38855503003726
C        -2.84287355205815   -1.90503074121725   -1.76766097632050
C        -3.09044275676388   -0.55188819764360   -2.22549179554381
C        -2.71760033797665   -2.93751394987949    0.45960306338126
C        -3.02712649070412   -2.17860013267735    1.66185618058349
C        -3.50386824119241   -2.41252705455792   -0.61064053980332
C        -4.16460032273823   -1.42417242540105    1.41048901823445
C        -4.53080435187066   -1.64035631624287   -0.00159745760007
C        -3.08452964275240    0.60760211405114    2.25410317128215
C        -2.83512348852573    1.96022874953669    1.79584376795676
C        -4.23264312162422   -0.05036321212041    1.70381950388179
C        -2.71225217047939    2.99252902817470   -0.43177099348735
C        -3.02593070586867    2.23429067561640   -1.63349926315240
C        -3.49744184392779    2.46905268298816    0.64009788476112
C        -4.23582158301028    0.10859672921861   -1.67280898610882
C        -4.94521986068626   -0.46181340338132   -0.54097959248498
C        -4.94298398771364    0.52151033903564    0.57334664872146
C        -4.16451586299239    1.48243835376697   -1.37988665086185
C        -4.52713857660259    1.69905892619015    0.03312482909588
