72
C72 Isomer 8519 Symmetry C1
C         4.10126207477398   -1.60384858679807    0.10952171885130
C         3.58358928917201   -2.30942038200429   -0.95746687304278
C         2.77449473495086   -3.40431422287597   -0.42826975411849
C         3.53143477138811   -2.17431420958581    1.32810796805622
C         2.62253635973925   -3.20101696126143    0.97748023553909
C         3.11816679319745   -1.11024126037466    2.12677391387776
C         3.97741905080622   -0.19514122569840    0.16515926661752
C         3.54351308189871    0.12378917922141    1.49353602412378
C         3.41476274865943    0.52825273853501   -0.91200821595364
C         2.83501955622579   -1.63312779076901   -1.95844049570302
C         2.76401297701935   -0.22409857613476   -1.96437849915583
C         1.65525438388060   -3.51215280557141   -1.25245605419348
C         1.65465302377611   -2.41406189661455   -2.20915637435322
C         0.45436989438252   -3.88555403600827   -0.65702021269223
C         1.31174055807881   -3.22700698311937    1.57661201580002
C         0.30253438900711   -3.77974009874741    0.77402929838599
C         1.87149611736028   -1.16653763672585    2.82501778861017
C         0.91988845160302   -2.21898126412431    2.54937436012461
C         1.42551786383807    0.08713409767983    3.26343673725587
C         2.94018939495172    1.34969365713360    1.77682815932816
C         1.99568020083861    1.31775481169599    2.82425255528055
C         3.01436093223540    1.88665995003024   -0.63230244134085
C         2.84425045117927    2.34458487726949    0.73168475679935
C         2.28446731585502    2.52496057708890   -1.65761163139545
C         1.59932157933111    0.33969525576736   -2.60713937273497
C         1.47526173683869    1.72400018317770   -2.54411229509287
C         0.44642844472744   -1.85660531005617   -2.64518475791769
C         0.42342018876044   -0.44201942825005   -2.92519878875987
C        -0.76463773414289   -3.52422746885024   -1.25497803216617
C        -0.78472309491330   -2.56128242797731   -2.30800509255389
C        -1.07658752511414   -3.52705541291184    1.02016629810364
C        -1.76656079271897   -3.48928873695876   -0.22893516742257
C        -0.48065249489428   -1.99236448324383    2.82639051020287
C        -1.49086685712221   -2.73117231194762    2.10031336419287
C         0.04499756107158    0.31024757600736    3.54552889953708
C        -0.89118704152267   -0.72886391514307    3.39990357353346
C         0.95193085718452    2.29424184821665    2.87579900678571
C        -0.26721681823481    1.67129952986519    3.28553429273623
C         1.97075498387904    3.43642365043334    0.98179511631747
C         0.93670666162947    3.32791188778805    1.97931153599966
C         1.54905522844887    3.70537398445415   -1.39067405152848
C         1.38567998002580    4.14406824610340   -0.09489150276502
C         0.18871108144003    2.36271102192530   -2.67197948519590
C         0.21645664699807    3.57106873045037   -1.98106975914552
C        -0.84663987463021    0.21287530313530   -3.05301967385295
C        -0.99680593203533    1.60851790800731   -2.72775438705383
C        -1.99857309532746   -1.92205672770934   -2.51990940965146
C        -2.01808245766492   -0.57203597302824   -2.97296250119265
C        -2.98653464438811   -2.80876194260555   -0.39915424282655
C        -3.15798089629668   -2.12971339528696   -1.64645460265185
C        -2.83482504302460   -2.25318239490125    2.00316329504957
C        -3.59053842815401   -2.27528458223631    0.75445534952116
C        -2.22145452222941   -0.26568538564137    3.26553291827451
C        -3.20657853997024   -1.10317911510196    2.69868113572814
C        -1.50309642875152    2.02805381099142    2.69719431351047
C        -2.50005400098365    1.06341752766402    2.80742982179866
C        -0.34151334917359    3.72798573368761    1.38703782813937
C        -0.05836705259919    4.29475175351407    0.15323361169207
C        -0.76789744415630    3.86784565304963   -0.99655896389160
C        -1.52748847387681    2.96209138907872    1.58447617830734
C        -2.09995585550710    2.07085892811717   -1.92495638065491
C        -1.89048180423171    3.02266046405335   -0.86366517292568
C        -2.37862795555371    2.69558743418592    0.46241016886586
C        -3.21876054042602    0.00484368480252   -2.49720972113121
C        -3.92333781269136   -0.96891135817439   -1.69237121272541
C        -3.20238357917229    1.20708736536553   -1.79282382165820
C        -4.34388767092878   -1.04829507715189    0.67983607015353
C        -4.07216131618215   -0.31190806999088    1.86132432379033
C        -3.56056853746730    0.99401651566462    1.82867674839271
C        -3.42575111911192    1.69742427279215    0.59683749998883
C        -4.39504101261122   -0.32315736404969   -0.51127627037527
C        -3.92251961934389    1.04371927067756   -0.54745144144839
