80
C80 Isomer 11447 Symmetry C1
C         5.13069618172441    0.62373525819551   -0.67922346760855
C         4.67131780738588    1.49037925694400    0.34320161327957
C         3.84082585126075    2.49702515612822   -0.22508367968105
C         4.38793951050811    0.95142919844757   -1.86294098953054
C         3.65772008193724    2.14337189104030   -1.61652605655603
C         3.62927680276274   -0.18456457882081   -2.26765907663278
C         4.75806435936931   -0.69726829800574   -0.29631377440072
C         3.93985672093944   -1.23658342240972   -1.33080503795589
C         4.11525920561620    0.70983576705599    1.41566650160952
C         4.19469553212175   -0.67348498909705    1.01918694708816
C         3.00096045361105    1.15484784953919    2.12723901888269
C         2.77263482690043    3.00919856868650    0.52925065856334
C         2.37933990355168    2.41615831903686    1.77915359814563
C         1.75573962513108    3.62284439616926   -0.22862737696308
C         2.40286628754668    2.32297481101266   -2.23174734895263
C         1.60885872163622    3.29472459198375   -1.60898143114073
C         2.30971560393988   -0.07641986067428   -2.78917151634303
C         1.73206640493196    1.22924203168890   -2.91228986319288
C         1.46163009088092   -1.23937339075274   -2.72517362557506
C         3.00868453220441   -2.22478077685473   -1.03497088248202
C         1.90416704329317   -2.36984822037471   -1.95016338626813
C         3.19106976857067   -1.60351831301668    1.35313948227977
C         2.84072178954719   -2.57614207755912    0.34961623687806
C         2.20507883806480    0.12351450355093    2.76936894845520
C         2.22086490877943   -1.25004599309694    2.34044286378182
C         1.11327660149269    0.55814192346202    3.49463026339331
C         1.09095977272291    2.73564699964600    2.31062076368253
C         0.63334267348597    1.90621860023816    3.36050398168325
C         0.46037062242256    3.88108913892945    0.27847732561729
C         0.07672242613291    3.45557750267784    1.55810580680632
C         0.24209400812723    3.43996182742364   -1.95692239408867
C        -0.46811171124018    3.90258642832797   -0.82000934375010
C         0.35068301249315    1.34938388113659   -3.23580599555658
C        -0.34186735947122    2.57211726268917   -2.89242538438452
C         0.07741538779180   -1.13190588005990   -3.08082466338652
C        -0.43135347333174    0.15714846014037   -3.45209181755683
C        -0.86651200833333   -2.18348204933347   -2.71430075737103
C         0.98557412076106   -3.38044555304666   -1.64626497830863
C        -0.39458034998521   -3.29946167072353   -2.03057967900145
C         1.79376006165365   -3.44097608687650    0.65702953140529
C         1.05189877282677   -4.01775976589038   -0.38817176869267
C         1.02301523320682   -2.05378246801180    2.51517997208817
C         0.88828535603247   -3.19855554425219    1.73832851082893
C        -0.02240166650364   -0.29631131077942    3.77173416965194
C        -0.18437968973133   -1.51975193456128    3.11273175559825
C        -0.72079193967429    1.90149344528312    3.70728187543292
C        -1.12307935085642    0.53684920418198    3.98650186198917
C        -1.34617748331349    3.26056649500551    1.77976483590753
C        -1.71487513651227    2.50047257682273    2.91064529809814
C        -1.83400964258359    3.64965854914819   -0.65372814981825
C        -2.29639882852267    3.32489503443464    0.67892530755630
C        -1.74949349360118    2.63513733552093   -2.90107877632554
C        -2.50076970438391    3.17007125600506   -1.80169150629042
C        -1.84146665503329    0.30122628357251   -3.58702145866081
C        -2.46667691189042    1.55280200439786   -3.45378727168749
C        -2.28481217739736   -1.88729378930597   -2.56376332039363
C        -2.75714786748667   -0.67325510241307   -3.05231333875999
C        -3.01751508549721   -2.45470049259848   -1.49022052668828
C        -1.17308134404196   -3.91840229241700   -0.97011388669623
C        -0.29230861966929   -4.26094603586610    0.07473178384337
C        -0.42361646065448   -3.68766107461526    1.35443013132630
C        -2.39207162702959   -3.37862969008496   -0.61214868839687
C        -1.50497458077178   -1.88496325843575    2.64128557750155
C        -1.60066443916129   -2.97176693322382    1.70193119630870
C        -2.63981286493734   -2.97190718949191    0.74246914331165
C        -2.36619995280061    0.28535689869299    3.39364898597177
C        -2.80924199653325    1.55549893310470    2.86296263442518
C        -2.58384547757618   -0.92443305243536    2.69543235207177
C        -3.46643369870991    2.54760396384016    0.75029687341292
C        -3.64478524827898    1.57803383592684    1.78632878956040
C        -3.69166698580701    2.36393670528561   -1.68418569743960
C        -3.68738517811152    1.39075932248575   -2.71731728850467
C        -3.85844278612474    0.02230593816502   -2.43098974309237
C        -4.10858667746257    1.99282332558788   -0.41378436116104
C        -3.88327705618955   -1.63670882387457   -0.69587719780761
C        -3.57907868986417   -1.90421946330131    0.67410229081860
C        -3.58790688057236   -0.88534020030081    1.64525311833692
C        -4.13012524484810    0.35014033193893    1.21881834170500
C        -4.30488773556574   -0.37128354805842   -1.14001514583755
C        -4.46563482130560    0.62518806706915   -0.14130769435680
