72
C72 Isomer 3552 Symmetry C1
C         5.02176851495639    1.16281672114053   -0.18683792164765
C         4.91577494136654   -0.21139365404021   -0.44609646285628
C         4.07697917247482   -0.38960901404557   -1.60776190930613
C         4.28393657827204    1.87456267731450   -1.18276485988357
C         3.65671433347446    0.91602276433530   -2.04491110934976
C         3.45996509980476    2.81538127872159   -0.50826004868244
C         4.36626788149766    1.42076366667184    1.08413096253369
C         3.42899424693038    2.45794954193604    0.91047348903146
C         4.49041389544213   -0.83178123307529    0.78207788182624
C         3.97011406256893    0.19521921024712    1.67679506247288
C         3.81322028351781   -1.99525604421662    0.66734940779407
C         3.19669960268117   -1.48161844119257   -1.69012311347585
C         3.37989679492944   -2.45394289909054   -0.64717482185011
C         1.87345256273435   -1.33435716815957   -2.28157851762200
C         2.33009072490350    1.10494714249835   -2.50230864121257
C         1.42028251983542   -0.01670890504361   -2.66369209479662
C         2.28427612583159    3.15643736825687   -1.12858324187730
C         1.76256986247118    2.36914780719013   -2.20595525209423
C         1.17694235950542    3.58313978472015   -0.33097689279284
C         2.19127357460949    2.39598843979991    1.58355825661461
C         1.13916290339270    3.21746249583651    1.02872090522338
C         2.67911025281891    0.04548158208960    2.25496816338032
C         1.82745187893482    1.20489132331453    2.31445088583070
C         2.76349161795268   -2.31456209979466    1.61350582217664
C         2.07155410319681   -1.27969032441892    2.29166861042127
C         2.38041946168072   -3.37389890244732   -0.39944338162031
C         2.04549577700084   -3.36104342800385    1.02531186336246
C         0.88289969247211   -2.36377388282130   -2.05069212600915
C         1.17745968495994   -3.39832829592701   -1.12258918341128
C        -0.51065327589561   -2.12736019098948   -2.33627828965785
C         0.00846777595153    0.24716120451730   -2.83707209089016
C        -0.93402668599162   -0.83779369276194   -2.82899225930702
C         0.35753214915598    2.55969760409220   -2.19491090984491
C        -0.00015929794304    3.41965396987544   -1.11310581817358
C        -0.53261599554717    1.56643087764342   -2.61568894960721
C        -1.28398258675358    3.38685702226536   -0.54940784346491
C        -0.13922414529166    3.11873608114958    1.59030303823660
C        -1.33122588488543    3.42159214898307    0.85983795479913
C         0.45851409380273    1.02332041367309    2.72218899199862
C        -0.43508555894908    2.10298056614154    2.54184000823276
C         0.65149140643925   -1.45366472377473    2.50619583337132
C        -0.12029610453969   -0.29300458354978    2.86046831494921
C         0.66923830598242   -3.50150500976484    1.16246405188441
C         0.16818394516628   -3.78970338712612   -0.16311588406338
C        -0.05554980656571   -2.59961218209797    1.97955888062794
C        -1.48306200073716   -2.90646733916424   -1.67308417130258
C        -1.13193246597336   -3.56156286270663   -0.45228864116825
C        -2.82354165234221   -2.46537100520786   -1.48240861412053
C        -2.30748615932789   -0.54054163854554   -2.86512695769701
C        -3.28875843219603   -1.40634620654264   -2.24484003479868
C        -1.92944968183099    1.82465570886105   -2.34737059094131
C        -2.32696536844470    2.74747529168361   -1.29990817869352
C        -2.81557320599679    0.79869846739886   -2.71510358828185
C        -3.54729684573962    2.52567082463792   -0.60808363166638
C        -2.42485067068059    2.81000892438006    1.54338837446050
C        -1.86115763922937    1.95695315439737    2.56520048369230
C        -3.54477737264931    2.43249641008034    0.84336031600065
C        -1.53136352013997   -0.40881570761977    2.88930414201132
C        -2.41432419837782    0.71861105061741    2.78445652179398
C        -1.48159084407495   -2.55634771680616    1.73616906506363
C        -2.04237832250620   -3.12955707560951    0.57124259385794
C        -3.17065099793604   -2.55936956526657   -0.08691179789385
C        -2.21916695363640   -1.49891099355100    2.29236404214782
C        -4.24326589983871    1.20914714832028    1.20993739695028
C        -3.62158632006712    0.32396725365704    2.10162184539630
C        -3.97741541397032   -1.56373235964750    0.52383988892491
C        -3.48323101159082   -1.05591953142535    1.75731995200072
C        -4.35464559268678   -0.64154610870469   -1.73915079948449
C        -4.11357303010521    0.72799493760242   -2.13954028573458
C        -4.44928171271692    1.54964160128962   -1.07010105690335
C        -4.68005088907840   -0.66472376245824   -0.34481134320837
C        -4.84391064247888    0.69085747025761    0.04597830832382
