74
C74 Isomer 4395 Symmetry C1
C         4.97350854244836   -0.02215359047331   -0.35021129939873
C         4.34257262233433   -0.07297181783776   -1.63246685708107
C         3.53739633200933   -1.24055360568304   -1.71415625203973
C         4.45951340246111   -1.11067254847473    0.42314129039529
C         3.59899410607308   -1.87167477600411   -0.40963340108051
C         3.86323530256201   -0.59378817332630    1.60893781332314
C         4.50961958529541    1.16956578595537    0.26090391591225
C         3.92374945978758    0.84687212712121    1.52143358265173
C         3.73177833088869    1.20209720665972   -1.89998761345815
C         3.75871511198512    1.97074375934593   -0.67733761658594
C         2.58306551070718    1.20314951967467   -2.65957951070094
C         2.32381735172720   -1.22815542241077   -2.44412034500347
C         1.94136053919900   -0.01645941343401   -3.05168269439833
C         1.28610332318936   -2.15607271319060   -2.08518380318343
C         2.44899888034592   -2.50391505200852    0.10577855538936
C         1.45328276413235   -2.88153128862195   -0.86050720077690
C         2.72700957759202   -1.22800359858570    2.17188011988378
C         2.06248093541791   -2.30233730542536    1.47330740824306
C         1.95661095371850   -0.41270820176851    3.01941216257933
C         2.88801297577725    1.64450868545516    2.01747815758772
C         2.05729819474121    1.00687874685522    2.97491151469685
C         2.62971044987645    2.68887929933020   -0.24883432231582
C         2.30309075377738    2.66393326646015    1.16667121982130
C         1.55606680902030    2.16762960388686   -2.38613246348936
C         1.54397334238704    2.90574697874221   -1.19778060183728
C         0.55609572833964    0.28268975252922   -3.24211783009091
C         0.33753063333697    1.64921097179584   -2.92145149903023
C        -0.04860539695811   -1.96487829183099   -2.60296232770218
C        -0.46435985744013   -0.66478048926146   -3.07419971797559
C        -1.06483626334042   -2.82011139767552   -2.14169263574946
C         0.36045623583841   -3.59814901726145   -0.33847352024794
C        -0.80177976650943   -3.73035519838995   -1.10114441409632
C         0.75045943717817   -2.71035481990954    1.90965921876627
C        -0.00003532451931   -3.52369120672201    1.05362535857944
C         0.60668929904820   -0.75718961857990    3.37743122470808
C         0.01471482950230   -1.92725255529740    2.88676282061940
C         0.77518683525867    1.51833765936142    3.30364328769288
C        -0.13567025315153    0.43603518445175    3.57191418841395
C         1.04978940186234    3.15864768705021    1.53455086991361
C         0.29628090972218    2.62511047113107    2.64796601969993
C         0.25478309262669    3.39599992902213   -0.78258867513165
C         0.09667917049532    3.64589126024944    0.59171040850837
C        -0.92111339105571    2.12327728329804   -2.56863428486623
C        -0.93695368179977    3.15817954128297   -1.56710323980173
C        -1.81186345525857   -0.18062641520829   -2.92760135108968
C        -2.04268205705165    1.23969460384786   -2.80702984850783
C        -2.41261375360755   -2.36216073090158   -1.97443602849834
C        -2.80271559791871   -1.09352297278738   -2.39415161319586
C        -1.93961150584019   -3.76272261186033   -0.21394703005934
C        -1.44415704573731   -3.60068310649422    1.11808186656680
C        -2.93448964825174   -2.94133194037709   -0.73363548957556
C        -1.39950537632916   -1.90613273140657    2.85179275370915
C        -2.14032034844902   -2.75602914837207    1.96375153120110
C        -1.50691407857965    0.53004153703585    3.25381844322257
C        -2.13469946338074   -0.70018275486627    2.99146981986511
C        -1.10684163226889    2.75915086652021    2.39367408165273
C        -1.19518418550716    3.54847561979295    1.20513231009710
C        -2.04130990031443    1.73357738132669    2.64677576096494
C        -2.19675544781112    3.43011093689030   -0.98843521361406
C        -2.33071267568289    3.50025914300561    0.44985638373979
C        -3.30329741188722    1.69774873208228   -2.34687288627501
C        -3.35044270070317    2.80934888248659   -1.47620965938308
C        -3.97177301963327   -0.57274804829694   -1.75060516322539
C        -4.28284961795428    0.76452307373283   -1.86714789851845
C        -3.71162918951345   -2.13740366983112    0.15145516359937
C        -3.30357682432558   -2.04496773724035    1.51057420698583
C        -3.31036548505623   -0.77634465650938    2.16086018926281
C        -4.32004578345492   -1.00985337740758   -0.39735809023433
C        -3.25234646079086    1.67094698014601    1.84573391124059
C        -3.43555628245104    2.68515722579771    0.87314632650815
C        -4.17705085105404    2.43607568493845   -0.31800696887063
C        -4.75614291440988    1.21710282608061   -0.56146730104847
C        -3.89192535274879    0.37955839425350    1.60101670099097
C        -4.59689872991701    0.15631339613586    0.37562808114517
