68
C68 Isomer 2939 Symmetry C1
C        -4.23788803262756   -1.69203213059220    1.06634493651680
C        -4.48394153181100   -0.81869757487845   -0.02096977984113
C        -3.69840252067411   -1.24801105201552   -1.15084195723719
C        -3.26567025443459   -2.64536185127321    0.66641115925713
C        -2.96255306151329   -2.41097520380370   -0.71923395634375
C        -2.19192299672197   -2.61590755730647    1.59708393076590
C        -3.66895825203964   -0.91137681844550    2.13989781569511
C        -2.43566777231804   -1.50552868887152    2.49866399512301
C        -4.32796076056345    0.51855343349519    0.46740978931222
C        -3.69720586670182    0.45847360562904    1.79366838239453
C        -3.91892957274225    1.46490048798164   -0.42609353747979
C        -3.08820843453393   -0.29191295517079   -1.99233751211423
C        -3.44904703843891    1.06721637042260   -1.74405501617537
C        -1.78466193049291   -0.56550215500458   -2.56173764875467
C        -1.67850755999815   -2.65647952390613   -1.18617380377505
C        -1.18865460891090   -1.84013611680360   -2.28179122764352
C        -0.89697886762518   -2.92288339553991    1.16683173234809
C        -0.71374968345562   -3.19349182927361   -0.23718249437315
C         0.20698946035381   -2.44997095715370    1.95605686970046
C        -1.35647710146315   -0.70672174002573    2.88265332597068
C        -0.06351587911414   -1.35884860818051    2.85599341726054
C        -2.60118747704930    1.29703493861957    2.10515801391917
C        -1.46933690633224    0.72620149242597    2.79746643054720
C        -3.11093323427696    2.57537077110809    0.03113520265710
C        -2.40469370061792    2.47887879055314    1.27176806323964
C        -2.59224027978341    2.08330779020748   -2.16346136726620
C        -2.46141577602118    3.07205770504115   -1.10804715454763
C        -0.89266527511230    0.51303622224017   -2.93128345258791
C        -1.31062438418519    1.83900606392350   -2.69450630703202
C         0.53880334763879    0.33090611407358   -3.05582593863954
C         0.13828026756508   -2.04707030988104   -2.68266886348119
C         1.00376110705704   -0.98813415080649   -3.11132557002647
C         0.59444587047919   -3.36452274004532   -0.67613682038237
C         0.94296178173620   -2.98974883641823   -1.99179959886461
C         1.55450872709816   -2.65820898120405    1.47439163931068
C         1.73915153737640   -3.13361032238374    0.16369427808000
C         2.62856867254531   -1.89664785719827    2.01204509336608
C         1.01622595760281   -0.59778705900514    3.31928567971559
C         2.34036827157891   -0.97205947916528    3.02758744678131
C        -0.24571412557850    1.48198178487997    2.90904006519913
C         0.94486100367829    0.84239789440046    3.28709253840731
C        -1.16284228071327    3.13607787027679    1.31947280656714
C        -0.10334888049199    2.68426213879418    2.17113191375879
C        -1.12649931643293    3.51442676082270   -1.09372389542158
C        -0.39732466735328    2.80468793623156   -2.11847130558673
C        -0.53622674260735    3.68463327103404    0.15169748002192
C         1.47171053778854    1.36976445165981   -2.65749696796489
C         0.96794709431393    2.54924420111180   -1.99025308908764
C         2.80646901534595    1.00281277460005   -2.37879015183273
C         2.35664484209790   -1.34337086906830   -2.72454008886150
C         2.30426780210347   -2.55921770294314   -1.98876051453838
C         2.80953472313344   -2.63163019252858   -0.66605356975254
C         3.22947787886892   -0.36534742835784   -2.31709750303905
C         3.68442576143173   -1.34260497795149    1.18289858392170
C         3.71414713803869   -1.63791504721669   -0.19824135080226
C         4.02440367270036   -0.56022536942754   -1.10035286666374
C         3.10872333022986    0.21739594286534    2.79432764792109
C         2.24597604118663    1.32557774574212    2.88129405317495
C         3.95689407252280   -0.01179215185327    1.67762219583947
C         1.15026156669768    3.03920294254491    1.59354929920742
C         0.87105501194107    3.52033477856329    0.27068356177855
C         1.64894162883062    3.08365251174298   -0.81714202202788
C         2.35033926353382    2.35654787317637    1.90263044906927
C         3.53372755970852    1.67812313349396   -1.36346087095656
C         4.28835127421033    0.71474289436870   -0.59404595459132
C         4.14510071016966    1.04491502820247    0.78239715992819
C         2.92554701797907    2.57403784678865   -0.48132126741542
C         3.30708282519346    2.21796806667825    0.87283846835183
