72
C72 Isomer 8084 Symmetry C1
C         4.59565511444169   -0.75602151202958   -0.29587312603378
C         4.60955995649901    0.38458359355700   -1.04179312756752
C         4.56200053774869    1.51010883751489   -0.07554889242899
C         4.43232018469546   -0.40219463984968    1.13136317105411
C         4.22999505630282    0.98656185070211    1.23106406646599
C         3.57005677046659   -1.34441852707007    1.69626134638833
C         3.70642713891304   -1.81698018912668   -0.60285286256159
C         3.32590803965138   -2.33900045844576    0.67511415664879
C         2.70277140127993   -1.66487298967471   -1.59912189544449
C         3.59415358744394    0.58609891181076   -2.04370600053071
C         2.56675692853922   -0.38338987649515   -2.26181189224258
C         3.77347397059759    2.46881658018555   -0.63225313903747
C         3.22856639080223    1.94606821747234   -1.90408182117636
C         2.70693749315937    3.05740727749494    0.10041744104633
C         3.08564162387350    1.45704960866118    1.94084041908243
C         2.37596637900790    2.60732449440771    1.40874581887167
C         2.50435103884211   -0.94764896674631    2.54238396639802
C         2.32233364980468    0.47690000618724    2.69885850510734
C         1.39289101799065   -1.86953060138948    2.70605713861712
C         2.22060628803414   -3.12515858069890    0.77173313751116
C         1.34718678760192   -3.02617790148526    1.89929091987099
C         1.55864862796307   -2.53255135065613   -1.50403775702512
C         1.45931997269447   -3.41061910743225   -0.40279838495203
C         0.33692473934105   -2.20656076681980   -2.19704990997254
C         1.22249321208814    0.08299603853310   -2.57065825692865
C         0.12303202021138   -0.84801054942115   -2.63601516727670
C         1.91290990853767    2.35579794126426   -1.98013800863651
C         1.64248343855335    3.20049016416453   -0.83111136688062
C         0.89633725272448    1.47266519592617   -2.42628402102778
C         0.34479251890646    3.46162142083878   -0.44637157307605
C         1.04134412156577    2.91856352972169    1.83686009724319
C         0.09425361901973    3.55682366903374    0.96345102483608
C         1.07345201264994    0.88913627887233    3.19784532649862
C         0.49933976455013    2.13841502055873    2.88046533187688
C         0.12096086423680   -1.40048628434766    3.19687164481838
C        -0.00194759269095   -0.03403331921232    3.48178332297101
C        -1.08991723559592   -2.05742372009702    2.86344629439117
C         0.11703177091332   -3.63894588985987    1.49367303413395
C         0.21121942486486   -3.91645169907419    0.07267659154006
C        -1.08931193581781   -3.21373539021927    2.00582943696911
C        -0.78471011938995   -3.03536902439437   -1.93838652319103
C        -0.89203235412639   -3.83778327443003   -0.72948214940473
C        -2.06976684840925   -2.55137119991774   -2.19485024043320
C        -1.21835775860990   -0.33210810980277   -2.76701404953303
C        -2.30313610393869   -1.23114937406535   -2.57302562748901
C        -0.44176105437070    1.95250165322630   -2.25330905087323
C        -0.68142205726988    3.09903289183978   -1.39329227700979
C        -1.50998447190910    1.06991785268631   -2.57233697264587
C        -1.99044049870091    3.43891493097678   -1.02197023591468
C        -1.27123284050875    3.63215431780662    1.33274425408461
C        -2.25217802516323    3.75155326113427    0.35314632572121
C        -0.92089595885835    2.01213127607163    3.06900521904069
C        -1.23963252469935    0.64311809911630    3.35662603832075
C        -1.80816196505823    2.77139280532134    2.36944120327741
C        -2.29170660409776   -1.34836349357962    2.60504856605512
C        -2.39192406300745    0.04003563077411    2.79494749071064
C        -2.27508897701839   -3.19794795066172    1.19953715123431
C        -2.19560726650710   -3.61450587642221   -0.13899893177959
C        -2.95310784034236   -2.89826456503704   -1.07567624249677
C        -3.01467522819125   -2.02270958641176    1.54587346620622
C        -3.47370496698804   -0.82765241796641   -1.81980447933356
C        -3.70229297687039   -1.76686234212118   -0.74002261562811
C        -3.73323863471875   -1.26565319218884    0.60111211222896
C        -2.82752084169286    1.46242828902190   -2.18168998440754
C        -3.06187121728208    2.64350397641544   -1.48450276815554
C        -3.72775079166018    0.47809829738838   -1.61331066531355
C        -3.41493470771692    2.96696435840264    0.77168650426103
C        -3.07252686811979    2.21421035952251    1.92162157770576
C        -3.30329213613126    0.81594952398661    1.96990973303311
C        -3.92651864453140    0.16331303988256    0.82834194262283
C        -3.93052073287450    2.33343851914389   -0.34124428209842
C        -4.19293078164861    0.94786500752586   -0.32064947833623
