74
C74 Isomer 830 Symmetry C1
C         5.36175558969900   -1.15709437179773   -0.23702612538246
C         4.68000090382319   -2.34346727493361   -0.20284152113075
C         3.86726614451490   -2.39466951620966    1.00990199641000
C         5.00170264419345   -0.40289342381680    0.96672261581786
C         4.00243660359595   -1.14180371433240    1.70867805176307
C         4.61943706944702    0.85437402715746    0.52616514220836
C         4.87734237582803   -0.41019680155984   -1.40536872591794
C         4.52176160387769    0.84467631550598   -0.95427041835929
C         3.77235840852795   -2.41231675657707   -1.35952295666569
C         3.83866130932700   -1.17943975456762   -2.07377860587661
C         2.59306396910145   -2.79839738238724    0.61302755146944
C         2.53691495924236   -2.82654344983562   -0.85450458558172
C         1.45584986775649   -2.32965630226189    1.29424047602750
C         2.83499793983493   -0.48661977074454    2.18723146643600
C         1.58273663364610   -1.19995511046751    2.15151813586200
C         3.66500482659145    1.60348102725598    1.24622124205508
C         2.74011214730141    0.95601323022061    2.12306443316844
C         3.25626123681156    2.76398226728382    0.55369314208016
C         3.46736462939132    1.57631187084950   -1.57933536400926
C         3.10112639593277    2.72789179230899   -0.89190300251282
C         2.63199478727483   -0.54386871653768   -2.47896776551308
C         2.48858429597442    0.89162445378383   -2.39398188698645
C         1.35841549838736   -2.39815664413619   -1.47327799425316
C         1.41297482013458   -1.29823452406068   -2.37556298474205
C         0.20031419079269   -2.60042977931575    0.66246768521801
C         0.14932917319694   -2.64171579628445   -0.74754464730446
C        -0.98992901332378   -2.31084816551597    1.36962920745658
C         0.35991760341765   -0.56152411010374    2.51761664273861
C        -0.85374520670846   -1.31432392005684    2.38633943390706
C         1.48026938950377    1.61515833354380    2.39688739651745
C         0.29926608941002    0.85517560634462    2.65690811430492
C         2.20870953795137    3.51957315835564    1.05695184620708
C         1.27695326887373    2.94753758602162    1.95516870227607
C         1.91307128163455    3.44387908930449   -1.22285939310189
C         1.47673023917101    4.10848725730430   -0.04938869568100
C         1.21408740223624    1.51034145900895   -2.60656704346098
C         0.96427295548041    2.85503103261735   -2.10224494881366
C         0.17013762479637   -0.70933991349263   -2.72763034630640
C         0.07972762208364    0.69403193763829   -2.94706236276542
C        -1.07709503529233   -2.40903910943921   -1.40303912303632
C        -1.01894951280320   -1.49593398535561   -2.50474720546041
C        -2.25392419313694   -2.61518245337297    0.75410109976553
C        -2.30012934101110   -2.68259237840346   -0.69042697267767
C        -3.42730919098756   -2.21801354433579    1.46505960836631
C        -2.04405269573649   -0.70005753290409    2.81812441396711
C        -3.28107645588655   -1.24455360398786    2.47574571510366
C        -0.99673462123133    1.49031489017957    2.55407554213140
C        -2.13396314421790    0.73086229376512    2.74139015884660
C        -0.03004361753078    3.43373143554804    1.55643557913901
C         0.12861488128676    4.14442531829796    0.30563909812940
C        -1.18393240541702    2.70731248286904    1.80297444138816
C        -0.36993251001881    3.27737487935519   -1.90812739700748
C        -0.80481776746073    3.90234082820372   -0.69296501464881
C        -1.24605651013032    1.26659071314014   -2.99376394909691
C        -1.47148421971212    2.51567780550115   -2.38762576536495
C        -2.24372608664084   -0.98056862429760   -2.95467758856830
C        -2.37949324529668    0.45116189166216   -3.07343850274762
C        -3.51305552473598   -2.37100520884981   -1.36448429493420
C        -3.44704357940121   -1.52095589489486   -2.49314316132974
C        -4.61962537315440   -1.85818314955265    0.74584157763433
C        -4.66323581430202   -1.93538399579793   -0.61610723146165
C        -4.18515433067581   -0.12658488765613    2.17954187799264
C        -3.41254405806819    1.05921148041915    2.14951653772833
C        -4.99872780543937   -0.47611808619311    1.12770892256354
C        -2.32861563929177    2.80006054531402    0.89935771954784
C        -2.07669491983267    3.37084387806617   -0.35500487218859
C        -2.58107087405874    2.68148027477129   -1.51003303769765
C        -3.45562271836136    1.90646467056972    1.01779606006913
C        -3.63290550534879    0.80557150933369   -2.47539629053731
C        -4.36296708373637   -0.39877220637487   -2.28278825850246
C        -5.08056371777111   -0.61007089866592   -1.13294147427818
C        -5.05878247873899    0.33170590753538   -0.04563481126180
C        -3.65232188677158    1.78368390039098   -1.44136404800287
C        -4.24119983781906    1.49912560964961   -0.14239326112870
