76
C76 Isomer 9383 Symmetry C1
C        -4.69892180384707   -1.43515133212868    0.02190798998847
C        -4.37900183664276   -1.13363769297791   -1.27692138459759
C        -4.34388703557796    0.32533644478813   -1.43936777622972
C        -4.87207506814026   -0.13758119529174    0.72251008789766
C        -4.50892889844403    0.92712998676397   -0.16622591937445
C        -4.22250638779761   -0.24784660886358    1.92209658324517
C        -3.81929256777183   -2.26714794324516    0.78871795425546
C        -3.63034402078416   -1.59221642638173    2.02173635511658
C        -2.68713002350136   -2.87343985193476    0.18167397764761
C        -3.22608633688158   -1.68744307858792   -1.90786767521035
C        -2.43057018972324   -2.63028573003046   -1.22042809291156
C        -3.24545015385116    0.61378578359430   -2.24720802773479
C        -2.58287558388406   -0.61502743534422   -2.60474586237148
C        -2.48477894842132    1.77660256022426   -2.02851444430181
C        -3.56796772045756    1.91328109086829    0.23248516181964
C        -2.77574648021416    2.50081911778174   -0.82015217960176
C        -3.24051827886287    0.70098997115652    2.33271108135205
C        -2.93830349513441    1.82101630324566    1.53305166521205
C        -2.37632188824948   -1.44981442554400    2.60640414515439
C        -2.15726322529630   -0.05051875674277    2.87901632121726
C        -1.52894267079398   -3.06997949439187    1.02400295178587
C        -1.30237090917650   -2.28028861525775    2.19800073000171
C        -0.37864603422061   -3.58968778725490    0.42370576539652
C        -1.11366766392100   -2.81989845987815   -1.76063441470516
C        -0.21425574553184   -3.57814111938753   -0.99933978480319
C        -1.21689988704733   -0.62803079406356   -2.91221561881261
C        -0.54366681732193   -1.87391861233429   -2.68637369121397
C        -1.17002178118443    1.81770077002398   -2.61698331788677
C        -0.49599233461613    0.61006463280608   -3.00541165578741
C        -0.37559220538234    2.93900787923211   -2.32074636113112
C        -1.82884569706636    3.45402314873229   -0.42292952775167
C        -0.80846520026750    3.82575860805320   -1.31448172482331
C        -1.64817985948176    2.43955001028054    1.78029481712404
C        -1.25920268875015    3.44769061995059    0.89648556366612
C        -0.85685552906672    0.43849054290700    2.96241565112170
C        -0.61258051278326    1.78831877502317    2.54947588954501
C         0.01407641464188   -1.89290196864452    2.58508365485700
C         0.19714139507943   -0.54211559535036    3.05662436893702
C         0.90286504555798   -3.51190702073935    1.02734232420738
C         1.15242561446557   -2.61263971320503    2.08491201285766
C         1.18011720757695   -3.63139082739386   -1.27604180145092
C         1.88097789007137   -3.71423409890795   -0.01408613626639
C         0.83757633804203   -1.88512926938249   -2.90375154344453
C         1.70446612135577   -2.84047602323421   -2.28386827036918
C         0.94759280743991    0.57857004581616   -3.02269314215776
C         1.57073549604617   -0.67339549217655   -3.05798147556353
C         1.06959933037046    2.88109262911990   -2.28782623020727
C         1.74992962904387    1.69780535046971   -2.56596341230440
C         0.34748375100569    4.21841234561798   -0.55123564172678
C         0.10907892007357    3.89161317878017    0.79717354414059
C         1.49838569579843    3.74387978103622   -1.21664066852332
C         0.74895204424392    2.24026352471780    2.48234730546721
C         1.13382046030953    3.29927505081965    1.57370651604475
C         1.48784083847595   -0.03818518683839    3.14064901816168
C         1.75134579812421    1.34497774750041    2.90425195743293
C         2.49646487488708   -2.09924048838846    2.23507122452000
C         2.64834931796285   -0.82118282564974    2.81611196973121
C         3.15254276324952   -3.22791774258716    0.10802071982851
C         3.51164618194688   -2.50032122236509    1.31371692461711
C         3.00327280064832   -2.24831728548085   -2.13900815451527
C         2.91939048546547   -0.89293842049824   -2.58168982954874
C         3.78552577174688   -2.57456964135415   -1.02555176417860
C         3.04808838225804    1.46407312026008   -1.93864528277000
C         3.64547346980262    0.14491709134061   -1.96227406985673
C         2.57059841533487    3.36331569153975   -0.43777403042019
C         2.42207805876054    3.24770803994160    0.98621358490468
C         3.43893617100137    2.32553980337231   -0.89970539067869
C         3.10439055033925    1.41941274020353    2.43387790282160
C         3.66887811637285    0.09221985885304    2.42141973980211
C         3.40778137598473    2.30646903923928    1.41854069394058
C         4.12916971905570    1.82562251606763    0.26194513369787
C         4.52188782203246   -1.59725879031248    0.94951019328397
C         4.62147274250228   -1.57589709072788   -0.50622483492280
C         4.56310159751629   -0.23668401755133   -0.93436143307506
C         4.56911520690841   -0.27085734939037    1.41791101935403
C         4.69958085859595    0.58188162969178    0.25374807107365
