78
C78 Isomer 23355 Symmetry C1
C         3.93256997640767   -1.01293505930819    1.80839647004216
C         4.19009856935813   -0.23061474725385    0.67753661927904
C         4.04123176688016   -1.11547378178433   -0.46152885376727
C         3.44112158913156   -2.31358300295057    1.36723120582231
C         3.43873002591482   -2.36954105771916   -0.02752853221101
C         2.29389388257431   -2.63935955298766    2.10154687197510
C         3.07943510799725   -0.57709527293765    2.83841010783285
C         2.06278932702621   -1.57168685266694    3.05266156240252
C         2.69997610087856    0.75733706343274    2.83866775313149
C         3.74289568501622    1.13102104444922    0.61273953474020
C         3.09986183603008    1.61827784879256    1.76880690596943
C         3.35927567265401    1.69406141379984   -0.66934782375337
C         3.68438237547677   -0.57433766614900   -1.65617148846554
C         3.44562159010457    0.84113925223639   -1.78882170769710
C         2.80125316671793   -1.30283283668688   -2.53491192671060
C         2.35765710733798   -2.95788589922627   -0.73594980195937
C         2.16070409361313   -2.48806655436185   -2.08822124701698
C         1.22863797624957   -3.28400414031678    1.43274491765698
C         1.23778672775108   -3.47952248016197    0.00866724287224
C        -0.00685147683898   -3.15765895627308    2.08942978559285
C         0.75479601030358   -1.19757280843603    3.39888987090195
C        -0.22987952020477   -2.14158468169539    3.06004865793396
C         1.37575909108492    1.13125240761424    3.24039078033879
C         0.36025227706723    0.20006774234931    3.49005313231924
C         2.11765880433256    2.66245539849999    1.68168758588758
C         1.08203606368803    2.37774927723164    2.61624998810629
C         2.43638211248864    2.81116307119769   -0.74378694977332
C         1.84042823357309    3.32744864855020    0.47815888117935
C         1.69000092603259    2.99085534691215   -1.92503473509961
C         2.54658607211427    0.95431767985696   -2.88261878679283
C         2.10853546086548   -0.34650882239624   -3.31166013331186
C         1.66429088700328    2.00005661539438   -2.94627920884185
C         0.78368610706926   -0.55242235199516   -3.76117987924951
C         0.96651988717476   -2.79927523071352   -2.73610238580355
C         0.34470670614129   -1.87897970773688   -3.63929441238850
C        -0.03658340308195   -3.70491542903018   -0.65320093149906
C        -0.08441117622149   -3.51020976040220   -2.04490742369865
C        -1.24557868424557   -3.42396758353359    1.44489800108138
C        -1.30533171454566   -3.64580585182779    0.06714348891167
C        -1.61232949909543   -1.79832307584586    3.06213712307340
C        -2.26214871117537   -2.71067935016524    2.17490058025753
C        -1.01762633848933    0.59638202395211    3.27931894558803
C        -2.02561774737591   -0.44609486286965    3.19791605390993
C        -0.23962077853413    2.80965864370033    2.44047660755358
C        -1.31584727996689    1.90718735286815    2.77093639408831
C         0.61284271937790    4.02462267035557    0.45262232133033
C        -0.38491384315197    3.82135718976402    1.45550420751463
C         0.38452311820984    3.59137071207193   -1.93396077986383
C        -0.08414801515208    4.23499716947012   -0.80430089275260
C         0.30178372113260    1.79359654542885   -3.36907942361661
C        -0.19212249166973    0.52846651709539   -3.68231323264180
C        -0.49751549983537    2.78624209149934   -2.73271683899519
C        -1.58334675228230    0.25644638130152   -3.34232310581701
C        -1.04852093263530   -2.12565673251229   -3.60960635744849
C        -1.30098048726834   -3.17057607365871   -2.68672877448094
C        -1.98274974626992   -1.09032712979079   -3.37068781811849
C        -2.53362324450584   -3.20791918841598   -0.60059091494142
C        -2.47686730828274   -2.86531826933692   -1.96026271208835
C        -2.94856800822035   -1.59717443000245   -2.43283113584503
C        -3.44005254918186   -2.35223695012665    1.55037514991804
C        -3.54000255759078   -2.52479793356154    0.11540972141077
C        -3.29653242488858   -0.15337003927302    2.64065814751017
C        -4.02060622485706   -1.12756605086724    1.91620672393985
C        -2.57679621017702    2.12010857736456    2.08118309242178
C        -3.49719015510674    1.09239221480659    1.96812085123192
C        -1.65516649434345    4.00774971400596    0.84222664318512
C        -1.46652499534156    4.20499667017121   -0.57528719532919
C        -2.67157585706867    3.09194060226301    1.03979674915027
C        -1.82953914323704    2.51005316241558   -2.33001096441668
C        -2.36024175724559    1.18178636216084   -2.54278850498877
C        -2.31502186745324    3.30316655665666   -1.26165993415157
C        -3.16559749222108    2.70959769652070   -0.28159370801518
C        -3.66214000143148   -0.73007043169180   -1.60086821991588
C        -4.14730924516482   -1.34228318546812   -0.40988564949135
C        -4.50081683646480   -0.51823964720908    0.69902974007191
C        -4.17536341640112    0.82425064540754    0.70522591210146
C        -3.39365818761037    0.68740668803743   -1.66519748082879
C        -3.74339269994463    1.47049444171179   -0.49816445644727
