54
C54 Isomer 34 Symmetry C1
C         4.69554160226411    0.10953558548939    0.05201292319298
C         4.31313786616810   -0.86715114175755   -0.87116365105824
C         3.46892153158186   -1.82764459410915   -0.23385737723565
C         4.04001200618880   -0.24950940799629    1.32667613705769
C         3.21356260249980   -1.42664561597818    1.12418055007297
C         3.40613428633895    0.88666037848159    1.79241200207282
C         4.12464412787700    1.35014121495698   -0.39217926459814
C         3.48834092302585    1.91927560181427    0.72154194155547
C         3.49763771659963   -0.25740238156381   -1.91928141077533
C         3.30047710015477    1.09986917943828   -1.60015149403533
C         2.36705470888904   -2.09566668118784   -1.10270072006442
C         2.35545858527077   -1.07866386596865   -2.12980604213238
C         1.16772099877449   -2.53297517934093   -0.54929961126610
C         1.88103605037768   -1.48035647181629    1.60225323054876
C         0.94706485538275   -2.32524900886908    0.86691277994125
C         2.06253466974395    0.85960998175659    2.23614751555059
C         1.29262157042839   -0.32792334578572    2.26339818694696
C         2.22761755198519    2.48308695925981    0.60725512733920
C         1.39401576570575    2.01368375009718    1.70384594784880
C         1.99761531090474    1.66476468814652   -1.72956479922461
C         1.58469975691363    2.57114418464983   -0.67928400395606
C         1.12446124849794   -0.49718737688379   -2.49717530793125
C         0.92197784822918    0.91381621136887   -2.35739801025744
C         0.03972246162714   -2.40213629158086   -1.40046409436194
C        -0.00042602737961   -1.34868496987806   -2.32624755555824
C        -1.30133685283299   -2.64088163065820   -0.93725101925840
C        -0.36868256746568   -2.36850671370361    1.29607545639803
C        -1.47420809223348   -2.76953658974927    0.43629007899868
C        -0.14064705217888   -0.16933485225558    2.37097105350394
C        -0.89821319404330   -1.36015040268306    2.19113896346835
C         0.01604919886714    2.14397386748268    1.68714253110161
C        -0.83303885048366    1.07743582095621    2.17600394386282
C         0.26479421682156    2.94775475645971   -0.61871096674882
C        -0.46993689994215    2.98416745190185    0.63838503361864
C        -0.45514591077945    1.39259776394928   -2.33886826771208
C        -0.68477956285452    2.58591303803943   -1.63730148296874
C        -1.36512452031430   -0.89623495255634   -2.43501670591046
C        -2.19986518109281   -1.82248319162545   -1.71148102654651
C        -1.61888125547571    0.48474940775970   -2.50074706799465
C        -3.41062044493627   -1.38590154631483   -1.15211322464244
C        -2.66933015641261   -2.24989436280996    1.01241859377406
C        -2.28185275234246   -1.31643384497370    2.06645189140575
C        -3.65203436348148   -1.64841739925564    0.24983723445849
C        -2.27016251314618    1.12664725823311    1.89640582981252
C        -3.00870619493303   -0.10299023748783    1.90261908773715
C        -4.00331743588892   -0.38357395391631    0.90023158960213
C        -1.81629615138095    3.00955099139730    0.35675422174637
C        -1.97145511662653    2.88726147873243   -1.08870159779249
C        -2.76305479475909    2.14624011778876    1.00433597346421
C        -2.93200698714587    0.87869999240961   -2.04708915465232
C        -3.78779707970356   -0.05067779176354   -1.40626939974913
C        -4.22789793073538    0.53791095402327   -0.11780214752534
C        -3.07181508972227    2.10801781801825   -1.31651703125477
C        -3.70722158282710    1.82070534985863   -0.01525538986893
