78
C78 Isomer 15454 Symmetry C1
C         4.30124027764064   -1.94494917817579   -1.13519919513573
C         4.16215452777237   -1.07670182919743   -2.19694643969891
C         4.64813993385572    0.23226138176928   -1.77217862769902
C         4.84774686181445   -1.18971789538853   -0.00260838899410
C         4.95580849175252    0.17725570239550   -0.37452037979540
C         4.10990164877233   -1.57525959737478    1.12235532661254
C         3.19739969616473   -2.72174674709084   -0.69892871274409
C         3.13349180168625   -2.57210466968174    0.73069752140389
C         1.99761285065292   -2.74110793692944   -1.44795580948147
C         2.89318904681698   -0.91917900437918   -2.83036287739573
C         1.82722358478878   -1.78128050165788   -2.51304359795952
C         3.74327026974766    1.17170367950721   -2.26540175951200
C         2.65421593036889    0.48758480611843   -2.94741814510276
C         3.41875772008012    2.27643240052538   -1.47920987224991
C         4.43914108704114    1.19297489608927    0.50436397092020
C         3.79385569998582    2.30795538056095   -0.09981131058262
C         3.70300011387834   -0.60856679508407    2.04448156412656
C         3.90191671167487    0.77526326769341    1.75659418649030
C         2.45112408614776   -0.75074328534435    2.71734631838196
C         1.91558054405755   -2.69696123622627    1.38606518294829
C         1.54982342136902   -1.77469054996006    2.43891526873671
C         0.84329424318445   -3.25042834711200   -0.77911779726059
C         0.87580015518698   -3.34400306133761    0.64346320468319
C        -0.42635045386381   -3.19009810958069   -1.44941172917189
C         0.50252015224724   -1.31128642317221   -2.80082835479911
C        -0.59498995486837   -2.16465485805884   -2.44868924245362
C         1.35884388408631    1.00547616547079   -2.95466162415536
C         0.27378698881880    0.07157745168199   -3.07439144525453
C         2.14683829100630    2.89398180630773   -1.62913626234797
C         1.10918218779808    2.30984123365596   -2.37763434450932
C         2.78524407240016    3.07134603166898    0.58028457906748
C         1.83996935123513    3.52656094331166   -0.37985807929852
C         2.82717558457053    1.48950187445308    2.39907115499475
C         1.94402140544326    0.55962313879021    3.00295708982339
C         2.31707121619852    2.69240262543350    1.85840207398940
C         0.55737957254964    0.80163980798197    3.16345117088676
C         0.14850618618723   -1.57476961490367    2.76583270925487
C        -0.39893742273532   -0.26325547957549    3.05865785070742
C        -0.32827261439534   -3.51661213218117    1.33576794043748
C        -0.71688178934678   -2.58030062571452    2.37388647983932
C        -1.56972203197877   -3.64724438944342   -0.75758771498475
C        -1.47454913300793   -3.87050482526841    0.63727105514842
C        -2.88145785651910   -3.09379214726370   -0.99342018400904
C        -1.88566261214405   -1.68516118517495   -2.70876412676594
C        -3.03876648439300   -2.15997741107857   -1.99113616799144
C        -1.05411529066862    0.60296088622524   -3.09076830628768
C        -2.10947308348219   -0.32178901689024   -3.05555786067630
C        -0.23612099344729    2.75646848124772   -2.14913524532117
C        -1.30882881588703    1.97642299076705   -2.70950893028092
C         0.52301205847235    3.86461166510724   -0.05883942716373
C        -0.49188858320092    3.66757386085759   -1.06603181864628
C         0.98929585192908    3.02651980718558    2.19007316000436
C         0.13256374716448    2.11193255552445    2.90306576571168
C         0.16484573439944    3.76333201514543    1.30504294608206
C        -1.22042731434382    2.38218859569454    2.58343598051717
C        -1.19767130460213    3.49616202573608    1.66749854633004
C        -1.77987430433589    0.02014191118003    2.78039192141908
C        -2.19501632952478    1.37859592625708    2.49402691146801
C        -2.13204518611472   -2.36429367746169    2.26752135696669
C        -2.61710421828533   -3.25544217301077    1.28385699747455
C        -3.51490727360958   -2.83992452273073    0.29368095329932
C        -2.66191444222435   -1.05461418401929    2.37815275556525
C        -4.19350918244059   -1.64245486188828    0.51143431093055
C        -3.79822702658079   -0.77385365134149    1.57680918069976
C        -3.96277846721011   -1.06280061571322   -1.84009097868782
C        -3.42558819134999    0.03832542683597   -2.60058238849189
C        -4.55706990419579   -0.81659603999885   -0.60977614250087
C        -2.64135554156941    2.32806267333809   -2.38355096999021
C        -3.68964216031474    1.33771442753108   -2.25175116298934
C        -1.82547642765419    3.84496709390571   -0.64386733893705
C        -2.18793751839128    3.66528507832711    0.75355615407474
C        -2.86626198839700    3.28745160656938   -1.37913704532632
C        -3.35783105664270    1.65951308942829    1.66068423724684
C        -4.11949471078274    0.57404121124035    1.18673104292012
C        -4.65899375503560    0.53610958110065   -0.13934819174989
C        -4.41049423669521    1.59344465543690   -1.01663417059819
C        -3.36183825622247    2.82595742810811    0.83457640771856
C        -3.88446907248512    2.76870099324518   -0.46860110988070
