78
C78 Isomer 23251 Symmetry C1
C         4.47856455918303   -0.82738093801133    1.08287123503677
C         4.17573740394983    0.47047455702096    1.50141463995454
C         4.30403183398736    1.28627385353368    0.30497249662676
C         4.60855300505358   -0.84476225384754   -0.37405609546111
C         4.38251760241030    0.43970981771940   -0.87143182386953
C         3.90939019464953   -1.97249848574561   -0.84963997481081
C         3.69948293668678   -1.94242094586835    1.45434274584090
C         3.31259291433233   -2.67681683551989    0.25895441081388
C         2.76970517978280   -1.73283159084026    2.45910641584132
C         3.09520110345077    0.72284382518365    2.40956165143831
C         2.47408831075610   -0.41619855204246    2.93852141718838
C         2.29536988406220    1.92194398811989    2.29270259966159
C         3.61668586581614    2.43910752455948    0.22920903664215
C         2.77108265015385    2.86611815040270    1.34013292886052
C         2.96692830750873    2.82745378479860   -1.01944663124679
C         3.47530822692733    0.66038997368549   -1.96090566753233
C         2.65833340319911    1.85663645796788   -2.01097350445957
C         3.16873015744863   -1.80351873946915   -2.01071988145832
C         2.96918590016893   -0.49285554561591   -2.57001236572219
C         1.98363290022983   -2.56603039650498   -2.19121503039178
C         2.04792350922139   -3.27098407762592    0.14664304268714
C         1.38757565751785   -3.29839587085102   -1.15104569126861
C         1.56335088592529   -2.49125396544231    2.44572478097481
C         1.21683433917705   -3.29639869875202    1.33728595259114
C         1.08813475074736   -0.39203923457582    3.30307812236165
C         0.57721693092502   -1.71825916853430    3.11595297212543
C         0.88523237065139    1.93928888752543    2.63409199961840
C         0.26529449683597    0.72635466692028    3.13818635974422
C         0.01114978540995    2.93278708179016    2.06830835326967
C         1.90857470224450    3.80453049430149    0.80300145249147
C         2.02448795593500    3.77530706558200   -0.66510533829802
C         0.55674998140583    3.85953264486841    1.14174371578788
C         0.74033994338546    3.80260768842541   -1.21253046367456
C        -0.12722890143274    4.11915195105802   -0.10246530214097
C         1.32390736816622    1.85407055409925   -2.57802874412196
C         0.34469941843960    2.83458058561091   -2.17211754592353
C         1.68558090295229   -0.47673817033995   -3.20326871122004
C         1.17344223797146   -1.81020188777098   -3.10645279388822
C         0.82659685742873    0.63503460221895   -3.18451085080962
C        -0.16572385959666   -2.03255723807930   -3.18948346380951
C        -0.04312435386795   -3.53200727151961   -1.24301624963389
C        -0.79413391903945   -2.98096511211548   -2.30900388844088
C        -0.15384700110247   -3.57386564730542    1.21779229013880
C        -0.78841514113506   -3.76016385793997   -0.07121460815635
C        -0.78147868254548   -1.95262728619208    2.95495240135718
C        -1.11217244939199   -3.03516380167590    2.10284954427945
C        -1.17522561292240    0.50713205249222    3.10653902535190
C        -1.68184054658901   -0.84355095515873    3.12215187365129
C        -1.41867048485372    2.71522582870815    2.00286602421621
C        -2.02386485232803    1.56413322702773    2.63113222310471
C        -1.43912677346634    3.82117758623297   -0.19258209952768
C        -2.13949175013556    3.32370547607467    0.95364573725792
C        -1.08236080330826    2.57885502621078   -2.28758009990475
C        -1.96182855042852    3.22361087559653   -1.38926912593575
C        -0.59733084098544    0.39339029779014   -3.34105274204890
C        -1.04401234550705   -0.94055442142043   -3.43783638401195
C        -1.56416824092494    1.37095408020300   -2.90650806738210
C        -2.14958497939252   -2.58254176190411   -2.17362316908776
C        -2.31410369684116   -1.36879048032987   -2.93972529160471
C        -2.15948030538364   -3.42393004580402    0.04326147608960
C        -2.37359340010441   -3.04967952701965    1.42023667811620
C        -2.87947703957436   -2.76115759324037   -0.98079324605782
C        -3.01501427733837   -1.09649022093291    2.72165414144226
C        -3.33490806140216   -2.15621182444529    1.77137775827979
C        -3.37770561657625    1.27479745819935    2.30413072094181
C        -3.85774678461972   -0.03761931299394    2.41768080587594
C        -3.35432300909616    2.78745814131222    0.42871908960258
C        -3.22828178692309    2.69488903040218   -1.01396143426056
C        -4.02983835420739    1.83062949225357    1.13416217010888
C        -2.88785508066214    0.94721484240437   -2.63455872289163
C        -3.24293280306422   -0.44001714271678   -2.57181015745147
C        -3.72529147289911    1.58893447135351   -1.66822647146996
C        -3.92830768828721   -1.81333095112444   -0.62617126733686
C        -4.22731460479610   -1.62212904148263    0.75689378217724
C        -4.64756675905288   -0.37481504381682    1.23079940324473
C        -4.71480579626900    0.76970264863476    0.42149834542414
C        -4.13507081620430   -0.68574565601129   -1.46052421720789
C        -4.49096699184224    0.59849086029859   -0.95028269769918
