64
C64 Isomer 1921 Symmetry C1
C        -3.35332337707274   -2.50913706682334    1.10586632119272
C        -2.36294590731215   -3.15298045891161    0.35594543075431
C        -2.38893850770317   -2.66576496725368   -1.00058370711393
C        -3.90130845422977   -1.47914369971024    0.27736451456167
C        -3.33097464579734   -1.58089554453824   -1.04269620570114
C        -3.72193097891890   -0.25130814766960    0.94090367536064
C        -2.65836388414468   -1.87132225815364    2.20526471989967
C        -2.91740492066707   -0.50433736648733    2.14649413772890
C        -1.10956983005701   -3.14038689169216    1.06406165990292
C        -1.28357782787365   -2.29651826873026    2.21636847238535
C         0.09567955687789   -3.18870468988325    0.35996749534327
C        -1.19076918073318   -2.65377601186209   -1.72034877498502
C         0.03716908190137   -3.12513912224461   -1.08739402642705
C        -1.09069953146119   -1.64641373335673   -2.70989072628140
C        -3.04629102941025   -0.40961624644814   -1.78408359219474
C        -1.98246156675483   -0.53726991307546   -2.71075122699797
C        -3.57344824949876    0.95264439866888    0.22084411574324
C        -3.32512210237785    0.90098705719243   -1.20986784880450
C        -3.03846161740131    2.02123802456509    0.99190358892554
C        -1.91233391959040    0.42102313039159    2.53720143255899
C        -2.11001866659073    1.72487721861896    2.09243887002638
C        -0.25313895273874   -1.41773950863773    2.58233926891510
C        -0.56671030032520   -0.03347318690618    2.83438799079279
C         1.27111758257272   -2.74268442386175    1.07940898523538
C         1.08237677685379   -1.81796152961866    2.17882474102053
C         2.49255079320402   -2.70721190740532    0.38385793458581
C         1.24270662749364   -2.86576767375444   -1.74528685695961
C         2.45113717211198   -2.82494656761831   -1.02766234263391
C         0.19528332002975   -1.18467381133304   -3.15172536408311
C         1.33890868748017   -1.82705095685743   -2.76032062251423
C        -1.21185920474139    0.60844839696236   -3.11451938420795
C         0.16761621341715    0.24421749837435   -3.27055556921646
C        -2.69394079222778    2.02818201472087   -1.79364014561684
C        -1.55256644126580    1.85371717371479   -2.67504392017383
C        -2.57373545885805    3.17622926963636    0.36223271212903
C        -2.40394757119919    3.18038064378119   -1.02950619579233
C        -1.02305331424245    2.64138027550804    2.00253022947401
C        -1.30519010804505    3.56197635429786    0.97313181666635
C         0.49622023921370    0.91963134221750    2.80565370774599
C         0.30258887231832    2.23924160672450    2.25749766959997
C         2.12679984966160   -0.96001155904779    2.51428697665569
C         1.82438248990073    0.41619065285804    2.84341471241039
C         3.54988759562660   -1.77449192038862    0.71063025121378
C         3.40228726366146   -0.98098842869024    1.83658179098432
C         3.28661759751559   -1.78831553342144   -1.57282037116345
C         2.53083323690241   -1.06388304118764   -2.52735817350990
C         4.00724779999270   -1.16866971550600   -0.53277507931388
C         1.22558102429622    1.03771083139454   -2.79061779416321
C         2.47115074865506    0.36260216360258   -2.45063135235889
C        -0.48275609653866    2.73353708457091   -2.26244693558244
C        -1.03145213369169    3.58162636328086   -1.28769912946504
C        -0.35588311382751    3.76812476295028   -0.04984888154391
C         0.86416434663528    2.29609309721608   -2.16793268137141
C         1.33335620865775    2.81862996187438    1.42442810944598
C         0.97034956631050    3.31210916810889    0.11219914147100
C         1.63951718629578    2.76170043613581   -1.04444744955680
C         2.89459517967574    1.21612783268140    2.43191211415961
C         3.88766467083706    0.36266947055451    1.79995159763435
C         2.64163822748871    2.33012190616189    1.57958620844552
C         4.17578266931082    0.22069194687626   -0.62131951796851
C         3.34237105918726    0.97963306061095   -1.53476776450017
C         2.90674771719431    2.16875076627868   -0.83664688313463
C         4.25262036655069    0.95224434762286    0.59469424382535
C         3.47822795746572    2.17684589292129    0.44601388654170
