74
C74 Isomer 11669 Symmetry C1
C         4.45015697689265   -1.68236961820302   -0.18471805324283
C         4.34554951269135   -1.02351428511158   -1.39069806362501
C         4.59500786306062    0.39762634788004   -1.16052053112297
C         4.63244610762959   -0.68549590904736    0.86997487036061
C         4.76425241950033    0.58981372583246    0.24958279924086
C         3.62252259018859   -0.91712640247519    1.81103449471351
C         3.43077078284145   -2.59070736659033    0.19696570729980
C         2.98991475575842   -2.17408449342390    1.48375376487718
C         2.45565106958081   -2.99486486786112   -0.75935502075081
C         3.16686957340676   -1.16479184859058   -2.20361629072399
C         2.21833595622475   -2.18545113781814   -1.93664237866663
C         3.61135536673085    1.10668073991967   -1.84691544912683
C         2.75944733916745    0.15469578028280   -2.53935416479648
C         3.03037804464411    2.28552674918784   -1.30809487155710
C         4.08645798530773    1.64054101365017    0.83740356337030
C         3.42555100837461    2.60779031767408    0.00800117390366
C         2.80530415993649    0.12525430003308    2.34765069318190
C         3.20231329283283    1.42081419665242    1.96390220052122
C         1.41330921010935   -0.12595595145788    2.71403503529321
C         1.71367492721403   -2.47783168331517    1.95623012007674
C         0.89435517711403   -1.47357596071315    2.60705312487720
C         1.36410895614110   -3.63461988136640   -0.19114384649493
C         1.10654575633081   -3.52406786152264    1.21612053029620
C         0.09521729873547   -3.71703438612790   -0.86609419913672
C         0.87382315224461   -1.98538608302393   -2.39064925350825
C        -0.21650016536486   -2.81622119595935   -1.90498931619721
C         1.42804834374349    0.44735905405441   -2.82768907478229
C         0.55296282884240   -0.70083812784807   -2.95384233162541
C         1.71548619602348    2.67945766118994   -1.78146524100769
C         0.91211113457853    1.76738963059377   -2.56464187400716
C         1.04467745333453    3.68801697857132   -1.07901474558131
C         2.50226372493026    3.30271321825737    0.84722953550506
C         2.26449602114714    2.48922607067304    2.00365374988714
C         1.47649856461633    4.01213271960640    0.26642182894208
C         0.49609759229764    0.97243871468440    2.82730792686844
C         0.95931250374817    2.31265905928822    2.51442616538383
C        -0.93399762551995    0.72962951102184    2.88604263170082
C        -0.51430085875384   -1.70986292239594    2.70815118040903
C        -1.42475334234731   -0.61159350853835    2.87985898828387
C        -0.25151738665339   -3.78097806470009    1.40786726596950
C        -0.88198549176814   -4.00070633002093    0.10512948163035
C        -1.04708631232184   -2.92482906866991    2.15153086050730
C        -2.14843951573658   -3.42866615680817    0.11151360768581
C        -2.33155217590758   -2.92908449701531    1.46185578227896
C        -1.60256840759365   -2.42105410354397   -2.03145012868230
C        -2.59496361907240   -2.66564936057608   -1.00028012771943
C        -0.77223419917100   -0.42471496570141   -3.24559759411680
C        -1.84745732287368   -1.32055655073294   -2.88054795817211
C        -0.50190827022647    1.97786862526857   -2.67861371014541
C        -1.26130913203236    0.91689322803922   -3.21404240700826
C        -0.39168243974798    3.79885572339090   -1.09284434975278
C        -1.20912558761424    2.93229995829350   -1.85145989301951
C         0.33144796345383    4.20542514466913    1.06313314110404
C         0.03980384068611    3.31838931945138    2.11681273394270
C        -0.81244441740247    4.21856716078746    0.18749172068763
C        -1.84548807395358    1.79274111858097    2.50194057296910
C        -1.35999056745759    3.00769306405504    2.02819779947014
C        -1.88914647995901    3.58022914565806    0.82371908067754
C        -3.15495409063556    1.50474507816098    2.01380417868022
C        -2.80928005765715   -0.83517626974731    2.55723055646431
C        -3.20433480910448   -1.93423679439480    1.69753392761252
C        -3.64850731098102    0.20515408833550    2.17919852369128
C        -3.67511985690685   -1.72745219613593   -0.75053626683370
C        -4.03683518374731   -1.44486534297063    0.60726222343883
C        -4.42316102802181   -0.16353146623815    0.99412462250075
C        -3.00688540914666   -0.55624801105999   -2.76820262402749
C        -2.64459814872660    0.83366878296337   -2.95581760617644
C        -3.87753890118668   -0.65644446912284   -1.65895429985973
C        -2.54176322360582    2.65234306944004   -1.35867372861673
C        -2.84511169812891    2.90898130797976    0.03426237116134
C        -3.64124925099668    2.00986337000632    0.76263784976670
C        -4.37129365613799    0.94368102218874    0.11436414639595
C        -3.26495356990365    1.59599384592999   -1.96433168240446
C        -4.14348786369559    0.69842829657626   -1.22661344913881
