68
C68 Isomer 4361 Symmetry C2
C        -4.18713410436752   -2.07818230966467   -0.33655314190713
C        -3.53822968413812   -2.58143602387796    0.79605855182460
C        -2.42581087194725   -3.38424690535584    0.31962857753861
C        -3.32073048829077   -2.33730378893320   -1.50686018824179
C        -2.24242922838588   -3.11635744624891   -1.08155701823026
C        -3.06350515196592   -1.10387963377794   -2.15608067797400
C        -4.52837760272574   -0.73426897157782   -0.35665602355202
C        -3.95744222122752   -0.15405934245293   -1.58814473679195
C        -4.18785694505054    0.12179267134229    0.71056982135656
C        -3.03278781408924   -1.70457368727872    1.80092018117568
C        -3.33563782028162   -0.32581605025695    1.77607334403852
C        -1.35362343439397   -3.17825026038209    1.17672387242297
C        -1.66918291604417   -2.10389757127782    2.08468475784963
C        -0.05216616853793   -3.34287173174803    0.68932024671443
C        -0.93657149763678   -2.83251685915858   -1.55228276893762
C         0.11429610446426   -3.33944279164434   -0.73079512662604
C        -1.72850475466123   -0.69182728298213   -2.48089377299124
C        -0.66529775313263   -1.63878468393381   -2.31451807901110
C        -1.41166795567338    0.72121132212557   -2.45365570821857
C        -3.54890145073026    1.13711169702682   -1.32650877167042
C        -3.87319696819310    1.38607873982949    0.07530679218554
C        -2.33350718897484    1.64649129322423   -1.85597538680080
C        -3.19953615056283    2.32576344600721    0.76605824116187
C        -2.33164020928859    0.58886728981359    2.30726996843213
C        -2.52757070379087    1.95761966479282    2.00366613421307
C        -0.64788702033416   -1.22051063311107    2.44216144298883
C        -0.98137376567623    0.17482499270885    2.61729617539654
C         1.00006392234724   -2.84301271296545    1.51337350084931
C         0.73190973671185   -1.65251557662187    2.28179059794848
C         2.30515609323305   -3.12794127430197    1.04114337743683
C         1.41618090950482   -3.17577882992853   -1.21735597448151
C         2.48785629099651   -3.38910771315316   -0.36137111635536
C         0.71563965349281   -1.20958607231935   -2.47263602395842
C         1.73457003311690   -2.09754275068117   -2.11969527082575
C        -0.03628918799050    1.13294581293102   -2.64142290636508
C         1.05280953249831    0.18572111164551   -2.64049815762039
C         0.24765530795217    2.50023187285413   -2.41445794371953
C        -1.88126942208469    2.88848296412137   -1.25686576034904
C        -2.36295463533158    3.26287091729257    0.04391150935129
C        -0.61739084053059    3.34387900380856   -1.61176556870734
C        -1.49164996729256    2.87520859484135    2.13924848002153
C        -1.46889991118746    3.77658491820877    0.98531660642160
C         0.11028029240006    1.11912013931126    2.62317804173864
C        -0.17000415910111    2.48830690203445    2.40325733715224
C         1.79760652925937   -0.70929272983224    2.45310460868683
C         1.48451154693598    0.70476817595081    2.43329207763131
C         3.38552412429476   -2.35387597328264    1.47045202462770
C         3.13149984188398   -1.12322747432330    2.12622999656575
C         3.60244007656883   -2.58683626743956   -0.83367865259624
C         3.09920339736914   -1.70331953523752   -1.83384210560641
C         4.25260307893075   -2.09107121834557    0.30158701545734
C         2.40419154324306    0.59462725285071   -2.32828666812373
C         3.40578847315206   -0.32553132545086   -1.80184422884881
C         1.57026032521654    2.88223627130722   -2.14833771161358
C         2.60381613237155    1.96123567350690   -2.01769796260442
C         0.21674272497822    4.07703163805522   -0.68193159396553
C        -0.13488317127712    4.07395938080588    0.67913695534995
C         0.69731749935742    3.33380655730022    1.60510005854316
C         1.54990609966226    3.77761069446712   -0.98967211364214
C         2.40895767861606    1.63059359045591    1.84044850655613
C         3.27673964018215    2.32117495269325   -0.77812781807993
C         1.96005038882573    2.87691919205259    1.24788243572583
C         2.44277760037228    3.25679982476100   -0.05101907318066
C         4.02798711446445   -0.17290295116081    1.56320543548916
C         4.59764130639265   -0.74823424996667    0.32866875807551
C         4.25916202583769    0.11430459612239   -0.73405159029937
C         3.62291194831076    1.12065777431792    1.30821668530844
C         3.94785419195306    1.37616370010645   -0.09224247433982
