52
C52 Isomer 213 Symmetry C1
C         3.99422472331628    0.04449323538896   -0.29133683921633
C         3.46155141045026    1.40940513344371   -0.22786143545711
C         3.04748439987104    1.63559223871074    1.08228142282772
C         3.60620126875444   -0.62453328426339    0.91707686052607
C         3.10646324522962    0.34042959523078    1.79420076811288
C         2.75159356137418   -1.75547793120590    0.59846527944850
C         3.29629694950306   -0.59496058295150   -1.32135768256372
C         2.62999986941478   -1.77922811530949   -0.82643454189258
C         2.52349793965598    1.61778222397714   -1.29179443602881
C         2.50460390082872    0.37222488009779   -2.03982889705987
C         1.31058601251513    2.32058977962669   -1.07664492778400
C         1.79337386935916    2.20663141023295    1.34336218522225
C         0.99456013387677    2.71501834592819    0.28540950165288
C         1.88978740996945    0.16638980071437    2.47506044235365
C         1.14788553199665    1.38600074145982    2.35164553982062
C         1.63004625414390   -2.06887546910625    1.41691822723321
C         1.19804752311684   -1.09976479807270    2.43688394346103
C         0.63126320321732   -2.85984282628954    0.80755850017615
C         1.44824181142286   -2.23042605062671   -1.45490836555509
C         0.55964541861038   -2.97696518945463   -0.63362878713869
C         1.34276741103171   -0.06155647649810   -2.63359263130694
C         0.86533161354731   -1.41446588708750   -2.46990241613316
C         0.19262434888154    2.03525933858311   -1.97923460243983
C         0.21664160154149    0.82604861999782   -2.72719591142963
C        -1.09907920067375    2.52497456076980   -1.65423002675310
C        -0.36455964501248    2.95247578262716    0.63593795962555
C        -1.32968007699239    3.09180629899889   -0.35516987810150
C        -0.23740682568769    1.42797965915478    2.57217151110221
C        -0.99407750039940    2.34828261362762    1.80976708530246
C        -0.14014846001115   -1.06122402510249    2.82269295269804
C        -0.85061979129947    0.20759137155728    2.98953181479629
C        -0.71756823852622   -2.90574138618283    1.31859826702622
C        -1.09849420085038   -2.03012165877203    2.34257648527112
C        -0.80174876418783   -3.07596782566764   -0.98465153640846
C        -1.60413890354757   -3.05961660884833    0.22475607268795
C        -0.54783304749625   -1.36555064901174   -2.65466776160134
C        -0.94110479924554    0.00096777774648   -2.87649158035550
C        -1.39603246471971   -2.21591011803426   -1.92590416438985
C        -2.26545955795092    1.77265759270246   -1.96271150156810
C        -2.18678756427243    0.45273336002123   -2.42780752079154
C        -2.58986441286577    2.59262810054797    0.16977254094829
C        -2.36605910700490    2.08876508507516    1.49062870228391
C        -3.14356821804217    1.77620173705115   -0.79812385008001
C        -2.19485885560014   -0.00729895924786    2.68170665168554
C        -2.35634771785553   -1.39063835223197    2.24929004507798
C        -2.93706970386371    0.84865915094274    1.83084761004044
C        -2.72428749857239   -2.22801411708516    0.01873114704597
C        -2.62681601583548   -1.70046310578361   -1.33437946973623
C        -3.01704638106753   -0.40308727369938   -1.58316698942961
C        -3.55592215451055    0.43240316964879   -0.51471354866182
C        -3.12621995999010   -1.38187418950221    1.07362500518992
C        -3.52992034554743   -0.00338672382837    0.80324278026595
