74
C74 Isomer 4118 Symmetry C1
C         5.12419562476819   -0.34794874310392   -0.74414835879406
C         4.69187342489291    0.96559485993993   -1.09716910543977
C         4.18674102083004    1.61316088541782    0.08065038604360
C         4.89641768435938   -0.53887627540982    0.62019808469621
C         4.30421406315298    0.66647421157242    1.16308150253898
C         4.18364330504474   -1.77939513744572    0.76072543151080
C         4.29647555129856   -1.30816007408270   -1.47351615277576
C         3.71111367086488   -2.20661612472885   -0.55523861964389
C         3.82122764327221    0.81317955837466   -2.20356154181420
C         3.47981398813979   -0.60184805919577   -2.37767997262771
C         2.81756516438261    1.73991879647706   -2.33669662436399
C         3.05147431515712    2.45151258499445    0.01035307974110
C         2.52589074970132    2.67007082022188   -1.29501085443549
C         2.11683516758033    2.53022034442380    1.11342323629715
C         3.28498091429417    0.58522940494496    2.12459776627165
C         2.22877031826629    1.57719385440914    2.17963909333444
C         3.32622264101180   -1.87281156387013    1.81198009820341
C         2.96383868833388   -0.71717464543956    2.61023892921718
C         2.17225317402590   -2.71558761104015    1.70363462108301
C         2.37187434433721   -2.62658140011025   -0.73117710134413
C         1.65424471263965   -3.07314727413981    0.44557147425314
C         2.13276815907513   -0.98800246619845   -2.57879505519996
C         1.60689148403942   -2.09751553941693   -1.83171608749554
C         1.58365959546716    1.36540891837098   -2.96028532223667
C         1.19961778967636    0.02036640137032   -3.05175660043835
C         1.18203061215803    3.08767597682841   -1.49908726345950
C         0.63082918520211    2.35203940142550   -2.58798032143683
C         0.86188670582979    3.23396633098376    0.90747347317732
C         0.37318058643219    3.50465643156967   -0.43580313547095
C        -0.09596940467414    3.19997407024829    1.91645361163901
C         1.08902852006454    1.31751102138731    3.02487051125526
C         0.02737717106152    2.24558569371613    2.98711908030230
C         1.72289387804580   -1.00429645356278    3.20248588362261
C         1.30520778766857   -2.31232557994195    2.75417415921390
C         0.76373384442039   -0.01086051371074    3.48513785040340
C        -0.01990982417849   -2.63998172855658    2.69064895445635
C         0.25322317187397   -3.35598512369656    0.35480987829927
C        -0.51833206576067   -3.30313956665851    1.53617599770080
C         0.20005592091357   -2.38904488379772   -1.92842452827909
C        -0.42355747451537   -3.17572733856062   -0.90356452155873
C        -0.19924511406124   -0.26939086915535   -3.15972345186672
C        -0.63203006141700   -1.60055357892843   -2.81468457410692
C        -0.73676718893457    2.11195988382153   -2.71049145631686
C        -1.14732595478971    0.81428789466776   -3.17349469219282
C        -1.01250887198432    3.52369837090663   -0.70904920089869
C        -1.56003740406994    2.86684985368644   -1.84803216708029
C        -1.51377015376192    3.37327608729011    1.64896358601813
C        -1.97718345223438    3.43433844317220    0.34989621846963
C        -1.26974448126386    1.87529932933778    3.37824603869330
C        -2.23312733458001    2.53723563358445    2.53217361883776
C        -0.61644454873986   -0.43385634923624    3.61737678682807
C        -1.00941565146564   -1.72607725345345    3.19310312940908
C        -1.64394280391679    0.52612258632777    3.51937674657432
C        -1.91405045145658   -2.98339907143239    1.50949862386607
C        -2.20288215961717   -1.94279257152764    2.46224229559163
C        -1.84440191742967   -3.27030393130595   -0.88560771454033
C        -2.59620467935689   -3.03748523953845    0.33852435732168
C        -2.02346591025643   -1.86582247186454   -2.86249146799965
C        -2.60536555135464   -2.75126233427131   -1.92181125888031
C        -2.52513530171560    0.52139497433320   -3.02662412152429
C        -2.95044482803577   -0.79538171751969   -3.02181180402075
C        -2.85441555536692    2.37572426789430   -1.47552041972374
C        -3.07624764050960    2.61347767081549   -0.07717713485438
C        -3.35106306339128    1.25327186311915   -2.07026246054697
C        -3.15256962179090    1.57983763720544    2.07831505500227
C        -2.83472209590587    0.32615079464397    2.73956233737409
C        -3.09753118051862   -0.89069908967137    2.10701116132994
C        -3.61057359843585    1.58184243091590    0.73371573641458
C        -3.67561444294220   -2.11138358497224    0.07066871630693
C        -3.78957571868799   -2.10310166763766   -1.33814029153264
C        -4.00011749119101   -0.91923166202711   -2.00558279386368
C        -4.10797704588131    0.29978692988426   -1.29284191500791
C        -3.80471654378403   -0.92045731929574    0.83054089471051
C        -4.04366399030625    0.33093059622217    0.12729968576270
