70
C70 Isomer 394 Symmetry C1
C         5.55137387451398   -0.07177855610818   -0.97197164832641
C         5.29347571308850    1.23291376070911   -0.60450779768097
C         4.81835028548919    1.28821059748079    0.76963632991469
C         5.23635929353391   -0.92382838307417    0.17508847186673
C         4.81616901872846   -0.06721784128074    1.27732581140161
C         4.33316462911465   -1.88028185477818   -0.27949903264218
C         4.65158433964321   -0.39308063180313   -2.06545169274053
C         3.94938136503192   -1.52297360020917   -1.67236819684755
C         4.27334632603284    1.79911227889548   -1.48001136673889
C         3.82585737786285    0.77960112678977   -2.36243696085238
C         3.63382624396261    2.03584856839009    0.77233481892101
C         3.32593970777368    2.38900473434137   -0.62560485602348
C         2.54451292378633    1.69161176272492    1.63536463784145
C         3.71660580149599   -0.45499773183146    2.02846779778278
C         2.65760097985550    0.48177061295968    2.34297670520486
C         3.32848643703645   -2.40344008038326    0.58676201826234
C         3.06750444467870   -1.72455267606391    1.80352591413116
C         2.23233528231598   -3.02478790649198   -0.03385988092668
C         2.61804405653217   -1.74641308466932   -2.12273739003837
C         1.93287777041758   -2.74459415912991   -1.43289758488307
C         2.43829935687962    0.63870286330824   -2.62205322654313
C         1.83711725588304   -0.66771907099841   -2.71829384693010
C         1.99954677500234    2.43398797311683   -1.02384722057166
C         1.55359172025892    1.66725756470637   -2.15226022506395
C         1.22874992453642    2.16469464132223    1.32993708635330
C         1.04135420006204    2.70077404423216    0.01334674774939
C         0.06188405687861    1.61224352069406    1.95615856324090
C         1.46481255999298   -0.25393877680958    2.61112113070576
C         1.71903405964740   -1.62265743194976    2.26422088231691
C         0.18374749866178    0.29105157608218    2.49871681549137
C         0.98807320487661   -3.17627821502827    0.60797760657329
C         0.65965371979178   -2.38448172872491    1.74052050740772
C         0.54855594604635   -2.92396275700360   -1.63687018474063
C        -0.02307139285953   -3.32684183943954   -0.40455969014190
C         0.41964239209550   -0.80092453376682   -2.84121891602177
C        -0.18620462101748   -2.04678842357290   -2.46760504324324
C         0.15138323207149    1.56009599538789   -2.40025721796445
C        -0.45469652718967    0.35493364364070   -2.84729652278740
C        -0.23352400432435    2.93532962970806   -0.42672898411020
C        -0.68380813110234    2.48322929623633   -1.72160213663018
C        -1.24773794512093    2.06857563043478    1.58830641845595
C        -1.33930698598137    2.87998798982264    0.45078306132909
C        -2.44494348224627    1.34700731932580    1.98894741945967
C        -0.94624866934730   -0.60388999728189    2.38263690774807
C        -0.69267533457986   -1.92964915449787    1.91660446133587
C        -2.26504692764994   -0.04748144494439    2.32531409243316
C        -1.36981285482589   -3.14593361268590   -0.12600173278515
C        -1.73325895734251   -2.57341904541762    1.15086207841347
C        -1.57396967378304   -2.13192914405898   -2.32587801990500
C        -2.17947942472617   -2.83253674004119   -1.24498602705479
C        -1.90884560567329    0.23163037841828   -2.79231832551010
C        -2.45783290240417   -1.05589960797484   -2.66825033356273
C        -2.07909098375935    2.40033840963527   -1.69886058813856
C        -2.50290607000835    2.84077593237960   -0.38125036472434
C        -2.76165844172897    1.31683616802184   -2.32002585848875
C        -3.68760270391028    1.76581537881666    1.44699223976435
C        -3.68657927381781    2.45411227130457    0.16109972880887
C        -4.80774260689872    0.87967369080834    1.38005935975309
C        -3.33767539542706   -0.94156668414576    2.04913353106825
C        -3.03806008666615   -2.13138487755591    1.29484826217599
C        -4.60638540119485   -0.47284477858691    1.64812900344250
C        -3.51507010070103   -2.36569309189984   -1.08391381736032
C        -3.73362135685375   -1.31014456883873   -2.04907167306621
C        -4.00520148602087   -2.21802570062437    0.21498142987479
C        -5.00856573265995   -1.24360973588045    0.45360672315610
C        -4.08230155933802    1.07135616809571   -1.86860453327376
C        -4.60792433397726    1.78835189695034   -0.72096032475163
C        -5.42311640231281    0.96228810970984    0.05707668176103
C        -4.60335503567075   -0.27016238305933   -1.75372289756514
C        -5.39992136245932   -0.35241368383873   -0.54407912550992
