70
C70 Isomer 1182 Symmetry C1
C         5.03423965804840    1.16475899467699    0.98452732325974
C         4.70655647780505   -0.06469598628775    1.70608334419743
C         4.90543751167633   -1.12913096862889    0.85023602881688
C         5.13971364369412    0.84320572103831   -0.41507179778669
C         5.23251845343282   -0.56238833183349   -0.49591227235746
C         4.07181814276656    1.51264913560436   -1.12372097476044
C         3.94702145754286    2.02594925118446    1.14504827896695
C         3.41394341521870    2.35653419727121   -0.15418302534752
C         3.42140922867600    0.10373367899513    2.35174655395519
C         3.02230816829656    1.45158176832858    2.09107636608708
C         2.41207609347947   -0.88753180042169    2.29226234836092
C         3.87200230011830   -2.10077703378022    0.68681394168077
C         2.65972658713204   -2.03588554027918    1.44516951093586
C         4.44708815492422   -1.23252391751134   -1.41230609308704
C         3.75775431185016   -2.31840287049681   -0.70988684796809
C         3.22086748021661    0.82313772041782   -2.03045955292671
C         3.46295694926716   -0.57714708917843   -2.22307835499012
C         1.85955926715689    1.28562773919806   -2.21802628695335
C         2.07798385158075    2.69715256387504   -0.25413243342388
C         1.33889435210611    2.36621962034199   -1.44339300724543
C         1.68644537817131    1.81961774530555    2.02776002799351
C         1.30756066376014    2.71783722794782    0.97195516781517
C         1.04406902923731   -0.47041518051804    2.54884161983901
C         0.69215927362802    0.90692983363060    2.52735882487424
C        -0.02995056692546   -1.42171137232733    2.41440582517007
C         1.49940062141435   -2.63354602921835    0.87200653437822
C         0.25592740949995   -2.53563932750392    1.57521592326578
C         2.52289384186505   -2.50296932428626   -1.31423729761262
C         2.33887646330783   -1.45794414821951   -2.29360154930836
C         1.41552828863937   -2.85836359734179   -0.53401874040306
C         0.87162851110936    0.38877801514340   -2.76678956046877
C         1.04482072140370   -1.02677792586832   -2.61334815118341
C        -0.44893640806660    0.81092587624249   -2.90766119072889
C        -0.05611043255161    2.72423558812478   -1.49808592514846
C        -0.91229389791094    2.05275070792249   -2.38055214711456
C        -0.02526307843307    3.03138787099102    0.89320831292856
C        -0.69823821302279    3.24968297459556   -0.34494881922284
C        -0.68019463276957    1.31787660295107    2.50656433854675
C        -0.97619947938138    2.51513222243946    1.83007713271883
C        -1.40345552781099   -1.03675111120508    2.65576967908657
C        -1.74639270171760    0.36623957797376    2.71433518935507
C        -2.43910083873439   -1.93372472837034    2.28244438953661
C        -0.82088038866922   -3.21268909083657    0.97195036666097
C        -2.10902144986566   -3.02733534221488    1.45602981977762
C         0.14898135141542   -2.80460501433176   -1.20815093652087
C        -0.07508003258967   -1.85848751801288   -2.26328589149843
C        -0.92723798126905   -3.26347502528964   -0.47008979259009
C        -1.55458185071051   -0.08844289494087   -2.93315403386033
C        -1.42333975646361   -1.41878864314945   -2.49999758343858
C        -2.33380505595199    1.97555990811533   -2.19775876661015
C        -2.73791622416875    0.67968617593159   -2.64484543862472
C        -2.09556148602135    3.12723196981075   -0.11108046475082
C        -2.25750676404379    2.76867504614527    1.27897689730007
C        -2.97962664718610    2.57549332151560   -1.07894141560548
C        -3.06887337717927    0.77092374201632    2.43761264622953
C        -3.32527793921770    1.98982108103365    1.69527520504311
C        -3.75716203944936   -1.49310275455102    1.87335878885976
C        -4.09812801764281   -0.16641104644736    2.03446346517726
C        -3.05034153934203   -3.05774840648522    0.34453896146236
C        -2.28908847455881   -3.01650222689210   -0.84353327704766
C        -2.56863048994197   -2.04246458018498   -1.84105541407803
C        -4.08800249460052   -2.16366499303107    0.61213418342694
C        -3.86414470320974    0.05826279045815   -2.11896796793622
C        -3.77880344361047   -1.32494914310002   -1.68432290992248
C        -4.57473019533023   -1.42026839387646   -0.48041121426103
C        -4.18513167517578    1.97091692279077   -0.61070537073803
C        -4.39408899628081    1.78413454170137    0.80013055685469
C        -4.92177132253019    0.46239383160453    1.04039079844706
C        -4.67913032795185    0.79223634314227   -1.22859737300562
C        -5.12216860815528   -0.14001895184455   -0.20145647248239
