68
C68 Isomer 5392 Symmetry C2
C         4.17756143016564    0.87657913974974    0.94180130961282
C         3.72593998051052    0.23595176110868    2.08443028524569
C         3.68819578990961   -1.19831866139747    1.81239687794630
C         4.30816558237121   -0.14170474297091   -0.10684190683294
C         3.93470622751610   -1.40332249409933    0.42866498482897
C         3.75208617492021    0.36917828179743   -1.27861381737670
C         3.50361814273411    1.99304595602210    0.42176857014643
C         3.46286171038557    1.77058923121836   -1.01504994657540
C         2.35566196856912    2.51781571068727    1.06776447633835
C         2.49623440066295    0.62415405629351    2.66289281569140
C         1.81886195364967    1.77791139559014    2.19964064953078
C         2.52077973686353   -1.69694675478559    2.40233223826856
C         1.76509631068026   -0.59798987649952    2.95127689245987
C         1.83834002498807   -2.71466943157389    1.74451772163505
C         3.08417789732455   -2.24575716303794   -0.34341050315101
C         2.19743498755429   -3.06208888802848    0.39671922579027
C         2.87408477054027   -0.41285633010202   -2.08707841849434
C         2.64366890443048   -1.77734257796837   -1.65806880276750
C         1.89340173561896    0.28584606299867   -2.88157202324093
C         2.56528146692825    2.42529506107935   -1.78405552900484
C         1.86579755133486    1.70477100231771   -2.82615635528265
C         1.46459724523889    3.31680119515054    0.25154078078543
C         1.65655509012580    3.37281331754852   -1.16475676320353
C         0.14857363376988    3.51281534957582    0.69939097223646
C         0.41306812317369    1.83165753088569    2.49827378996272
C        -0.34778916442266    2.83141116688958    1.86871889104427
C         0.37767623889917   -0.63773024617298    2.97295703744780
C        -0.28898799098714    0.64753709486023    2.97337364047201
C         0.42913243630929   -2.82460888495699    1.87400017017352
C        -0.32752713548866   -1.82314845084225    2.50590563225686
C         1.03030315128192   -3.63384690750239   -0.19365936950785
C        -0.07499828808007   -3.50929502787734    0.70990419541673
C         1.56773507691001   -2.44296140682779   -2.25506500761844
C         0.83047250822281   -3.47809451599409   -1.56017184536704
C         0.66119012319713   -0.35510613323934   -3.26978444194922
C         0.62904041026466   -1.74974683170448   -3.09937279922077
C        -0.61414476882111    0.34775637677177   -3.26637051876487
C         0.66563850252016    2.39092614121410   -3.01563365706571
C         0.55654086587382    3.45393974555922   -2.02520619004382
C        -0.58083951317840    1.74287850574350   -3.10006458795555
C        -0.96274655168996    3.63494071524428   -0.19705714704065
C        -0.77194971056217    3.47537220811262   -1.56437956791860
C        -1.51388525860373    2.43829044077843   -2.25136200999793
C        -1.75782752669916    2.72107677138127    1.74894376223967
C        -2.12593026812765    3.06488026339593    0.40276384739037
C        -1.67649229619960    0.60777696077103    2.96109761386829
C        -2.43588032211892    1.70536813887815    2.41423043585745
C        -1.73527338864218   -1.77019220058851    2.21649701064639
C        -2.40957924597445   -0.61518422635171    2.68112556333927
C        -1.39401530879650   -3.31449873789560    0.27033561544877
C        -2.27964380208313   -2.51322180329209    1.09031267392953
C        -0.50111813608863   -3.45773920827080   -2.01209221004073
C        -0.61680742925326   -2.39749740264103   -3.00461489994270
C        -1.59532813774423   -3.37424651035176   -1.14452894902890
C        -1.84372714221622   -0.29210030737784   -2.86811257591079
C        -1.81566778780180   -1.71086443163427   -2.80892533554156
C        -2.50813725638666   -2.42850215828611   -1.76014186501976
C        -2.58585693154776    1.77441538026733   -1.64536912083476
C        -3.01761934229051    2.24652894155450   -0.32917318472203
C        -2.81902677636045    0.40879907694620   -2.06900542683872
C        -3.60705933309043    1.20494304516696    1.83347068420368
C        -3.64321824907601   -0.22854485727156    2.10984162400719
C        -3.86298795412024    1.40624691627710    0.45095392141497
C        -3.43200311722105   -1.99033135168882    0.45064156732098
C        -3.40053138984502   -1.77167154641267   -0.98694030438825
C        -3.69151868312537   -0.37094582309558   -1.25240703579519
C        -4.10243473638518   -0.87233133090799    0.97200520914487
C        -4.23992721041714    0.14309427981175   -0.07844856965799
