68
C68 Isomer 6290 Symmetry C2
C         3.23567180384230   -1.93669906323728    1.62441735926073
C         3.35605170038684   -2.17522566699243    0.24544038140677
C         3.96063844782895   -0.98780760685926   -0.33166342183133
C         3.59549539626381   -0.56523371515755    1.90203269755197
C         4.10160216525406    0.00976535692398    0.71426596529214
C         2.55648622306826    0.02682713859064    2.63623518205300
C         2.04649157317183   -2.22047761714544    2.32541139571194
C         1.57417844564214   -1.00394590028353    2.93672533889593
C         1.14320441653167   -3.07461782638122    1.72397259086207
C         2.34128864759394   -2.90709130211958   -0.44066858561136
C         1.33488443221649   -3.49209390407579    0.36256439565249
C         1.96736291999229   -2.47646590376519   -1.77770591201941
C         3.57494311721023   -0.57810576560124   -1.58789094172215
C         2.56935369945609   -1.31504051474791   -2.31543255787737
C         3.41871118059870    0.82484430073910   -1.89147769995085
C         3.79092296784019    1.33930436615574    0.46548500739305
C         3.53914371567817    1.77689552256451   -0.88544339522269
C         2.15842823552470    1.35617682147596    2.35119312521668
C         2.88746949830377    2.03769590922985    1.33962057329558
C         0.78426599896320    1.71059324007564    2.61995878193623
C         0.21333707807941   -0.72439128870178    3.01945628005899
C        -0.17332703948848    0.68170033165460    3.02270432427202
C        -0.25057322345592   -2.90377643961745    1.97670973328384
C        -0.74482711374209   -1.75166298909236    2.61403688403836
C         0.02848179736092   -3.78415513104282   -0.15289585633209
C        -0.94652942775600   -3.50648778384755    0.87341170819194
C         0.67179421202633   -2.76749484632750   -2.26125120245951
C        -0.28305970582910   -3.49302324715561   -1.46808312587010
C        -0.05747615864826   -1.84906230437873   -3.07411306419041
C         1.82756124692264   -0.38479859236951   -3.09497839204484
C         2.35159500637385    0.93311307859528   -2.84473036671987
C         0.46244939864454   -0.57966430872582   -3.39920015867968
C         1.49233954800561    2.01726140599537   -2.81910200816884
C         2.61562791917984    2.87532110504625   -0.83111707289855
C         2.25083266308289    3.05352425727731    0.55276213506826
C         1.63973154158871    3.02514537712582   -1.80598734568747
C         0.28898470953421    2.86539378146531    1.98833204413996
C         0.98324811957043    3.47255414678170    0.88642505993805
C        -1.10522802310752    3.03736353405996    1.73861975322229
C        -1.53426637622794    0.96167337991173    2.94344940670109
C        -2.00762928068394    2.18092989494746    2.33809054350904
C        -2.11941342347534   -1.39614373229440    2.34900605403961
C        -2.51700588153668   -0.06797973639513    2.64019665451840
C        -2.21466379720587   -3.08599133106078    0.54352194722935
C        -2.85002118247655   -2.07341165766430    1.33568336641690
C        -1.60718423787980   -3.04768001409588   -1.81610297682977
C        -1.46136654572764   -2.03561702722278   -2.82526044683724
C        -2.58149458987188   -2.90191330724491   -0.83904732801516
C        -2.32062936567901   -0.95129243542500   -2.84498003078742
C        -0.43240964861865    0.56375903023845   -3.39610502674779
C         0.08804908904514    1.83179422346727   -3.06651466930817
C        -1.79708294164313    0.36764237926942   -3.09066746278785
C         0.31616658535630    3.46901808187620   -1.45396641453860
C         0.00666418961977    3.75454378163997   -0.13711015443062
C        -1.29896114611352    3.46044303426176    0.37929121470053
C        -0.63993523161933    2.74682671392462   -2.24867536180782
C        -2.53753831776330    1.29457704173871   -2.30594506787940
C        -2.30658463633486    2.87870634916442   -0.42484802759553
C        -1.93473693829122    2.45375578551914   -1.76428307491300
C        -3.19780303124991    1.89982010898184    1.63767419636018
C        -3.55708927635356    0.52720353512181    1.91006767354858
C        -3.32029024079087    2.14407652238033    0.25985327836746
C        -3.75466167872063   -1.37134250024445    0.46587146546880
C        -3.50502043936549   -1.80329701268353   -0.88733540945774
C        -3.38607568131066   -0.84702604852158   -1.88951005654324
C        -3.54186311587152    0.55463603777953   -1.57979417851622
C        -4.06502989395949   -0.04291033676299    0.72073607248858
C        -3.92568009896009    0.95904128326160   -0.32133579580876
