80
C80 Isomer 26129 Symmetry C1
C         4.87488074397916    0.08213497888216   -0.97843424474829
C         4.75864596043291    1.39441323382101   -0.60424203540997
C         4.00309966029290    2.09491367849027   -1.64996116700200
C         4.15525165813550   -0.09046755687595   -2.25718440292826
C         3.48661413201218    1.12671719386122   -2.55983261408170
C         3.48001457594216   -1.29109923475148   -2.21766833049092
C         4.48256314261464   -0.95059288259039   -0.09906374155885
C         3.90170780376376   -1.93786406534142   -0.98289302380854
C         3.84286096065183   -0.67617446977427    1.14068705714583
C         4.19534775753918    1.72235728344796    0.65860245480615
C         3.68754295915086    0.71086195665445    1.52379703689060
C         3.17093573067360    3.00736248655513   -1.02823436977351
C         3.41451334264452    2.90602496144626    0.40528860182673
C         1.85149985848001    3.19140607633111   -1.49996670858314
C         2.10227681727017    1.09827343773024   -2.84602438363563
C         1.33613598826450    2.25620252326665   -2.45919916600198
C         2.11357056865373   -1.39756169875200   -2.62743307121564
C         1.42641074482023   -0.18983678720445   -2.98138290941004
C         1.37893626400032   -2.54696320605288   -2.18018282293393
C         3.15694113025656   -2.92352660509574   -0.46901328931747
C         2.00653535903137   -3.40582800919442   -1.21329194043147
C         2.92616413784856   -1.68460313413470    1.66261823170899
C         2.84172299746914   -2.90300345586202    0.94589177242019
C         1.80278225989333   -1.33734506718876    2.50147311788462
C         2.58979085441223    1.05933360414364    2.40272695084442
C         1.68416314345320    0.04382808736432    2.90588991204092
C         2.43018473435944    3.25131101147216    1.27411157264616
C         2.11113862801669    2.38731951221079    2.36984398541996
C         0.94517921705680    3.84252839851808   -0.58885818240902
C         1.22371333797331    3.87640060038354    0.79606461014807
C        -0.40351160113192    3.87289997335151   -0.92856566842610
C        -0.06731065115976    2.24015897078077   -2.72624477633434
C        -0.86105819042404    3.22434744662970   -2.12148490882273
C         0.00211521266708   -0.23470920574524   -3.11443680308367
C        -0.70874084417918    1.02964733808095   -3.20700997189711
C        -0.04495721032405   -2.56707202066174   -2.26796773137869
C        -0.72723690386291   -1.44247948261727   -2.85816389777662
C        -0.79229324384864   -3.43218977294239   -1.38025525499247
C         1.25323563321305   -4.09432190900548   -0.27648382733180
C         1.72433853280640   -3.73214230136919    1.06294914647904
C        -0.14236859805144   -4.05224834127592   -0.28327827074534
C         0.62426557997902   -2.18347034588527    2.56343230070591
C         0.60840584204681   -3.38369686159729    1.81666984884522
C        -0.56667169261088   -3.75892844514768    1.05251620605673
C        -0.68415449337046   -1.67083946508183    2.90821017200114
C         0.44698577704640    0.45448945415584    3.42975904459284
C        -0.71361575956212   -0.38123141442821    3.42986335139303
C         0.77283164126803    2.73381212532861    2.71889524576371
C         0.19771359419101    3.61755551298991    1.73547292550236
C        -0.03299372680041    1.79906754968084    3.30111121718310
C        -1.45368291758461    3.81271335960538    0.02594631484455
C        -1.16983825717706    3.51347310826843    1.36869833274455
C        -2.26699858607855    3.07381481454745   -1.99302809116481
C        -2.63140698684255    3.31452934073533   -0.63214601544569
C        -2.09697848879163    1.02290183016191   -3.29846836869047
C        -2.89382796823662    2.08371933302056   -2.72795055608711
C        -2.17685845807332   -1.40670989778047   -2.82123302819903
C        -2.84721023856084   -0.20347828571201   -3.14536017794564
C        -2.14355830911160   -3.17741314750842   -1.13934066882545
C        -2.88724104594853   -2.27925538035130   -1.96315450493789
C        -1.81103438668733   -3.18941327356905    1.28880607576907
C        -1.91425688032672   -2.18768632058307    2.31993975665056
C        -2.68508859922470   -3.16066605536231    0.17500077973640
C        -3.05691040433830   -1.37348583456441    2.26681761433947
C        -1.86158501840152    0.46003959121045    3.29006185446549
C        -1.44739738445202    1.79762827459609    3.05289548113522
C        -2.04772363662000    2.58440251146766    2.05225054773931
C        -3.00477630996677   -0.01018467147263    2.69026153532809
C        -3.56109805288499    2.49264057097668    0.03267298235653
C        -3.23793439708052    2.07542245263050    1.38791734930366
C        -3.74294064214191    0.82760168235589    1.80211332862474
C        -4.05312276089340    1.52100346419106   -2.17478906575192
C        -4.08070030549877    0.11416475726980   -2.54365835011687
C        -4.35155481281384    1.64196543663506   -0.80523989615023
C        -4.02945613239729   -1.86104257884232   -1.21461746665181
C        -3.82837126019659   -2.30324526527687    0.14110835235287
C        -4.00877950852241   -1.42039232323934    1.18661373183802
C        -4.44954528381286   -0.06516756188890    0.91541329885009
C        -4.59102761915958   -0.61312600527754   -1.45551620146768
C        -4.77219871515989    0.32507441675526   -0.36113219242051
