80
C80 Isomer 27866 Symmetry C1
C         3.55074980784667   -3.26103796370913   -0.23724865018679
C         3.74046050845749   -2.63232505579903    1.02099456122424
C         2.50839656319454   -2.74355617850450    1.77516211834672
C         2.27040038511007   -3.89963367389405   -0.21102962756484
C         1.65821772619365   -3.64007539838768    1.04939119299731
C         1.56209969068577   -3.52593064412495   -1.37285532098437
C         3.63463130768248   -2.49355636190910   -1.43500247172924
C         2.34955035821583   -2.54658822471698   -2.07899520512166
C         4.31073293981701   -1.28185526017648   -1.39147128864714
C         4.44546797404797   -1.44131281505074    1.06332448430862
C         4.91769261567745   -0.90432323179067   -0.16224454153236
C         3.95453132731855   -0.34671781474577    1.88137542750916
C         1.93073999287941   -1.63336283528456    2.41069415354469
C         2.67435500119916   -0.38157929123060    2.46420261787590
C         0.50472673986185   -1.63143654749775    2.62224083516938
C         0.28084999774260   -3.56589963380304    1.13321764809833
C        -0.30459783297114   -2.69567808959857    2.11458892949043
C         0.17740745138203   -3.46450293522784   -1.33605006175517
C        -0.45853597585464   -3.80880849606735   -0.08477327554508
C        -0.48603685790628   -2.54453637495508   -2.20438830872806
C         1.70570558409478   -1.38984002171487   -2.54536735086080
C         0.27269051396095   -1.42097516762570   -2.68264738849783
C         3.71284350571776   -0.10018615750693   -1.96385133574127
C         2.40289384490782   -0.11173850028150   -2.47253344717964
C         4.87395545659939    0.52829863176045   -0.06307379511946
C         4.41169238227203    0.85780586695105    1.23652226787219
C         4.17791557170809    1.03169973615139   -1.17883855725099
C         3.69220659830674    2.01881657135227    1.37031901862628
C         1.94207941034050    0.86812207763262    2.64978622080452
C         2.53467428092793    2.06072653979648    2.21402902835519
C        -0.15055944870472   -0.39571287864388    2.98090981935524
C         0.51216435817203    0.87723353763135    2.85421364453086
C        -1.54667912374188   -0.40166579758829    3.07356996488345
C        -1.73899843889158   -2.65503641473998    2.16761017846555
C        -2.35437685060124   -1.53674265706028    2.74493430114853
C        -1.82575994874596   -3.74626822011900   -0.02527442096970
C        -2.49616514205715   -3.36348881994824    1.18865791732638
C        -1.91639446573223   -2.52520345012195   -2.15256090119530
C        -2.59134064906575   -3.29517726220691   -1.15908386419539
C        -2.58463921044078   -1.39004636282474   -2.63063430582338
C        -0.41454949260491   -0.19180154016939   -2.94265843712140
C        -1.81960400373333   -0.22308596513438   -2.97170954404382
C         1.64665235529346    1.12728073274939   -2.50069993480409
C         0.24362446102640    1.09049736244403   -2.78504860659479
C         3.40549052344286    2.19241174011238   -1.05814784865385
C         3.40071650731823    2.81184942606305    0.21767508231768
C         2.22303008105713    2.30625435937108   -1.89304688167030
C         1.74929855294932    3.18528158935748    1.80537741858666
C         2.32875843554108    3.66783013080796    0.58615689207389
C        -0.26605675694029    2.05962576800662    2.59022742205132
C         0.36338420341155    3.22667018305870    2.01980374851287
C        -2.31602022432505    0.77211540008631    2.84134088468974
C        -1.70141983618602    1.96572813643381    2.47538004197301
C        -3.64539998671536   -1.06692671962943    2.32460170708685
C        -3.60825706430102    0.35935349821858    2.34744537564560
C        -3.77125063062316   -2.91979577125483    0.80804944384092
C        -3.83102048639813   -2.88320754690067   -0.65466236515601
C        -4.33861885673760   -1.73297210533593    1.30295537784608
C        -3.84699489151177   -0.96954139548097   -2.09885400981676
C        -4.44258342971538   -1.67883340849679   -1.04860521392518
C        -4.84328325613699   -0.97664449011614    0.16475865260552
C        -2.61064201088267    0.91801769753672   -2.67111211929651
C        -3.83970305606136    0.46365944333476   -2.07748121179839
C        -0.58329716937577    2.25248992001587   -2.55694201376244
C        -2.00765429598696    2.13431625392501   -2.34106166816806
C         1.41017981500399    3.41530543961658   -1.66503619922987
C         1.51545301356518    4.16134615373248   -0.41751998902315
C         0.03402354941293    3.41547274718762   -2.04653429127387
C        -0.37290020929790    4.07714892014996    1.14442809225058
C         0.22614947709402    4.55281836791658   -0.04209924173437
C        -0.67201284674362    4.25128845772654   -1.14103314241624
C        -2.43144472197558    2.79766073336842    1.53566677978175
C        -2.66589249461718    2.90839292353183   -1.31370326625998
C        -1.73464350511092    3.76126817360702    0.81716296713467
C        -1.89801668780914    3.85801434059243   -0.61388668605745
C        -4.21879111751330    1.08662564974646    1.33396294544053
C        -4.77953930286309    0.39674549048829    0.19271473872703
C        -4.35059736489269    1.13317412517286   -0.97619681335393
C        -3.58124591819587    2.27358861482244    0.88281935716042
C        -3.68506930746828    2.31667273891783   -0.54730765486912
