76
C76 Isomer 4298 Symmetry C1
C         4.38154317652963    2.00935197583186    1.32924196589269
C         4.24821998073857    2.42790006308596   -0.02864838868497
C         4.37214006032193    1.27196442345834   -0.87047754604989
C         4.48002025476519    0.60459960058695    1.34788953575197
C         4.56792007553808    0.13204227930917   -0.00077741032404
C         3.42508629543389    0.08072996159700    2.17660414733392
C         3.16908668380418    2.36788117637987    2.01784842711219
C         2.59530562761080    1.19428849712588    2.58221920147346
C         3.07014393861222    3.22361684724899   -0.11851931874774
C         2.37143146876925    3.17116632793606    1.17561192948991
C         2.29826577035995    3.13534034013994   -1.26561954722878
C         3.52863276708025    1.12797693905023   -2.00749615810951
C         2.53804104194173    2.11045144462808   -2.25086878504159
C         3.18600747692725   -0.18134978234155   -2.40987140509310
C         4.04251516067443   -1.12901059635350   -0.30780826768542
C         3.57834978445639   -1.31531608273594   -1.63298471795745
C         2.85512925997251   -1.14998404141782    1.89664323528182
C         3.35670517853840   -1.88521207142666    0.74456056550759
C         1.51123797826935   -1.39509176544173    2.38761223915320
C         1.20534380978531    1.04589413129795    2.63692289105927
C         0.67491250053204   -0.28803972165896    2.73110927742573
C         0.97306957994108    3.06321971482887    1.24829250132618
C         0.36855671665050    2.08813650278288    2.11764595747757
C         0.89333482643278    3.34651866580545   -1.17750871264217
C         0.22095844250700    3.39688487686480    0.06233483076393
C         1.27038339987589    1.74942852920671   -2.79483066449563
C         0.28604265448217    2.60006388647996   -2.22878617499253
C         1.92535739291300   -0.51077193496568   -3.01140703827153
C         0.88457579909370    0.42348105688582   -3.10922454913299
C         2.70157042942634   -2.38676482962640   -1.95766579025476
C         1.62727219569400   -1.88401552178184   -2.76002329356772
C         2.68929436604479   -3.04281635037462    0.38425566448595
C         2.45155127083709   -3.36567636229458   -1.00757425659860
C         0.92487392980815   -2.67000980859374    2.10080890767886
C         1.54832815418567   -3.52045908634524    1.13191594628079
C        -0.45586344043276   -2.81749093804113    2.28579415383953
C        -0.75477203581891   -0.42530664516976    2.80342073897811
C        -1.26932075044916   -1.72050174038080    2.69243737518043
C        -1.04682725993502    1.89912165871956    2.08509601245240
C        -1.64597074242259    0.69183239751166    2.55611887856980
C        -1.16722494393091    3.22973831780697    0.04524115999358
C        -1.82989605935280    2.75626351850934    1.23806418972301
C        -1.05389298989913    2.25446363974967   -2.20134377283909
C        -1.81881309916721    2.92453233574351   -1.19301864982381
C        -0.49934864155824   -0.00470077443095   -2.96215293509088
C        -1.50025369385448    0.97580211328453   -2.67529592063515
C         0.29981663791962   -2.33146587501376   -2.60924896077597
C        -0.79431908698588   -1.38812462368092   -2.69534533562213
C         1.22228521361351   -4.03395546954573   -1.08925322966031
C         0.74696282908479   -4.28306138394090    0.26216445013496
C         0.14123381535466   -3.51821192834660   -1.83226166868312
C        -1.25480889901102   -3.61025108949968    1.37878676478973
C        -0.65250881413334   -4.17404955615221    0.25813816364676
C        -1.05139979631183   -3.70046340403458   -1.05515685474921
C        -2.58806419324348   -1.91252233613561    2.17120510475728
C        -2.50566421813663   -2.99179480950038    1.22558537951151
C        -3.06530955597353    0.46841891923056    2.34592464632529
C        -3.50483885601318   -0.88349866833105    2.05233920740743
C        -3.21031056281892    2.62535188217237    1.21244891256408
C        -3.86796138585221    1.51571066104815    1.84415145731489
C        -3.18414834463682    2.71298336386728   -1.21327940027384
C        -3.93084096872574    2.91123684481682   -0.00888189742409
C        -2.86436510408790    0.60243740581320   -2.42434946889250
C        -3.75089769641930    1.61442320171303   -1.95384665630958
C        -2.07011651851742   -1.72930926922643   -2.12201550149723
C        -2.14384410570523   -2.85879021316745   -1.21257970165706
C        -3.03013672420446   -2.75445215624233   -0.07143897976066
C        -3.14248188735805   -0.77882652735498   -2.11940752158710
C        -4.49472993818160   -1.09625251699402    1.03236740918181
C        -4.06966350092197   -1.85212988756788   -0.12933595109767
C        -4.28082218112646   -1.03700113324661   -1.29015776700110
C        -5.06326521029452    1.25129042004436    1.06267071752860
C        -5.08923684540281    2.13029205816792   -0.06869735798885
C        -4.96798086910718    1.29676595390995   -1.27240316432013
C        -5.28648842204948   -0.05080968841270    0.57928489702167
C        -5.18311860248592   -0.02411334286490   -0.90219412184799
