74
C74 Isomer 11011 Symmetry C1
C         4.28643756516194   -1.76578793361637    0.44058757754200
C         3.77230017087702   -2.61047491512185   -0.53500315557022
C         2.91102894626676   -3.56660022573512    0.12634777534035
C         3.53925105858421   -2.01920251032490    1.67442430708417
C         2.63829636670581   -3.08118943464788    1.44469486092031
C         3.07061562263066   -0.78686872833582    2.14214192162955
C         4.29376026912194   -0.38581311509950    0.20812351753171
C         3.74498845006844    0.23672372483569    1.38249472534064
C         3.85024622198427    0.11952854934307   -1.05264182335529
C         3.06600367857369   -2.09638152363105   -1.67756524739508
C         3.04601251149078   -0.71336024405262   -1.92705651047858
C         1.84916327407064   -3.84432021733727   -0.74477743803197
C         1.88054532361708   -2.90489357420105   -1.84477385667749
C         0.63506998729542   -4.13828888307112   -0.16769151370831
C         1.29536532349320   -2.95179886471612    1.90279902927266
C         0.37708140712528   -3.74906600845831    1.19691791469156
C         1.71101504892927   -0.57487497345075    2.52930716786854
C         0.80661579686233   -1.69269509853472    2.46304480547990
C         1.22789970732201    0.77985055269685    2.53992734144531
C         3.30896769487165    1.54748662442029    1.37002919894599
C         2.10657104654693    1.87183930577366    2.11139957334465
C         3.62484880270547    1.48530790852495   -1.04555244329131
C         3.64123777541373    2.24680965951012    0.16711867815705
C         2.67056188358448    2.10598278199589   -1.94211627249981
C         1.86200497798864   -0.13475138642707   -2.53827847032850
C         1.66631440210736    1.29279324326591   -2.53225150696191
C         0.69185370782895   -2.37710844444250   -2.34913031525855
C         0.73115345625576   -0.99481334228356   -2.77930526567941
C        -0.55744881421632   -3.90255590479785   -0.90232854905572
C        -0.58081616359179   -2.99277580185733   -1.97241683472919
C        -1.01693543991388   -3.55904750970276    1.32948166121019
C        -1.61645750984978   -3.88704561163665    0.06766487752088
C        -0.61051771508944   -1.45663293619170    2.54081039280151
C        -1.52763879369592   -2.49655287823718    2.11186427019767
C        -0.18582314987900    0.99069907438990    2.66232303158130
C        -1.11026869763420   -0.11454793354889    2.69285031532093
C        -0.69390879426778    2.31243900839632    2.35255342824360
C         1.56606058663565    3.14211417220458    1.83779671743934
C         0.15831481175974    3.31135296713245    1.85607007459067
C         2.99519677596119    3.46101373453528   -0.12404594038706
C         2.37848314101179    3.38092913844030   -1.45978219459234
C         2.06489500371169    3.95754821971330    0.75825096605208
C        -0.23077647487436    4.07028327007538    0.68431631327780
C         1.04526628310943    3.86169244983090   -1.36022113705939
C         0.91425029474327    4.37404410497789   -0.03338842405096
C         0.35052341133477    1.88841278091476   -2.61942286372155
C        -0.01588887380420    3.11416238686345   -1.93736639436014
C        -0.50135193323216   -0.38547525071232   -3.03438246502494
C        -0.69196311192434    1.01463230090837   -2.93416765403984
C        -1.83946616709392   -2.31237992543510   -2.22179511283111
C        -1.76870488629830   -1.01996938412982   -2.79180878025805
C        -2.84619015690356   -3.38587878664219   -0.26553914371545
C        -2.99210326668316   -2.59161265150752   -1.45726183927114
C        -2.89118968373300   -2.20437937480686    1.87753109397829
C        -3.57240138866694   -2.76734070712854    0.77763894306272
C        -2.54047100903946    0.14298629245788    2.51255047534552
C        -3.41213488404353   -0.87907678970841    2.08819295624700
C        -2.03871990073236    2.51119992929131    2.01715103544310
C        -2.99181118467065    1.45762011469289    2.19013643415302
C        -1.41279729478045    3.74983673841495   -0.01320985652555
C        -1.33371836994742    3.22819581975151   -1.35017625910115
C        -2.40833763862266    3.27645758145263    0.85698804034854
C        -2.05052414289816    1.25695425283966   -2.58716447486317
C        -2.72708363872389   -0.01233096652244   -2.53610421914270
C        -2.39609767891517    2.33438789467106   -1.76206189923755
C        -3.96722257828041   -1.56181584002761   -1.15136750897765
C        -4.38428364530727   -1.73858595359859    0.18786378862979
C        -4.42572082865504   -0.64528983444096    1.08005670344500
C        -3.82875553095594   -0.23477383573102   -1.66787997544217
C        -4.03233624805521    1.67808040130254    1.26690180444040
C        -3.57160539882543    2.69362439277807    0.34010753805022
C        -3.55355997048747    2.13318809919976   -0.94458777468925
C        -4.56964662554664    0.61974653413616    0.51939077485996
C        -4.24352319591208    0.85143329011361   -0.87222691052135
