74
C74 Isomer 7831 Symmetry C1
C         5.02630607457531   -1.18069870339699    0.18867313439293
C         5.10448912186432    0.18352731720216    0.46231441365117
C         4.81727451865954    0.88147845695176   -0.78195209795704
C         4.48813951904156   -1.34101773741258   -1.18226242977825
C         4.26015153002327   -0.05750143989905   -1.71272965194909
C         3.44073797044869   -2.28783809004254   -1.15004545595961
C         4.26273494003638   -1.97625897359276    1.02863189321650
C         3.43067698110578   -2.82115886896988    0.17829178835197
C         3.41476294878330   -1.40715439527419    2.03094270238824
C         4.31750879915927    0.78075433679074    1.48636259879879
C         3.37887263869123   -0.00302533248667    2.24187295139450
C         4.16267002045872    2.08058551585042   -0.47474476402263
C         3.90380509192031    2.06434327895659    0.95863137625403
C         3.15976815482114    2.50839605433452   -1.33805228478912
C         3.01638487306756    0.23953985883940   -2.36736415472002
C         2.60385564397061    1.58874172341308   -2.29900977574262
C         2.19904450663771   -2.03558984870004   -1.81211013401309
C         1.98736417434172   -0.77492933558403   -2.47345070280573
C         1.04871495526136   -2.72813652610777   -1.29933557738955
C         2.22153100067638   -2.98601699643801    0.82233755181759
C         2.17607339455162   -2.13305584706014    1.99143569416404
C         1.06380612158124   -3.15404786575310    0.05484701105944
C         0.94535421450689   -1.60648752032406    2.38754113468530
C         2.08987451978247    0.57346400021830    2.60748382050437
C         0.88433897327048   -0.22198159303544    2.75993595130240
C         2.75948778857602    2.64861628367771    1.42178882805805
C         1.89477640108580    1.93885361478009    2.33012855110315
C         2.07900490856751    3.30679835433884   -0.83308757079407
C         1.90982156550016    3.42077505432392    0.54063184592804
C         1.24090617894264    1.94613745941761   -2.48165789390834
C         0.92095115273698    3.05370840397178   -1.63306526549925
C         0.63045806830438   -0.38638445502738   -2.79113565427004
C         0.26210203933353    0.99722194883791   -2.81708593540152
C        -0.23203055634245   -2.52884617110739   -1.90958663385640
C        -0.43792677569401   -1.34489199959636   -2.69496753484569
C        -1.33390087866237   -3.16701660117477   -1.32484557099620
C        -0.13506981906991   -3.16002590314903    0.81569042564032
C        -0.24240723098989   -2.31789924230813    1.96535029910133
C        -1.27127285396874   -3.50331595973450    0.07710940344901
C        -1.52777979367527   -1.82288781047458    2.32894591811039
C        -0.42021836521095    0.37472127664886    2.81570602517305
C        -1.61491514203639   -0.44633992585561    2.76386930370561
C         0.59293487934624    2.47470360082212    2.17384237254337
C         0.58913609770897    3.38409527081111    1.06890366473072
C        -0.56422735847040    1.76210799131776    2.50816598668087
C        -0.37611298851772    3.22345639714593   -1.14875901093807
C        -0.55047079076226    3.45480684201796    0.25626813778961
C        -1.10591392230740    1.42883873181206   -2.69484027603307
C        -1.43045145692779    2.57343903398366   -1.87946006192736
C        -1.76697891614482   -0.91494757048762   -2.87958060945254
C        -2.10457056953861    0.47010108178297   -2.89675745664581
C        -2.69115363694925   -2.75816759568179   -1.58428573551246
C        -2.90499386359298   -1.61351502336105   -2.34017632432125
C        -2.52449897173802   -3.30268838812453    0.64581897428792
C        -2.67348687186586   -2.43007823879799    1.74121135889111
C        -3.45415032621191   -2.90965482083424   -0.39471111600018
C        -3.87827152493167   -1.68731780623949    1.48425985621429
C        -4.29061784286643   -1.90187703099534    0.10083349377586
C        -2.85866151316093    0.19899181747541    2.67524788819354
C        -4.01140915326459   -0.43917639963958    2.04974651422198
C        -1.80561781369786    2.32752222691860    2.05694560256306
C        -1.79972681095644    3.14870513068047    0.87606528210072
C        -2.96656519954149    1.59897101993019    2.37283059915209
C        -2.71887257140224    2.71073982492496   -1.36318054712216
C        -2.91768112111037    3.11268714399473    0.01008542889929
C        -3.43536640758711    0.61965448600450   -2.39047136726874
C        -3.91511031729397   -0.66519720832622   -1.95308876620441
C        -4.63772035685453   -0.78730551674390   -0.72878677206204
C        -3.77440670710249    1.77638588652277   -1.69488569523754
C        -4.77528743930412    0.53191719970436    1.36278216202173
C        -4.16276389957128    1.81269469972499    1.63728571733903
C        -4.12715660264193    2.53717916467741    0.44743389070779
C        -5.00061765858102    0.41865402496626   -0.04808425954406
C        -4.66343573879365    1.68111822796484   -0.60469246539528
