70
C70 Isomer 2038 Symmetry C1
C         4.90783385686443    1.09638429370999    1.15795540295139
C         5.15839900808256    0.58801198613530   -0.15793187450026
C         4.44250122874556    1.41756550647587   -1.07731141182054
C         3.93622494576980    2.14439094975801    1.08253978459342
C         3.63616912871017    2.35227075763551   -0.29229848772246
C         2.88363394787083    1.82251611055096    1.99334107235862
C         4.38483467571331    0.05311756338565    1.96593953914059
C         3.13856734391668    0.49800846195748    2.50790577962556
C         4.96092281771543   -0.82869265723976   -0.14129187006608
C         4.45929774059201   -1.15710985172752    1.19689854206731
C         4.35716308054435   -1.41719493573957   -1.26061097271858
C         3.85045186265472    0.82092042336279   -2.18412147353273
C         3.96516497334607   -0.58558867289156   -2.33960467367941
C         2.50656646752709    1.19662189349170   -2.59328861017196
C         2.31439015466759    2.65214814983303   -0.64862884102499
C         1.75388761330794    2.13217878338854   -1.88124036039112
C         1.57997507765289    2.22157557444263    1.70923245131339
C         1.38637892412530    2.86351583869670    0.43155788005176
C         0.46176740657177    1.49672444790224    2.26801828556020
C         2.03651764466994   -0.38394474561630    2.63354450306755
C         0.68496586176757    0.14200678563917    2.64945170015474
C         3.39510693968417   -2.02673539968449    1.32069480457650
C         2.26243151947409   -1.69440606984312    2.14854522076579
C         3.29506570916413   -2.40689801786842   -1.10389030905107
C         2.86530120978687   -2.72845650847643    0.16472783665100
C         2.70482726325284   -1.06306675716951   -2.85412539484195
C         1.82467399430649    0.02284682027408   -3.05490769798180
C         2.27798118088122   -2.18051321510282   -2.11788023342644
C         0.43269711426269   -0.16240058659157   -2.90908763351828
C         0.32505847372647    2.11261369444684   -2.08563085034053
C        -0.36721781224813    0.99355581182747   -2.64850121702250
C         0.08190040430046    3.14489104989461    0.08602556212783
C        -0.42997047293540    2.92037351430383   -1.22305019535309
C        -0.87391968236925    1.94845975378685    1.98005691064658
C        -1.00245221916035    2.93652126452582    0.99185577881190
C        -2.03891310544603    1.13562863610881    2.28608048254277
C        -0.43686216253065   -0.75287231780128    2.53292014124817
C        -1.79368380494259   -0.26786764658684    2.52075872884551
C         1.13997650686803   -2.39977520435325    1.64725375013492
C         1.47416951195678   -2.97814727861868    0.39064910069339
C        -0.16876528409275   -2.02274260092362    1.94457945042261
C         0.89745285747082   -2.35257461812602   -1.88430809274957
C        -0.04850585525520   -1.43340021929533   -2.46982586485209
C         0.50679571126951   -2.91911940267522   -0.62999399166722
C        -1.43552238338843   -1.57137191467724   -2.18735876564692
C        -1.79060886081256    0.84168732952886   -2.51725522584222
C        -2.33493490881576   -0.48338649305319   -2.49207850859107
C        -1.84482693676012    2.83753879457910   -1.15135417467249
C        -2.20367693423932    3.02486679694781    0.22867097831826
C        -2.56760640863954    1.91658091037158   -1.93320191658227
C        -3.30570689348507    1.51893630354067    1.80906008660204
C        -3.36973914734569    2.48612123244217    0.73172315025471
C        -4.39761581939911    0.58376295226102    1.59299794582682
C        -2.83178832565260   -1.17539710458742    2.23284832290674
C        -4.15771568781131   -0.77898462488973    1.81763465645946
C        -1.17410372125092   -2.63114844606143    1.13069792777043
C        -0.85308176128014   -2.88612299005411   -0.23633968383798
C        -1.84683853343346   -2.54288293302167   -1.21273280789501
C        -2.49607597204507   -2.36955510219574    1.49286903465484
C        -4.61916403682289   -1.73374628816768    0.84473373379547
C        -3.19791699464909   -2.60417157142063   -0.81082796124368
C        -3.52386324038938   -2.64112982408991    0.58576958295222
C        -3.72386137901929   -0.65939527214917   -2.17792983012661
C        -4.16203685779487   -1.78603761505682   -1.43098082257869
C        -5.10869448893657   -1.31742379978792   -0.40096789634751
C        -3.91005257632732    1.68155970479060   -1.51411530750910
C        -4.33158315114969    2.05474422950601   -0.19810801729563
C        -5.08948696777680    0.96726035341235    0.39436738660511
C        -4.52583972532240    0.44469909152375   -1.78795424327038
C        -5.34442004569286    0.04365491510618   -0.62617029662536
