80
C80 Isomer 15009 Symmetry C1
C         4.75935554288672    1.79962290867622    0.02883249240106
C         4.99811358261248    0.46223539342231    0.12906069523544
C         4.66602814759769   -0.17670816881287   -1.17009156264313
C         4.34961566551242    2.04642124606898   -1.37411246075081
C         4.03878995115433    0.78524189617935   -1.99133549859687
C         3.40525207908373    3.02746030094263   -1.33804109778257
C         3.78643942944829    2.40555005185024    0.89978833720551
C         3.14089302660603    3.35952738741147    0.07041369601178
C         2.99219385860980    1.59897763094301    1.78381438528776
C         4.41552960394050   -0.31158309094390    1.15798458670491
C         3.36237853414540    0.21632632304937    1.96882111395612
C         4.10247655403277   -1.40681812319877   -0.90118535002338
C         4.21304237874944   -1.59323708318743    0.53874576784932
C         2.89835236066154   -1.82200367098911   -1.54158256789271
C         2.71458307030570    0.50449059066085   -2.47097481501217
C         2.18989928028751   -0.83059402974626   -2.31087863474690
C         2.14706178948820    2.84607467492409   -1.98432677541882
C         1.76090463432137    1.59503079905054   -2.53831273582190
C         1.78781273489638    3.60024936595857    0.18581932866470
C         1.20694644020294    3.48466812564175   -1.13950387788616
C         1.60042201169957    1.95154063195564    1.99739077812808
C         1.04660983877758    3.03866769959709    1.25316394197588
C         0.63689890670297    1.00924861488434    2.52187685200373
C         2.39686157974212   -0.72231321323165    2.49982844947275
C         1.01851097590882   -0.34675446862954    2.74732011695543
C         3.43607649067380   -2.50308853882737    1.14622143530498
C         2.66583158065365   -2.10031848264323    2.30591378901375
C         2.22439959111129   -2.94679238222758   -0.95346070502680
C         2.63240674473347   -3.39068805460975    0.33642459222230
C         0.90136417323281   -3.27809608845633   -1.39610951710093
C         0.80609073847870   -1.08365549498858   -2.61614179215327
C         0.28180209103564   -2.40268374369266   -2.35069962184727
C         0.34774162938228    1.33366041351380   -2.64171797837143
C        -0.10642272529537   -0.00696349038293   -2.86553050107250
C        -0.13797468381085    3.27126350175321   -1.26904244276580
C        -0.61585741074273    2.29740793842093   -2.18960084750130
C        -0.35168297314945    3.25304259202633    1.16144451818295
C        -0.90552434254348    3.59608284336852   -0.10441553265794
C        -0.76897797293959    1.36337454143702    2.60405107946587
C        -1.21861605143108    2.63602589778495    2.11286709757051
C        -1.76617973340314    0.33984567599059    2.73663698683847
C        -0.02416117312160   -1.36224582232811    2.79630164068992
C        -1.41160858382667   -1.03226648468520    2.58270022772456
C         1.65430892023512   -3.05760783163987    2.40218145230107
C         1.68093533884781   -3.90158292013585    1.22967329630974
C         0.30968296382824   -2.71290621163742    2.62880727842096
C         0.04603158429501   -4.06799653894815   -0.53983583239120
C         0.36585417838160   -4.16529827587003    0.83483677571328
C        -0.50945204304825   -3.55413207019009    1.79205252597881
C        -1.33692292380639   -4.09017822754146   -0.77852197592111
C        -1.07097150317981   -2.63066944295831   -2.68691796922687
C        -1.81963774660147   -3.60516848865999   -2.00697388679645
C        -1.53582285992762   -0.23306852573681   -2.98730201358314
C        -1.96951667110654   -1.55582510282885   -3.04302498025813
C        -2.03258619683925    2.06409108050887   -2.20091095265638
C        -2.51449072726960    0.79677057957561   -2.66622146238515
C        -2.28096498646373    3.61156428831854   -0.29325161711040
C        -2.86455522828919    2.88196070481851   -1.40840846103956
C        -2.59720406622048    2.93698393808108    2.00355039737691
C        -3.11580083273350    3.55561666401753    0.81761679222355
C        -3.13890507622301    0.64988093248220    2.56990848575986
C        -3.55557606642699    1.96534457946747    2.36030338011140
C        -4.02323288004713   -0.23161314007129    1.83957797094998
C        -2.32441821917576   -1.94243121575222    1.95834329209973
C        -1.80458634187733   -3.17975131535470    1.43916804068775
C        -2.28867517407300   -3.69973035888699    0.22017216548281
C        -3.58203776938961   -1.47779357697852    1.42071428544175
C        -3.16120476992587   -3.10585414587419   -1.82106123575969
C        -3.28286794074324   -1.91274165231052   -2.56475009734638
C        -3.41514588384987   -3.08501851450835   -0.43889547157543
C        -4.08959629183775   -1.99523044373157    0.15649189506060
C        -3.82091812034897    0.43216826695461   -2.28216766177438
C        -4.12663125627131   -0.94729121810024   -2.06290218433484
C        -4.66834161433940   -1.06332396997392   -0.73736714266916
C        -4.15883095665861    2.45854357101604   -0.96344970140904
C        -4.33388076260117    2.87814494318491    0.40053624152640
C        -4.64354375488716    1.94370539631717    1.37507680722039
C        -4.90096805003406    0.59120756889040    1.03149096369414
C        -4.58376969201250    1.18722172112148   -1.32452350602965
C        -5.02943594579122    0.25678233900437   -0.31637348788533
