78
C78 Isomer 5860 Symmetry C1
C         5.44958684887370   -0.97998418390291    0.25393448511402
C         5.16704299917690    0.25965371455968    0.92408709039242
C         4.13034192052300    0.03427739330980    1.85802647237547
C         4.60983374111978   -1.99038671072862    0.79670937391679
C         3.78154315835247   -1.37468997512210    1.77895443298104
C         3.90983531030757   -2.62022311451008   -0.29132708749642
C         5.02098766620105   -0.78122714320256   -1.08602799935457
C         4.08161830259717   -1.79179201878546   -1.45040123827769
C         4.96513473382974    1.27317649412422   -0.07098890201528
C         4.68863889515293    0.58664230204264   -1.32347054107956
C         4.17943602979863    2.33897171769263    0.30253910779602
C         3.11031113499002    0.99775624218481    2.08183290637072
C         3.29524085969319    2.24198010308997    1.44172831977187
C         1.76527804403201    0.55362461443906    2.42523311828632
C         2.45500481303097   -1.79485739259035    1.98310490120894
C         1.45738770629128   -0.85089244739031    2.44605844269859
C         2.69225308453777   -3.24043813458365   -0.02492197249031
C         2.04396700854983   -2.96375836187752    1.23833482844340
C         1.85190526414062   -3.39051414505985   -1.15284631585190
C         2.95401581717050   -1.47143328635843   -2.24804110351601
C         1.93069951468662   -2.42907072861632   -2.19700675060272
C         3.53101128184007    0.92123778083013   -2.08611022446909
C         2.59370248237579   -0.10032584790925   -2.53850213125948
C         3.43757673203254    2.96942886310017   -0.73592210529411
C         3.01716686977324    2.22083845863787   -1.85412954549324
C         2.13941298619052    3.03882304950764    1.13944229011545
C         2.27693131436449    3.57996407554227   -0.16070650804617
C         0.66504805481633    1.46398873721661    2.32560909415200
C         0.86248594869096    2.69428282713735    1.60634998066517
C        -0.69242707647693    1.01553593038652    2.54731408914062
C         0.07956377782251   -1.28025955816611    2.54086357745686
C        -1.02627498746555   -0.36400144938764    2.65470433808072
C         0.71939477925673   -3.34604011951432    1.35467168982094
C        -0.20658381689869   -2.59142149740526    2.11659368302774
C         0.48804866449833   -3.77502600042884   -1.01561431749142
C        -0.02679645040128   -3.91752014293680    0.25690899316522
C         0.59407141443604   -2.13949253717268   -2.61069826192168
C        -0.29430470909923   -3.06967112593217   -2.00095509277712
C         1.20653962089775    0.21226821739291   -2.76832330705748
C         0.18898212591351   -0.82223462424636   -2.84330720188810
C         1.62125311814646    2.51784538288385   -2.08088074780686
C         1.20300781138843    3.43800256332989   -1.06917965789366
C         0.71958450262315    1.55085935366855   -2.52675084887911
C        -0.23424298461121    3.22702346355929    0.84710302370560
C        -0.08532507284575    3.39971743606280   -0.57022193532489
C        -1.74107253108486    1.90141164443646    2.22759774546814
C        -1.50531462250616    2.93806694064112    1.29706810240095
C        -3.11222343789217    1.51432064625182    2.09430559175144
C        -2.40843963021911   -0.78615146817170    2.44926186406853
C        -3.48178816501908    0.16792341432967    2.24993447082336
C        -1.52413554926609   -2.92223550109630    1.67530318120167
C        -1.40699055862483   -3.66398110392425    0.46304336054150
C        -2.62221602215392   -2.10429847076509    1.93288142419246
C        -1.63934159639224   -2.79146897444075   -1.82111630471406
C        -2.25321655499066   -3.31624720551167   -0.61943263723984
C        -1.23261807717336   -0.56214302631583   -2.77473259486281
C        -2.17122189688413   -1.57754713924713   -2.39284145627998
C        -0.68684922222492    1.81213504648071   -2.32055940678794
C        -1.08809184786252    2.82026578178752   -1.40759268906340
C        -1.66183804629449    0.80795249021701   -2.67817937655744
C        -2.65707411188163    3.05377643126113    0.44982729479657
C        -3.72406674548025    2.36182108029901    1.09630390050444
C        -2.43789020692772    2.89297626497746   -0.93229785587760
C        -4.79693305241293    1.89370708392262    0.33415551323888
C        -4.72172963907028   -0.21417697895445    1.60144338768909
C        -5.38043929147827    0.65945171181972    0.69972433493500
C        -3.74539461395018   -2.37962149846442    1.09256319641981
C        -3.49291623872176   -2.82852909859984   -0.25740233546610
C        -4.83089943254451   -1.52193344547827    1.04394187705952
C        -3.56833996338340   -1.27193442744887   -2.14824667632237
C        -5.65154242869086   -0.09211255608559   -0.54717588726880
C        -4.27458307089015   -2.02205779563253   -1.15358832099375
C        -5.27023300617486   -1.41435266988117   -0.34646846536531
C        -3.01070553412150    1.08628555627636   -2.48863637166305
C        -3.42410938353722    2.20974500458614   -1.67564492692931
C        -4.65489012710335    1.89938347835652   -1.09554978303119
C        -4.01251941969228    0.05867922690399   -2.36650194555417
C        -5.09026521567426    0.61225138259952   -1.61315865351329
