66
C66 Isomer 1663 Symmetry C1
C         4.28140756245403   -1.64505423811891    0.24172373113963
C         4.38083975970595   -0.53572141950387   -0.65751202760086
C         4.11801393641407    0.66943832559114    0.06068240064380
C         3.76296031116260   -1.15433513096707    1.45964598798952
C         3.71387715554462    0.27438490420747    1.39447962185475
C         2.56876152066266   -1.87926364623737    1.80609203450254
C         3.30329176750896   -2.55148051156651   -0.28277410978587
C         2.33127263250696   -2.80832782603825    0.72532027285963
C         3.56551968809809   -0.83186278966021   -1.79209165169537
C         2.85443388446779   -2.07524217914950   -1.54636372420047
C         2.86676170191069    0.19512296202800   -2.40156481405653
C         3.44864248584491    1.74233492339617   -0.58344469900751
C         2.91424723883995    1.52387207899003   -1.88281491525095
C         2.71955221402865    2.62540227662725    0.25047845752939
C         2.68607801224226    0.94816189971796    2.06749333865020
C         2.39695431862954    2.25209529696888    1.58771810056906
C         1.48406206720667   -1.24054310470969    2.41563597781741
C         1.60466654884757    0.18442128324596    2.68733195159310
C         0.18172118073624   -1.86583575698585    2.29372288066511
C         1.03585632391977   -3.14053696613402    0.35326307030567
C         0.00602008330825   -2.93905568307983    1.34969199442475
C         1.50115945596526   -2.23516381415339   -1.90878016502190
C         0.68908275573774   -3.03485829206999   -1.04071983135606
C         1.54588051979899   -0.02787883398206   -2.92973774858859
C         0.83700431309225   -1.20561998971270   -2.69550466741323
C         1.71013783401640    2.18340565348534   -2.29044410525128
C         0.87947325688639    1.24462571733412   -2.95430623148827
C         1.67065061730529    3.47745946107413   -0.24934986054994
C         1.14282415240195    3.25356330064106   -1.54635366101207
C         1.19436189786926    2.93500440216453    1.94238837498434
C         0.79039111423984    3.77639894981179    0.84010383482143
C         0.43540012655909    0.87646055930059    2.99127102965752
C         0.23743011900684    2.26336537679576    2.66914214311061
C        -0.98676408161172   -1.12814901004852    2.68090610059239
C        -0.85225517086646    0.24461977558388    2.96579947837802
C        -2.28085173227633   -1.52244147418155    2.24197896454796
C        -1.29006207662379   -3.35367959756808    0.98976652019095
C        -2.43132170663045   -2.72308228084732    1.53470715421979
C        -0.67162283988721   -3.16195868867655   -1.36735632575277
C        -1.58236665898436   -3.59316841905489   -0.40044337966781
C        -0.61821695888718   -1.14678854950237   -2.77707478300152
C        -1.32950845161187   -2.23798827772409   -2.27224742169492
C        -0.53081326024371    1.35186334734521   -2.96497401345044
C        -1.30647333975095    0.12439545796364   -2.91869539485877
C        -0.23584715976682    3.50357960254486   -1.76570598465136
C        -1.06177863603137    2.56460075508333   -2.49633451844324
C        -0.55969220755363    4.01793220825432    0.62073071815887
C        -1.02174805620327    4.02766229771018   -0.71626361439081
C        -1.16875253549646    2.45497753865557    2.39147422492847
C        -1.83561820709664    1.19646656707235    2.57769780814758
C        -1.57469225469298    3.32936499993632    1.40870404568811
C        -3.22000012380765   -0.55283871305412    1.72007531608827
C        -2.94908914852295    0.82369860455977    1.77971798118251
C        -3.40465333969418   -2.49905067515199    0.47659705622444
C        -2.86789286434790   -2.99959120685483   -0.70234933683834
C        -2.70262249390330   -2.14157026549499   -1.83771032441194
C        -3.85197152365295   -1.14709793465548    0.56765652551360
C        -2.62851564606893    0.21034020047944   -2.44323695901776
C        -3.29389551358541   -0.89117727811754   -1.81073276823683
C        -3.91818242251694   -0.38786167753530   -0.59837747741474
C        -2.36733379614951    2.57606284852996   -1.88574867310051
C        -2.32971693391257    3.42255377433067   -0.75519758523004
C        -2.65570672761421    2.93053834103412    0.52279084550876
C        -3.31261553918987    1.67558618849687    0.65989599146728
C        -3.08549644474301    1.40309501518991   -1.78969762692671
C        -3.69565870499497    1.02236933638623   -0.54277553458804
