78
C78 Isomer 17194 Symmetry C1
C         3.88531368048346   -1.26834023704304    2.13110241665964
C         4.50871066361908   -1.18908039690240    0.90253283298807
C         4.69630218100006    0.21966140480518    0.57881285443596
C         3.59100721785151    0.09477119626804    2.56553750775249
C         4.00632436105837    1.00037787960838    1.55720475354352
C         2.27457026239750    0.11405564442511    3.02126588742563
C         2.71410000605082   -2.05483948540293    2.28434211123200
C         1.77237964033462   -1.24098058562533    2.98092168556184
C         2.23263689028152   -2.86703655652486    1.24153381542280
C         3.93657283869754   -1.84695879659475   -0.22203628515314
C         2.85965173588480   -2.74388538499591   -0.05602460764343
C         4.39866325220053    0.35861394972265   -0.78000696422002
C         3.91772513666700   -0.91220583422019   -1.31268778056154
C         3.78280676030783    1.53426571176739   -1.17959986696784
C         3.11362710946128    2.04505410850161    1.15690219714494
C         3.20975782075894    2.41085348011460   -0.20124475119128
C         1.39777326681562    1.19968905370379    2.73068661094449
C         1.82086605438906    2.20713218396552    1.80610855084286
C         0.01676866295111    0.97609948253344    3.03358461149725
C         0.40784868879404   -1.49023337490479    2.95054025017442
C        -0.42854467108478   -0.37121967971701    3.28289792994507
C         0.84539901747248   -3.26829452207149    1.33647691325144
C        -0.08035835903577   -2.62729901566674    2.23321054013795
C         0.33206995495315   -3.96906374685399    0.24477296279671
C         2.07706152354205   -3.00527631852033   -1.22938125681397
C         0.97203577552646   -3.86898011075465   -1.03469036871444
C         2.93339035336715   -0.95069090628190   -2.30565634083751
C         2.06396599190892   -2.10524353043971   -2.34219253273077
C         2.93234411515598    1.53116574837930   -2.31819238348807
C         2.51232180400060    0.30934230184091   -2.90736705157471
C         2.14610646005770    3.10392411815569   -0.84305408940724
C         2.02436480967796    2.62526843236683   -2.18113858112176
C         0.80538918868384    3.04615761122519    1.20731848931782
C         1.02984094915037    3.55879015285039   -0.12335504000081
C        -0.93181450922572    1.98245778740208    2.66295188304907
C        -0.54026667527088    2.99520640312194    1.71803811042665
C        -2.31172111234013    1.66846039620556    2.80610365238246
C        -1.79430045134463   -0.66259433211348    3.32055349392249
C        -2.71087326395492    0.39509936300595    3.20611486813800
C        -1.50442998092062   -2.75618029332612    2.03018331712643
C        -2.33242015233852   -1.82804944467619    2.66995904293885
C        -1.09560755653675   -4.11023163829554    0.03374703732228
C        -2.02438715663007   -3.44750032116062    0.86609028693756
C        -0.03867740673040   -3.97432153507143   -2.00477640723757
C        -1.30845028590873   -4.18077284813243   -1.34916181930592
C         0.87049113662453   -2.04600668464306   -3.15435210062298
C        -0.19357699385278   -2.96886285206079   -2.96708771282769
C         1.28046482371890    0.35198671100597   -3.58083686268664
C         0.46576633058704   -0.82044171779856   -3.69149077177612
C         0.77454153729747    2.63167063071150   -2.83636573874353
C         0.41654529071462    1.47664983383651   -3.56046886526797
C        -0.07443584169214    3.92740076922883   -0.94301029036107
C        -0.25657115722115    3.37186733334914   -2.25420142393681
C        -1.58839390466386    3.56158930700808    0.92712022163757
C        -1.33729879183292    4.03073763944102   -0.35668784022251
C        -3.27737661109609    2.05218728298446    1.79217639425733
C        -2.90341491118459    2.93577945114784    0.84751074066938
C        -3.82582651208943   -0.06300539004608    2.38940931036690
C        -3.59599346220915   -1.42011983632730    2.08231511310561
C        -4.07695057728370    0.89954020278927    1.40920431088052
C        -3.17905661751963   -2.92732417555877    0.22407345709115
C        -3.89641588734120   -1.82801760410659    0.79516315653546
C        -2.25806467307240   -3.34221514666380   -1.98401854029535
C        -1.58537566149197   -2.56361359594189   -2.98427746167244
C        -3.21517048289102   -2.74097877901899   -1.19034440387766
C        -0.89955153464230   -0.41161181580438   -3.68837914618671
C        -0.93545762684161    0.99474360018120   -3.55282778215599
C        -1.93671240083927   -1.21811402921343   -3.17498161677702
C        -1.63665089140574    2.94762859540253   -2.38148703533145
C        -2.32218365483034    3.45360044546639   -1.27182099044283
C        -3.23375404775150    2.69551029841703   -0.55068135909783
C        -1.97616955197025    1.65336525518894   -2.85207405457352
C        -4.16031501958402    0.52409948356738    0.02997624832939
C        -4.16800966272937   -0.85763357629782   -0.22679830454862
C        -3.64365526735850   -1.38395660880474   -1.44889713751125
C        -2.98051852472181   -0.57659661158693   -2.38290016754845
C        -3.62165393145782    1.39496398952736   -0.99041232887196
C        -2.98209951154742    0.86201007994597   -2.16847550388561
