76
C76 Isomer 10410 Symmetry C1
C         5.15523493060034    0.51150732529318    1.41193692875472
C         5.01051183318196   -0.84964900448475    1.17456061980195
C         5.03620949523421   -1.04686460916651   -0.27761103581210
C         5.10421744666991    1.21843781440234    0.10499163722143
C         5.00684949561431    0.23958614852881   -0.91195765972090
C         4.13878964981384    2.24420309391542    0.21783957472327
C         4.26604091604120    1.13164802007334    2.28542288458785
C         3.74118604430428    2.29500915639527    1.58982741068878
C         3.15918297935991    0.42078307030244    2.83833056632118
C         3.90485183219088   -1.57621372742407    1.69761928617634
C         2.92207915210356   -0.94801946127832    2.52689072355739
C         4.10205915640419   -2.02004689097519   -0.60242524157766
C         3.44378709184690   -2.41891672730584    0.63624127072638
C         3.31895953754622   -1.89346356204520   -1.79593885808208
C         4.07911539225673    0.44454889425356   -1.95299414946283
C         3.31329022947683   -0.64195628758979   -2.46596760564302
C         3.12490085649255    2.42777774816549   -0.79088973803664
C         3.20790532068179    1.58800170142394   -1.91444719338416
C         1.80615715111914    2.88611570303396   -0.41196866704239
C         2.39493373399255    2.42227440367428    1.91396254567966
C         2.03903002717110    1.31109929646969    2.75816791536693
C         1.45069734511698    2.87166512328007    0.96574874051552
C         0.72763429923277    0.86584684946889    2.79780208709566
C         1.55105259411041   -1.41575277733649    2.46715370532035
C         0.46546029784847   -0.54001847218279    2.81673561953152
C         2.15432511946706   -2.93522154113538    0.62377287232663
C         1.20409877079263   -2.53974580078046    1.64612242938400
C         2.13460052302681   -2.62776634013699   -1.83029321793505
C         1.64767102272489   -3.27872929956718   -0.65759908799274
C         0.97800782209644   -2.22706556374534   -2.59166925380913
C         2.05782462718653   -0.13163335701832   -2.97617184060963
C         2.01059440247336    1.23223254906801   -2.62390549675697
C         0.86613005896461   -0.89745626893717   -3.06002699874486
C         0.70269464514017    2.78795639650904   -1.32800147751129
C         0.78662344115553    1.86535382653192   -2.40662235139973
C        -0.59250669529564    3.23206652193679   -0.91243530874484
C         0.08633510172422    2.75134910559550    1.36695036151837
C        -0.27736243409585    1.77779033279814    2.33349334496601
C        -0.90205594257793    3.27546994444238    0.48630022036845
C        -1.63832104319126    1.40074138698806    2.50436864710996
C        -0.89727877530300   -0.96542347537504    2.77737630819300
C        -1.94422614965221    0.02984670503049    2.83192966335588
C        -0.15818034076289   -2.92603291702240    1.50982854029113
C        -1.17788325834482   -2.29022536258571    2.30350226045649
C         0.27251224103905   -3.49249397459386   -0.82379800446730
C        -0.15182117128159   -2.85146351742011   -2.04936708638913
C        -0.58564057556734   -3.52523615802325    0.26983364862851
C        -1.44637445126623   -2.30748632323992   -2.17802370504122
C        -0.41394899978868   -0.24976224363488   -3.02713720261007
C        -0.40286774458317    1.17445525869439   -2.84952471571753
C        -1.62050390159859   -0.97422409820258   -2.67771592868709
C        -1.66977072291529    2.98893769772041   -1.80123742127565
C        -1.60441963687354    1.82225547594957   -2.63345832514242
C        -3.01046863909263    3.09562274869828   -1.36865063645475
C        -2.24056689967209    3.19698614475378    0.92510749429876
C        -2.60517992351183    2.24910132069471    1.93409934331720
C        -3.30243322130497    3.25885346422716   -0.02155698138412
C        -3.91503279800401    1.73893874812970    1.58949753848146
C        -4.31123913358907    2.27941773722192    0.34592905530871
C        -3.28020183205547   -0.39180707825131    2.61531550803589
C        -4.20744198850780    0.41956526605949    1.84221180190271
C        -2.53249616151771   -2.66460420668815    2.08967058369728
C        -3.55452690409956   -1.72912179554996    2.32471963316848
C        -1.95715425635268   -3.51898426528039   -0.09576796221247
C        -2.40728934756777   -2.85015550823050   -1.31537368175442
C        -2.91157115510649   -3.34528295900298    0.87940926818273
C        -4.76881533329851   -0.39990788894799    0.79425062265662
C        -4.49419037760301   -1.72814758067611    1.18022772785903
C        -3.63891344973283   -2.20396346357927   -1.04296578372001
C        -4.03945530161853   -2.64237611352011    0.26821170670570
C        -2.85278396040042   -0.30054709168527   -2.35677595441956
C        -2.85483905323744    1.10819096034366   -2.51669966082244
C        -3.75871877134394    1.92993359559172   -1.83542912057569
C        -4.52957979630011    1.40775007561889   -0.76016819548903
C        -3.86001455858674   -0.87232712095668   -1.46972294165228
C        -4.61647987860075    0.00277322229159   -0.57206160620073
