62
C62 Isomer 2145 Symmetry C1
C         3.79321133827906    0.27805474571034    1.46666692485950
C         3.28579248855962    1.48923199486917    1.87067674252151
C         3.18825765672264    2.35387651822297    0.70105990756769
C         3.98555738035219    0.34028663144453    0.00848744535616
C         3.48052102705430    1.58270672069793   -0.46221919016531
C         3.60036069536777   -0.88036664747748   -0.52885397264269
C         3.15090533194073   -0.94587780929846    1.78066161795243
C         3.28937367092798   -1.75660064531999    0.59795139240527
C         1.94868175132725   -0.97065353315500    2.53179665710506
C         2.05274112472636    1.53502490201887    2.58071546385123
C         1.42347732559510    0.31425617025891    2.96095632460270
C         1.98670947908250    3.06059419527448    0.82863343953705
C         1.28653871604302    2.61229534298185    2.02130750455678
C         1.24858360615136    3.30090174556468   -0.32436160765822
C         2.57873869485518    1.59010871726049   -1.56980072780494
C         1.58610849479173    2.60336353607734   -1.54211439366564
C         2.80220804661089   -0.92931404953689   -1.71900060688890
C         2.26324896690240    0.32600616458336   -2.23030444946519
C         2.09021091834954   -2.13083462046439   -1.91862759127152
C         2.46146682499703   -2.82826866332218    0.42737525880109
C         2.03972469494153   -3.12743269243138   -0.90426776401174
C         1.02740642630796   -2.08065459352109    2.30783131329007
C         1.35936655044389   -3.04371367993445    1.33611626047957
C        -0.38203885395085   -1.95310879380365    2.66746008409532
C         0.03487951007415    0.43117630827706    3.18199804865072
C        -0.84971925182573   -0.70976512727756    3.14344376686624
C        -0.11310738118886    2.63023424998739    2.06498235916890
C        -0.69835328130798    1.59117482386689    2.83217494382394
C        -0.16649494869206    3.48385475630822   -0.24269619884811
C        -0.87408250475898    3.19940544074537    0.96053542585600
C         0.36274763093167    2.48249540739257   -2.26692613717318
C        -0.70100369403711    3.12063215039063   -1.52208750715895
C         1.04294369740381    0.24758616308995   -2.93371007034577
C         0.09582807800631    1.32117363944236   -2.96210259169404
C         0.78085826730674   -2.14255752437664   -2.52862837243651
C         0.27086375602322   -0.96709747062332   -3.00941792196738
C         0.72784770009070   -3.65409879860646   -0.83289080606124
C         0.33158068160991   -3.68545798894630    0.53836012391394
C        -0.09613121280807   -3.03420206895026   -1.81783500587858
C        -1.35634689089434   -2.75808492795681    2.00057814921492
C        -0.99380209215943   -3.49286747499398    0.80759780949289
C        -2.65411381198590   -2.27736603699484    1.77688262593750
C        -2.17056130264334   -0.22254535942630    2.88883308549577
C        -2.07082046838328    1.19475554454810    2.63961274350266
C        -3.07034099160225   -0.99093498700556    2.14917489918893
C        -2.23350166631445    2.82078354092261    0.82226186033309
C        -2.83493731778121    1.80190966247026    1.67190134612891
C        -1.99959162137639    2.65836234018990   -1.63326281648781
C        -2.79043537450477    2.65111777366892   -0.46304511525267
C        -1.24033487431598    0.75997474896798   -2.95569909637571
C        -1.13069113770782   -0.66964619847529   -2.86864045281936
C        -2.27647223048618    1.41663641948666   -2.33835917026010
C        -1.43106856030406   -2.68223320879669   -1.52215389688751
C        -1.91650582778911   -3.13592627773766   -0.25571048368077
C        -2.96470206289644   -2.45281710809199    0.36366430649710
C        -1.99105853375632   -1.45134132319593   -2.06964621147350
C        -3.74767131659521   -0.39869069236036    1.00906420411567
C        -3.70073142345778    0.97332035699448    0.84317216546163
C        -3.60684558342279    1.46503146201523   -0.47668885140962
C        -3.22451483534903    0.64620093801271   -1.56758227039596
C        -3.53471929581782   -1.26364200362186   -0.13518078172241
C        -3.08104218366300   -0.75643280603947   -1.38912013872692
