62
C62 Isomer 1342 Symmetry C1
C         3.29171122793542   -2.76187921332654    0.39325873215815
C         3.81575133471230   -1.51812507543384    0.85780123079163
C         2.96587462601412   -1.02682974358943    1.89347715000819
C         2.09714363233308   -3.03292552087281    1.13305525687746
C         1.89610323328017   -1.98295697103055    2.07399889717761
C         1.04303011271036   -3.29513936388927    0.21641370162070
C         2.88856581065442   -2.55401456436440   -0.94990033539694
C         1.50121632513146   -2.91131861793868   -1.09274736590443
C         4.04531542910424   -0.67987875537715   -0.27425115989095
C         3.36329085994196   -1.28486554127389   -1.40802788779114
C         3.94996249642932    0.68869726164663   -0.06332363033663
C         2.68160866370661    0.35441119897376    2.02858033656311
C         3.35810402598839    1.22787520078607    1.14074980539390
C         1.39338557563398    0.74054196690160    2.60496263722960
C         0.58667689645813   -1.59280334728519    2.41447197442862
C         0.33909349030117   -0.22169661238698    2.80875880182714
C        -0.26941424108355   -3.06048122130735    0.60932455863482
C        -0.47954306500288   -2.38188838943338    1.86051871051336
C        -1.23333016374475   -2.92367988551460   -0.45758706412914
C         0.64079044302870   -2.17878792411496   -1.92110479196757
C        -0.78732571200519   -2.32428772519273   -1.68584450966117
C         2.53402521318952   -0.51010691654370   -2.24702170105847
C         1.18948470882334   -1.00055777641995   -2.57441144086424
C         3.50209432436056    1.47545045324001   -1.15325677586947
C         2.74230339204587    0.90118993087214   -2.19904142580117
C         2.74794947781143    2.48461690480102    0.76038921631026
C         2.82363644563735    2.64197175785479   -0.65341619140851
C         1.01297469866439    2.09927944834897    2.43428298568865
C         1.60248072617406    2.91124317919653    1.38002153270397
C        -0.32526365503786    2.49097560524211    2.52367464075286
C        -1.04883365264482    0.21418189084531    2.89855249766986
C        -1.37450338701770    1.58053408357581    2.69926768496123
C        -1.80417060862107   -1.99224862699544    2.12333494566342
C        -2.10501829887803   -0.66935258249929    2.61119824909443
C        -2.58249909390399   -2.79377924167657   -0.04707074073251
C        -2.84565032661347   -2.42496096767868    1.30922229733367
C        -3.53241548821187   -2.12824394004866   -0.85033398247949
C        -1.70875143403943   -1.45193078298655   -2.36813853283454
C        -3.08481433007144   -1.36851176643566   -1.94530555422806
C         0.24977179845077   -0.06500547030679   -3.00790958424050
C        -1.16109020480645   -0.28402039870170   -2.93080737626996
C         1.66615563190372    1.82561107653594   -2.42746414415767
C         1.65733418048099    2.86130948330725   -1.40884588895443
C         0.46763039298058    1.35347601061907   -2.86733553396105
C         0.51910780115736    3.48266313795580    0.60761194140338
C        -0.64145495857593    3.32597921990387    1.38736458645463
C         0.43840521761556    3.27748480962467   -0.79940999812809
C        -2.43649867124662    1.95730129944929    1.79860512431081
C        -1.88488056909751    2.92912266812638    0.88139896632525
C        -3.34890397867979   -0.24902510668488    2.01755784129785
C        -3.86578955369330   -1.37460358885406    1.31025325747034
C        -4.34600664503064   -1.24966827299862    0.01753464164749
C        -3.43039926946356    1.04835177720022    1.41575235489056
C        -3.73570703800269   -0.09550128333392   -1.86720714954711
C        -4.40650496153814    0.02052598310181   -0.59383421503327
C        -3.90750111103999    1.16829058173692    0.06493498374020
C        -1.78178021291746    0.99722520666961   -2.71212012422046
C        -0.76657499931755    1.96362079657295   -2.45813143963727
C        -0.83287859419133    2.84344462903010   -1.35653038725744
C        -2.03769804144286    2.74549129418520   -0.52339237100668
C        -3.00747364687931    1.08933697846941   -2.07037860916359
C        -3.10730227986017    1.91787135972299   -0.89717962901122
