72
C72 Isomer 3130 Symmetry C1
C        -4.71591167180733    1.40713382901942   -0.74526206491569
C        -4.80641842066133    0.00212473057803   -0.60429905894182
C        -4.37129217089084   -0.36578788099133    0.70660039275903
C        -4.09994644416490    1.91929055586090    0.43124773657513
C        -3.88174014348607    0.84502425864758    1.34167861240614
C        -2.96565597041447    2.70712946551983    0.06570295793491
C        -3.78670848000765    1.65957279868102   -1.81612012859130
C        -2.78708552051829    2.55163161456676   -1.36356095284858
C        -4.11234966581901   -0.59482516547335   -1.71928738568439
C        -3.38265411720444    0.43983293235128   -2.42706496522371
C        -3.49409852548732   -1.80256793835934   -1.53391041598570
C        -3.71160637015303   -1.60309034869770    0.90734074357633
C        -3.43731944545313   -2.41537382353075   -0.23428235947503
C        -2.75059033558293   -1.65295472070937    1.95288690813712
C        -2.70141626274805    0.82936014017380    2.12005477474303
C        -2.24292522568410   -0.43238220971054    2.53664610260703
C        -1.83551566377572    2.78265630999194    0.88802929486319
C        -1.70153228099579    1.87027504651300    1.99176546092403
C        -0.66784826663388    3.34989028309730    0.26290053085119
C        -1.50124377383318    2.47196785743889   -1.90304014397220
C        -0.50576694111111    3.20537252187647   -1.16723766283436
C        -2.03781483604299    0.24505432776397   -2.82922641202257
C        -1.13189204215274    1.35226360219509   -2.71708875984483
C        -2.26413812371311   -2.09904507428979   -2.22075417850998
C        -1.47785724544935   -1.09119895148542   -2.81832217078242
C        -2.32360123396061   -3.29186921904209   -0.25224237066824
C        -1.65609739891292   -3.16732700485963   -1.51783763241430
C        -1.71261919674996   -2.60943432929748    1.98454988374698
C        -1.52421755694666   -3.50258179947968    0.90008164916741
C        -0.89479628675735   -0.65825833754789    2.90425628197348
C        -0.55743057994001   -2.01204717279400    2.60902546908553
C        -0.39000964176340    1.66329666112545    2.51786269777599
C         0.07621411533129    0.34571159937583    2.89123110279715
C         0.47350588302686    3.48228218946001    1.04343506911198
C         0.59874752268468    2.62157311514609    2.19978571001823
C         1.78088682397168    3.66073283058787    0.46952766992445
C         0.76129181410894    3.24122228885036   -1.72003252684651
C         1.92923634731639    3.57313617009154   -0.92313089690482
C         0.25897859260150    1.14308858854570   -2.97486517563357
C         1.11978096931411    2.23019558129082   -2.68338546436316
C        -0.05717416298676   -1.32387638842118   -2.92499482602668
C         0.80806523848023   -0.18814947338200   -3.08854283968652
C        -0.31124443776361   -3.50696550691962   -1.71275621747722
C         0.48698354877477   -2.61649134016405   -2.52764815350527
C        -0.23566813844863   -4.00115183840992    0.69303964830838
C         0.27518457310766   -4.22490351972391   -0.62852033368087
C         0.75230422277060   -2.40050071687859    2.32455298453168
C         0.87648792854390   -3.58194029363188    1.52918282080850
C         1.45154898981520   -0.05767684703095    2.69235796355828
C         1.80033087514348   -1.40129200017661    2.29483968228754
C         1.95587303534814    2.30740018829105    2.33949097047209
C         2.69987268123214    2.95632673723048    1.28715821007992
C         2.38462914604868    0.96133026038100    2.42525597762119
C         3.62774839975844    2.02610537497706    0.75703709097948
C         3.45302152366492    0.78122861369893    1.47898409274706
C         3.01746024506008    2.85050342678097   -1.44308270716725
C         2.51299564961127    2.03983150140678   -2.54021897720615
C         3.81188845726338    2.00400485702060   -0.63230075280349
C         2.22307582537554   -0.34380760312364   -2.84618046171496
C         3.03931178692692    0.75922492882800   -2.46848864251360
C         3.87974519329611    0.71815840801815   -1.27749000038410
C         1.89070369254767   -2.73261955673077   -2.38340187293478
C         2.70747051424989   -1.57624307334774   -2.41625045774270
C         1.68175058995891   -4.27126504172624   -0.50513098064244
C         2.06166314378220   -3.82719848660793    0.85015126898518
C         2.46926448373993   -3.60026412789753   -1.39990557930824
C         2.95135191024130   -1.60551657970550    1.45631372393380
C         3.63510944716105   -0.46467393040391    0.87848960121785
C         3.94390389902199   -0.45935733818343   -0.54218834608229
C         3.63406153209592   -1.62903162899639   -1.29234823699788
C         3.06606436175822   -2.83879782403283    0.74318492237052
C         3.46067361488669   -2.82746650361900   -0.63524789454221
