80
C80 Isomer 18619 Symmetry C1
C         5.23630021110221   -0.37739785084160    1.25767739085958
C         5.08538476162548   -1.55076711398327    0.53202548914949
C         4.13826169995050   -2.40103390649928    1.23241142615828
C         4.31678085699579   -0.45039674879320    2.39254083499762
C         3.63239257862707   -1.68792058885546    2.36721479240695
C         3.57511782505834    0.73545711797745    2.42183923108573
C         5.07951008953263    0.88894518542866    0.63355104113832
C         4.07054318421236    1.60833508185430    1.37383823258404
C         5.03504185873051    0.92405098945534   -0.77224430105932
C         4.70124747398986   -1.50702347640469   -0.85197483211303
C         4.75237025194969   -0.29661116050314   -1.51481141931093
C         3.22989507532916   -2.88908017938983    0.28619838259923
C         3.53669093557526   -2.34657485901065   -1.01389638460180
C         1.90479487092550   -3.16491938428039    0.66691640387334
C         2.26170091332534   -1.73730383624284    2.67145731823200
C         1.49969020377113   -2.74114647087511    1.97217303904367
C         2.21132309093900    0.71423742515673    2.79304314061829
C         1.56680824993055   -0.53569261213135    3.05989219129684
C         1.39224600436819    1.81661711016335    2.38161578728031
C         3.16376510818470    2.48043879017450    0.75210442163523
C         1.84922282307460    2.63855857674984    1.31210559190516
C         4.25409448903312    1.93946446843786   -1.35857080418705
C         3.33263536622829    2.71554481944981   -0.64488897584304
C         3.71089485442518   -0.00638010912619   -2.48739856668790
C         3.55286182456640    1.38894584027295   -2.51076423729756
C         2.47644654353545   -2.03918172697987   -1.87729389996930
C         2.56077190341502   -0.82026583656158   -2.65523423922153
C         0.92569791277020   -3.28222032373470   -0.36690965560279
C         1.19319938723306   -2.64942391373475   -1.62340478240618
C        -0.42802363810764   -3.55799827573440    0.02510580137174
C         0.14731863978469   -2.80663031109058    2.26623399069247
C        -0.78609122950892   -3.37703631064141    1.37986401686855
C         0.13143420980422   -0.56477093451431    3.21601216652353
C        -0.51532152869171   -1.78300904729152    3.01247335142780
C         0.00756022318855    1.82628021027240    2.76793742682837
C        -0.67550968877968    0.63386558613369    3.18718531154582
C        -0.76167887882180    2.89174065098490    2.26780677140917
C         0.84568426242977    3.26224840156085    0.47983833347943
C        -0.39858876433033    3.47563403135282    1.00677537528139
C         2.15883220505208    2.87976626957963   -1.48783115339211
C         2.29668139499473    1.98323475050348   -2.60449693296493
C         0.92209564764027    3.16348903152237   -0.95878461102688
C         1.33545519354722   -0.19793161849457   -3.06977826885749
C         1.18647343933206    1.22289915311958   -2.99081294183278
C         0.08261228140058   -2.25939108086783   -2.43542626211150
C         0.14051450726871   -0.98944084077386   -3.11807991889164
C        -1.46149796146694   -3.42737381749511   -0.91085849733255
C        -1.19057001096615   -2.79320034492747   -2.15348176979326
C        -2.83049383448886   -3.16261060568669   -0.53376806943917
C        -2.08817044978506   -2.89531120695488    1.74267543541203
C        -1.90988767722387   -1.88092145078440    2.71954444193329
C        -3.14542398154130   -2.84677466849139    0.81370932811035
C        -2.11279882540375    0.52983267290165    3.07669627707769
C        -2.74604762263381   -0.75010803733383    2.79432378439017
C        -2.15508288467395    2.83367820582242    2.29745743567482
C        -2.84097516581640    1.67723904207384    2.66204791216852
C        -1.58871853810380    3.54392354205693    0.17793840825756
C        -2.67347753033850    3.28934972735162    1.00870578185648
C        -0.27054048677513    2.80556161292593   -1.70557253740203
C        -0.09263161901220    1.81475228835291   -2.71546461656403
C        -1.56584237110054    3.01588005069952   -1.14468557556959
C        -1.06564631298715   -0.32752706433023   -3.38497268238048
C        -1.20633738242413    1.07604495903726   -3.10185990739540
C        -2.41072858651577   -2.16824328828965   -2.57601046732888
C        -3.43827167085072   -2.44397346950695   -1.60463162398777
C        -2.34107494000769   -0.91863034796653   -3.15702266308115
C        -4.42560612770150   -1.48657465924452   -1.34289290931826
C        -4.14961025635478   -1.87314549543284    1.07689657069812
C        -3.94723285751983   -0.83772161799364    2.05735567644680
C        -4.85937870746886   -1.31457260590416   -0.01498197290561
C        -3.97842607282001    1.58022436329158    1.75965051978471
C        -3.75722120700321    2.47110318107510    0.64319159888639
C        -4.56863734367221    0.36162783206292    1.53649680506365
C        -5.05934634588354    0.09304790439075    0.23684566341711
C        -2.72982444801646    2.27432963865304   -1.58585961668344
C        -2.51008043975458    1.34342912204834   -2.62405691609012
C        -3.26393089020952    0.12282022261991   -2.75434576839909
C        -4.30292650402101   -0.15089010085154   -1.90560381762191
C        -3.85452740152526    2.01236199552929   -0.70175560053546
C        -4.62617217054090    0.82916744750671   -0.88294570026404
