76
C76 Isomer 18369 Symmetry C1
C         4.04122604097111   -2.01537999175341   -0.06463052352310
C         3.99975080747722   -1.15430108268456   -1.16951198181735
C         4.38741163932041    0.15136838379044   -0.67721871815233
C         4.11242072658416   -1.18707120812880    1.13768766958613
C         4.33824241447807    0.13625305165731    0.77787645727873
C         3.06358874278049   -1.58923930619144    1.99685032006669
C         3.07905438409780   -3.00864934984538    0.14889388103904
C         2.47622290110326   -2.77950500636374    1.44809820534258
C         2.25035253105982   -3.31815959804740   -0.92121081852597
C         2.96276209194976   -1.28082092885758   -2.14662344945711
C         2.19335044128510   -2.45065934291232   -2.05516463426958
C         2.32189126017223   -0.08085266667820   -2.67160167074887
C         3.96358321076645    1.25946115539836   -1.35302584365285
C         2.90498966847421    1.15058584266276   -2.34831498073117
C         3.74242674177340    2.44305614177126   -0.59073981321553
C         3.69162337526325    1.17361826608435    1.51214822906959
C         3.54813504879920    2.39986070030032    0.82396976753299
C         2.28665027914301   -0.60849811059548    2.66007317351650
C         2.69072078962627    0.77401795679334    2.49199150687805
C         0.94631105942762   -0.97999938833126    3.02928516395048
C         1.14666584114697   -3.10914978429026    1.69443347227652
C         0.43330340980283   -2.27066317645855    2.63635549712346
C         0.94145567343460   -3.81038513290491   -0.65970175300421
C         0.42273591124619   -3.83814407658081    0.65226912433144
C         0.84231700615711   -2.49172253733204   -2.54228270130821
C         0.10388760739620   -3.42144908154856   -1.75403175838362
C         0.92715731756476   -0.08111849691698   -3.06017589160806
C         0.22715019679463   -1.34433592766133   -3.07699440706843
C         0.14918848708880    1.12680181940751   -2.98508137467311
C         2.10263872940938    2.32208828832764   -2.20821898403587
C         2.65457231202805    3.13309821031101   -1.17013564196299
C         0.72260903687818    2.30763647379477   -2.40410707282994
C         2.43764743088250    3.27094914431570    1.09445657692393
C         1.83409395068815    3.68293949250638   -0.14904322519559
C         1.73610270526573    1.73500501131954    2.85375318092483
C         1.60048940815316    2.97471222024850    2.13894101139137
C         0.00785971250486    0.05131592326687    3.41274262223901
C         0.44416788811427    1.37806049880368    3.33170500458116
C        -1.42536297820337   -0.16961613907290    3.35651649242741
C        -0.95528025980281   -2.50577207545429    2.75108394079152
C        -1.89388357255279   -1.44307035785234    3.04329918649355
C        -0.97934708040272   -3.92839349950530    0.75094161649515
C        -1.60604467695435   -3.42475550962068    1.91481565646154
C        -1.29568266300770   -3.31427550154652   -1.59429083494983
C        -1.85067621944666   -3.65609051504858   -0.35064396205799
C        -1.18882931002386   -1.36389235754913   -3.07348527116265
C        -1.94203022323059   -2.31679959832279   -2.34893307467223
C        -1.29037491338773    1.08488175443145   -3.09124024769459
C        -1.94652115933035   -0.15319355160744   -3.15891930397412
C        -2.05779754086664    2.16649014623531   -2.57317051070973
C        -0.07836556560372    3.21236718416362   -1.57891242081342
C         0.45161209729432    3.73533359349981   -0.32101277082787
C        -1.44399332958036    3.15620990040346   -1.71071713200507
C         0.21548473631318    3.31896873237962    2.06229357643868
C        -0.46550078555178    2.43915352795887    2.95954127429962
C        -0.39458712109401    3.71663300272419    0.85306579610000
C        -2.31534227569784    0.88490983412127    3.03875878359869
C        -1.80304636409912    2.19863384167085    2.79422083605282
C        -3.41928599271185    0.70091534845551    2.16269765496330
C        -3.05609327453629   -1.63470706897437    2.23800023863014
C        -2.87624910636287   -2.86248323917097    1.54252012883709
C        -3.00004181874551   -2.92574696138269    0.15536198422104
C        -3.72155136300143   -0.56248684551613    1.60792345409206
C        -3.14048107476539   -1.66387469517021   -1.87272589596582
C        -3.19611423304481   -0.38814171267506   -2.50479495175219
C        -3.59464522632544   -1.83628413556081   -0.55550444806891
C        -4.07168877883870   -0.67534625322422    0.19651521158384
C        -3.34748852734075    1.95050308632514   -2.07939561157098
C        -3.86954538626727    0.65033894660833   -1.87975777160415
C        -4.28912463396866    0.51953123311967   -0.50896376010860
C        -2.33900369414215    3.42357468517359   -0.59950579343797
C        -1.81297956788154    3.51586857173795    0.71449377762755
C        -2.52387601471344    2.81436805597802    1.71943965979469
C        -3.58623760849593    1.91115461498105    1.40097392610336
C        -3.51048539002825    2.69921899291303   -0.84656963168681
C        -4.07629588270998    1.82215057769696    0.10936457816231
