80
C80 Isomer 24797 Symmetry C1
C         4.74105706203485   -1.66229777992944    0.94552206208029
C         5.00245546018565   -0.36021448964399    1.26528836767604
C         4.22287743738163   -0.01732964692450    2.47560447347461
C         3.88786366381277   -2.20845440643273    2.00440417395968
C         3.42442027127988   -1.12614963803160    2.82294053285684
C         2.96748896220914   -3.03249748451114    1.39823326074245
C         4.15593358248417   -1.99864950186657   -0.32395083065134
C         3.19059040577125   -2.99577398130619   -0.04097162056972
C         3.88559516128417   -0.99316697674607   -1.29568837878914
C         4.85491672778831    0.66553566590079    0.30290397674090
C         4.37176869096406    0.34440963915728   -1.00750829418054
C         3.67248494444013    1.23803935734429    2.25310055917780
C         4.26967492229327    1.76218689505397    1.02893453251496
C         2.30824443461647    1.49380150388079    2.55211285225462
C         2.02906428184067   -0.94205996351499    3.04443893188392
C         1.49463510026160    0.39297907546634    3.01357595514383
C         1.64402152903551   -3.10240877552436    1.90568271958674
C         1.14142521363544   -2.03587043647361    2.74095671518091
C         0.77813338507008   -3.79947724134086    1.06596742634498
C         2.14315037637785   -3.26917606900230   -0.91840251166510
C         1.04187178278981   -3.93556962332895   -0.34168961136989
C         2.72294849315207   -1.18046796963055   -2.14736242818945
C         1.94605770134131   -2.38730101309991   -2.04245569381980
C         2.08017244491111   -0.03325351626655   -2.75681267824441
C         3.76064304958751    1.42295075433478   -1.69315551894382
C         2.62521433294560    1.23206579465817   -2.54747041944635
C         3.63565271048714    2.77246250997156    0.35623746237229
C         3.60189221980272    2.67931112043882   -1.06354880075789
C         1.69031886803947    2.59930589182520    1.87107378144751
C         2.36574051907622    3.25992814534792    0.82289395917420
C         0.27409329081394    2.76420825533841    1.95006577532334
C         0.07470465016287    0.56712671728006    3.09370621953182
C        -0.47383588781266    1.86082651341224    2.77803315472019
C        -0.26742216288534   -1.85651635548207    2.84382569919931
C        -0.80432918721017   -0.56419579747901    3.16188231172949
C        -0.61771838118292   -3.72850732212743    1.25617879825145
C        -1.13725994574297   -2.84300971861580    2.22695723713062
C        -0.21895955320635   -3.96869843676105   -0.98366446288769
C        -1.26373100127936   -3.91749042489048   -0.00230801848927
C         0.67834698980883   -2.45488001050011   -2.65967741149533
C        -0.38980421175379   -3.26814293928711   -2.16247481747050
C         0.69819670929546   -0.06241584764900   -3.19681327165188
C         0.07692467520998   -1.30778685856551   -3.26351118715682
C        -0.15988889728865    1.10327145876836   -3.07472340224445
C         1.75733409850031    2.39305479194940   -2.42333633137746
C         2.36399738267155    3.25423408749047   -1.49145409117825
C         1.62377784907085    3.62678999930476   -0.35112939489320
C         0.36423159333865    2.30344576785086   -2.47759517484108
C        -0.40796596728078    3.45747377225864    0.89644283332202
C         0.22746223938827    3.56560584575126   -0.38372577598330
C        -0.43600189400400    3.05373914360999   -1.54201728773266
C        -1.80364494600330    3.47528270045174    0.88662404956682
C        -1.87108743138046    2.03192768941148    2.83091227592713
C        -2.49603970716696    2.96041062005355    1.98615834924149
C        -2.24618953762628   -0.36675392682698    3.12653538390260
C        -2.77767019017576    0.92429764414043    3.01767504691764
C        -2.50145204610917   -2.60464928633007    2.08876528593837
C        -3.09620223267468   -1.41763501699044    2.66159040215648
C        -2.51797194918769   -3.34964433205399   -0.26693513343737
C        -3.20391567776492   -2.93224326179218    0.89166842781351
C        -1.65915704706727   -2.62433364334280   -2.42132364130367
C        -1.34624725446843   -1.46393026904692   -3.18953853014448
C        -2.73219822529612   -2.62584400171573   -1.51173018811857
C        -1.54373278823991    0.93717337406858   -3.04914353072132
C        -2.14941407711014   -0.35110464525800   -3.10610505791490
C        -1.85023521495969    2.79843191459738   -1.45487431501996
C        -2.55110199483226    3.14492987236702   -0.29608981796203
C        -2.40640305705292    1.76703359468435   -2.25618631662211
C        -3.74279689847543    2.38838281984833    1.52096055086084
C        -3.97679685015994    1.19510266546752    2.23638842493727
C        -3.74427938446810    2.42313316840236    0.11783016294076
C        -4.27191270379759   -1.15283285972640    1.95677493025066
C        -4.26814503225455   -2.00113895504815    0.78575328546348
C        -4.61476813711750    0.16144993150563    1.55507040595684
C        -3.63456093118374   -1.47607496587439   -1.50499450208482
C        -3.31719635895858   -0.35956819395788   -2.29230355453891
C        -3.51155214850896    0.99471578117974   -1.82450654221044
C        -4.18755243853532    1.27404540943901   -0.60811818331312
C        -4.41454048445223   -1.19427474820092   -0.34031009260046
C        -4.68470137848574    0.17072043908523    0.11693606632680
