78
C78 Isomer 6399 Symmetry C1
C        -5.25134487592352    0.77120362025224   -1.44073823141167
C        -4.86580615332498   -0.54012575825120   -1.74563498291027
C        -3.68695324424817   -0.51882822573817   -2.57870066603993
C        -4.30389431215060    1.65432021435456   -2.02322234736353
C        -3.29892569060025    0.86119539853888   -2.71199162730788
C        -3.85593834859694    2.51792467944445   -1.01264198752575
C        -5.16051064413693    0.92717729979153    0.01498583442441
C        -4.37429267670051    2.05124344893847    0.27466731592306
C        -4.79989955621230   -1.25944313937185   -0.50143139060245
C        -4.77790331470812   -0.30276445048807    0.60152877871822
C        -3.94397211240683   -2.30524690773568   -0.45944950307672
C        -2.71622516255132   -1.52571688038508   -2.44597805029147
C        -3.02511060532778   -2.57896246712222   -1.54401709679257
C        -1.31945988552975   -1.21441546141786   -2.65004669655446
C        -1.94728259173097    1.20847637358012   -2.65290205153050
C        -0.94672194075601    0.15926784226663   -2.78892869159078
C        -2.55249002638866    3.04388811810609   -1.09338742862405
C        -1.58472937175808    2.45191299938408   -1.99033486210693
C        -2.11846505866768    3.65066666029985    0.08714594529333
C        -3.50723909724413    2.06004872957862    1.39109482696210
C        -2.60603431021976    3.14559919842943    1.35483584299113
C        -3.72440423782588   -0.37374324617393    1.57005622946156
C        -3.10315835397747    0.83179247898919    2.02665639577565
C        -3.25637992668496   -2.62494632772255    0.76409629235701
C        -2.98290553791784   -1.61175410122649    1.69782323146639
C        -2.01601960212264   -3.39950184940313   -1.02626419329123
C        -2.26977580162498   -3.56892907146909    0.39398523299382
C        -0.30833536992939   -2.17127216644732   -2.29815796557812
C        -0.68710545833249   -3.33513310218050   -1.50798766231644
C         1.06945795712182   -1.80490029264260   -2.39451994379246
C         0.42599806716207    0.52703917502975   -2.76915285615324
C         1.46146873195164   -0.46686392314285   -2.74154670271284
C        -0.22710821955823    2.75677239188862   -1.80807247618140
C         0.75252396426200    1.89297543682964   -2.43789994565973
C        -0.74753581686237    4.00136887456859    0.24442135408416
C         0.19345028027878    3.61432812258924   -0.72314464605292
C        -1.53655466067211    3.18262086183977    2.24110837804083
C        -0.42077528230419    3.85878096315744    1.61583027771434
C        -1.77005934559336    0.77557510224778    2.63676921834894
C        -1.05453406252383    1.97517334954040    2.80613228417928
C        -1.67386778949477   -1.64809160362548    2.33929690057860
C        -0.99347644482978   -0.42839100433937    2.67714808161671
C        -1.22991710275710   -3.82057809479688    1.25206372590733
C        -0.89663151455912   -2.80730372198806    2.22612014668928
C         0.26283753454028   -3.98732859459164   -0.69086860816797
C        -0.03991753826944   -4.30065295918596    0.67141946863426
C         2.04425257817047   -2.62490916292569   -1.70413726901076
C         1.62573302866002   -3.57771943116725   -0.75473922679906
C         3.32291266828110   -2.12079353396832   -1.46527625501678
C         2.86250014604437   -0.06005176480460   -2.68820773285678
C         3.81983856935420   -0.95105800882576   -2.11516235374292
C         2.08377557051087    2.24531378354170   -2.31506817393893
C         3.16412460889295    1.32522124762296   -2.57171672567548
C         1.54557624077947    3.51645305268146   -0.26987703148682
C         2.48134229418040    3.12120034429384   -1.23899244516675
C         0.75031390247266    3.19633111117541    1.98074864178733
C         0.38248190964945    2.01507130300452    2.71398022330147
C         1.82902232694482    3.16574982750887    1.08979647441344
C         0.46770941230657   -0.38873008539424    2.69461731692009
C         1.15946368021303    0.86689529035572    2.59440925096499
C         0.54232127558102   -2.77045185307113    2.30500725333487
C         1.03580905544354   -3.78867229834710    1.44812281522230
C         2.11137957625716   -3.48354411707453    0.59249637324492
C         1.24406939448500   -1.55673453825272    2.43522809706464
C         3.86003582343883   -2.14615161352300   -0.12103829255792
C         3.00068334484725   -2.47565747016589    0.95643459871889
C         2.59677441297049   -1.45240311836400    1.88522154944757
C         4.88763594868134   -0.46737969577652   -1.29954329172767
C         4.74314110905410   -1.09896430195226    0.01302626623301
C         4.27153154394797    1.78011878568910   -1.79667470658343
C         3.75717608208178    2.75514518754069   -0.84219706433726
C         5.05857502165072    0.88710536996280   -1.07329482308710
C         2.86347433545158    2.21401566292183    1.37882387344226
C         2.50783670010696    1.00026445241057    2.05847732350008
C         3.26660674151690   -0.19249080283262    1.79743879756779
C         4.46023618134386   -0.08817483618652    0.98173277345106
C         3.96846396194936    2.24055988181550    0.48102579918347
C         4.81812706443839    1.13498334190778    0.37317281566434
