78
C78 Isomer 5145 Symmetry C1
C         5.71810578620894    0.43930927652373    0.96858701219435
C         5.55854525235262   -0.46350199814455   -0.12144633253679
C         4.83346339269180   -1.61719731767139    0.31600555780590
C         4.96791320335145   -0.06692702962877    2.06847029800249
C         4.55544208160201   -1.39766945363037    1.72431548506858
C         3.96280990461997    0.88353462931563    2.39689823594520
C         5.16298010866036    1.70027030171324    0.57445890625775
C         4.09380666620142    1.99238743355434    1.46597133173956
C         5.13680359309373    0.28428360950790   -1.27031395419779
C         4.91929852936971    1.66422782270067   -0.83289743388598
C         4.20800350181435   -0.30221248412184   -2.11084971125046
C         3.82496819924711   -2.17479395647939   -0.51067846747623
C         3.61012787053264   -1.56262327283095   -1.77346102626861
C         2.67524558439881   -2.82058182917499    0.09656517011294
C         3.36084647850765   -1.83175261822873    2.24381186205303
C         2.52416552615161   -2.71630617239490    1.48658462238154
C         2.67729959609253    0.46119850950416    2.82657889034702
C         2.48174444546110   -0.92998850957283    2.94382597610557
C         1.50658725795686    1.26630384571916    2.55328166914201
C         2.92639341965429    2.62117372145080    0.99420058986937
C         1.66188848975464    2.36085403159440    1.65112620162760
C         3.81572664223265    2.35036943128938   -1.30678792729461
C         2.90661489772911    2.96224474930655   -0.38357075952556
C         3.17882948718279    0.49438837363561   -2.76074888095092
C         3.00501499308457    1.81628874672379   -2.38585523114840
C         2.31099902648304   -1.57698682424174   -2.35724355627303
C         2.02554251393516   -0.31559271796560   -2.96575381316815
C         1.45743668260271   -3.03947061467153   -0.64232295894574
C         1.25941626480173   -2.36070414441149   -1.87899659869724
C         0.27517405085532   -3.46288419163044    0.04776862764121
C         1.21739754567353   -2.63914255747631    2.06645797461931
C         1.16699875710761   -1.47713447928066    2.87375969250359
C         0.08657947359687   -3.09710402658733    1.41919393552405
C         0.18626362462245    0.71813652847460    2.76671455025116
C         0.00317184464346   -0.69177234286134    2.88970901919484
C        -0.97773587266712    1.48431366222181    2.47235256064969
C         0.47794183655169    2.87899148057501    1.06060669155909
C        -0.77697617390891    2.64236975050688    1.67311647043630
C         1.64981739578467    3.05762157152261   -1.04041080882520
C         1.67346200557229    2.31024677736256   -2.25775297214645
C         0.47008712524229    3.17768808046987   -0.33709975139070
C         0.70689968007693    0.19812835941269   -2.97446262108526
C         0.52697108662290    1.57221010617640   -2.63531422710311
C        -0.06797120301762   -2.02849779549233   -2.35497817188389
C        -0.39443405407829   -0.69260931111185   -2.79077707851226
C        -0.88964266197785   -3.60894266863874   -0.71129578391473
C        -1.08955935126856   -2.84976441274597   -1.91062355658235
C        -2.13825772524436   -3.67768739881510   -0.06043519233045
C        -1.18448970307328   -2.59745965718417    1.88919398478611
C        -1.24274172490033   -1.32228704447497    2.53073250713029
C        -2.31618852640917   -3.06154592396643    1.19136049867551
C        -2.29966412559239    0.89232772002266    2.55646599521587
C        -2.44493262438731   -0.52833147314790    2.47159957811638
C        -3.41697866367632    1.71957616892452    2.18034275844161
C        -1.89249546303975    3.21238777868371    1.01254907521108
C        -3.17688795340753    2.90613073449306    1.42053399052093
C        -0.73287103213221    2.96774011363955   -1.09664422934972
C        -0.74475163300130    2.00941489886690   -2.15936205875056
C        -1.89980018400954    3.25456183594724   -0.42959936154110
C        -1.72775391271368   -0.18171666793186   -2.63072142167057
C        -1.92455610276021    1.21638022094453   -2.33749234628134
C        -2.46623848801269   -2.45030104592774   -1.97807255730940
C        -3.14541142229830   -3.11850298341749   -0.93585957362343
C        -2.80458906976398   -1.10603058805701   -2.32802062902006
C        -3.54283394158462   -2.30728660207823    1.17319595002998
C        -3.64852349216195   -1.09906738316684    1.87550579611512
C        -4.09306741030845   -2.43487188480603   -0.16244132452714
C        -4.61126978338716    1.15572617874235    1.68452251488844
C        -4.69965238502594   -0.22441372547718    1.42590318313902
C        -4.03254997375367    2.86520028633708    0.22897287068330
C        -3.17394333762453    2.81357176193857   -0.90518909029712
C        -3.19123358011544    1.70511511816138   -1.81135350546024
C        -4.97651464665260    1.87674780770576    0.44137977913918
C        -4.02706789062462   -0.62515135025541   -1.83229575576875
C        -4.70200771985925   -1.32977385946392   -0.75827163331038
C        -5.23508483878982   -0.37434430588250    0.10842941178300
C        -4.26774567513347    0.78822434902353   -1.64427874339412
C        -5.17436147576319    0.92128685035419   -0.55537017921012
