80
C80 Isomer 18763 Symmetry C1
C        -5.17463137216682    0.33393267041153   -0.08140632673784
C        -5.03076947312045   -0.36140174458551    1.11105874727736
C        -4.60319569040974   -1.71223068771568    0.79557565461229
C        -4.76496013355966   -0.55337262974702   -1.16537718060890
C        -4.38877580597062   -1.80190473229309   -0.61690886227265
C        -3.85010527483514    0.14469394304159   -1.96014679969255
C        -4.54042856541003    1.59454271851638   -0.27097142628011
C        -3.76309330529625    1.50949168592122   -1.49118104858682
C        -3.97035549419025    2.20987670934884    0.84568756270208
C        -4.16841051397039    0.14161951251635    2.14526165331779
C        -3.71180702265680    1.43981240799160    2.04630315306220
C        -3.53377316144949   -2.01926654228883    1.64456176525969
C        -3.20905685748018   -0.87943060284511    2.47071596184136
C        -2.53484432355392   -2.90125137606184    1.21926177115264
C        -3.25076346137188   -2.46647310879383   -1.10901293873415
C        -2.54580719021037   -3.30089237086068   -0.16497436515011
C        -2.70585704454484   -0.49691862942365   -2.49750905541515
C        -2.48307384170910   -1.88254155171362   -2.17854967081158
C        -1.61150702344027    0.35550468453822   -2.88017970174488
C        -2.60818680797182    2.26577116422043   -1.68393149223587
C        -1.52685113062403    1.73339883561292   -2.48931872959338
C        -2.85583341202839    3.05780390364191    0.63994469368950
C        -2.30019921904331    3.22481649979296   -0.64943608255098
C        -2.37473282808336    1.75101200829474    2.47161437473354
C        -1.94616528456026    2.88684241759808    1.73644322010742
C        -1.86227815975541   -0.59573464454964    2.77045864389966
C        -1.41617624931231    0.77710384492073    2.80838056792197
C        -1.29958009315471   -2.86318650275576    1.94833073433343
C        -0.89322322523046   -1.64254593485862    2.60796411657865
C        -0.32872231774448   -3.78136136338901    1.52004697370193
C        -1.43599410258011   -4.00410613749568   -0.63509837115289
C        -0.47828671164175   -4.46371909951579    0.29259115565251
C        -1.20698361868357   -2.47426778945566   -2.50343704548297
C        -0.74459038864973   -3.61084176226414   -1.82236791624009
C        -0.41060894528898   -0.28068200085193   -3.24180557703637
C        -0.21301116515753   -1.66760477893126   -3.08355215846378
C         0.86059953315623    0.36597485982370   -3.16698384887699
C        -0.24855153377181    2.40213844919383   -2.49628710833477
C         0.99008831189635    1.69344776050927   -2.77527539177753
C        -1.05978757506890    3.84320532596416   -0.67644666143298
C        -0.12606656935937    3.58240738620270   -1.72644433643353
C        -0.60560679542484    3.25494585594748    1.66402803454866
C        -0.31331128814673    4.06949449732046    0.53636637118228
C        -0.00777444057538    1.10559357328093    2.72015556015951
C         0.40380784402485    2.40554100583401    2.24337480960928
C         0.49178497659632   -1.32725576955984    2.76322258695357
C         0.95212657151605    0.04756410089892    2.82610636571985
C         1.05612705774185   -3.51832113113754    1.72635540711252
C         1.44537710936648   -2.35220853587676    2.41655168211341
C         0.80497064990457   -4.46444164519330   -0.34850790413080
C         0.67185509219494   -3.84302464498426   -1.59982156749890
C         1.76567402153244   -3.95958297062467    0.55811531186091
C         1.19301253686246   -1.88662386097408   -2.84812746757768
C         1.84902598699993   -0.62389011388810   -2.91022266878454
C         1.66709104470653   -2.90725036521007   -2.02247490204919
C         3.03855709089313   -0.35432563466311   -2.22202069188074
C         2.28231995636265    2.04693514451321   -2.22099158452329
C         3.28036437916822    1.04802220101689   -1.94694075627344
C         1.14544697354053    3.97716273998126   -1.25312383286311
C         1.01566308204083    4.24947509655441    0.17850501018885
C         2.30928314667670    3.24732952899680   -1.45257828158661
C         1.77502760824184    2.64272482809412    1.88495707170869
C         2.04670790835773    3.60423908875400    0.86400018704231
C         2.99551886601643    3.25522037029833   -0.17516858177674
C         2.36511405416902    0.36038076760940    2.68006636465544
C         2.77177261136671    1.64300551551109    2.15036817362364
C         2.78946931404973   -2.02661024680667    2.25960385675266
C         3.28305177499078   -0.71677696451581    2.55759376966187
C         2.87036793339330   -3.23261007062097    0.09195119013959
C         2.84831697928630   -2.64254669148935   -1.22282056814188
C         3.60539974560996   -1.43296436545768   -1.43794007697397
C         3.53291415647000   -2.55459146072566    1.14472431061819
C         4.50508931328852   -0.58865210103358    1.84370788750773
C         4.58121115927239   -1.07186277348472   -0.45416083008114
C         4.54086894468452   -1.65279718056873    0.83753783325573
C         4.24151957378461    1.32374145046597   -0.92419328075178
C         3.92700985853901    2.32563185617314    0.08157244681314
C         3.98567100978034    1.71703353836451    1.39368327480150
C         4.89007685099314    0.30113436566197   -0.25166342415181
C         4.79445438972810    0.59149820387320    1.20061025881916
