80
C80 Isomer 13980 Symmetry C1
C        -5.32015021041445   -0.37808346032207   -0.19946693525420
C        -5.07564092567685    0.18734602080344    1.02614730118575
C        -4.41575511267081   -0.81489588869399    1.88018573723351
C        -4.89879141482974   -1.78844638742915   -0.11587424540602
C        -4.16906971373032   -1.97659079351169    1.11204793117929
C        -4.30045470623056   -2.08786489065557   -1.31833273401172
C        -4.72854110921253    0.21346896250087   -1.37067436464946
C        -4.23065038624888   -0.87116474301605   -2.13427857972536
C        -3.93180756110009    1.38461547782098   -1.27401670096094
C        -4.37924793167988    1.41510840094240    1.14820629152717
C        -3.84458748451205    2.06998330241482    0.00547429820640
C        -3.40709821189852   -0.16887115889485    2.58694578613768
C        -3.52773306756405    1.24686627217795    2.29875348158175
C        -2.11624122276607   -0.75200029238704    2.71620910785443
C        -2.85124107254325   -2.51047410755147    1.10120408954928
C        -1.85254376452984   -1.96827676218800    2.00905322479835
C        -3.04061728186896   -2.72409166257361   -1.35825776385916
C        -2.35609782585937   -3.02179017153938   -0.15334982113537
C        -2.96600172344217   -0.85349758348582   -2.73836949749074
C        -2.28852159390962   -2.06527966339291   -2.39582557050520
C        -2.78501104155336    1.47427157766949   -2.16769973136883
C        -2.20627535730502    0.32861903196052   -2.82509139403353
C        -1.91169059680570    2.54744150119838   -2.00393582040971
C        -2.75766027517607    2.99149662155131    0.24940623792006
C        -1.92166209521960    3.36039464882194   -0.82204583760889
C        -2.43862215531713    2.04561296990584    2.47444691937106
C        -2.13245131259564    3.06479946430273    1.51470971426747
C        -1.01713401545298    0.11790603902946    3.03539595653714
C        -1.22084560845285    1.51381471980299    2.99342743892822
C         0.32898260509231   -0.33973521032130    2.96803809215934
C        -0.49188686591284   -2.40633378389791    1.91772615965505
C         0.58027551437670   -1.68416126946887    2.55627700054975
C        -0.98065307702927   -3.32430150362632   -0.29183691193852
C        -0.13893204122854   -3.32019154759485    0.86908396021591
C        -0.91426781936980   -2.15230939395896   -2.44848470207790
C        -0.34938583358257   -3.12129562202842   -1.56057024537178
C        -0.77859824900926    0.20781227495742   -3.04315628968709
C        -0.12007367497879   -1.05077133080432   -2.91848412607072
C        -0.59916505677795    2.55333681653901   -2.55628937561079
C         0.04272542966915    1.38201757603129   -2.99547696609219
C        -0.61390358484912    3.88050367996829   -0.63952906722551
C         0.13135397775947    3.54101211961271   -1.81756295375879
C        -0.74636808030785    3.34929797893411    1.65935554634687
C        -0.18786995033111    2.40257479650675    2.57804288460470
C         0.05651988951034    3.81677612916204    0.60778847272252
C         1.39473296045680    0.64437158049543    2.93702709208107
C         1.14164257375149    2.00943841306149    2.52285272804551
C         2.70082517702347    0.20461283508688    2.85236340785416
C         1.95213140600149   -2.11393794734607    2.39063718248687
C         2.99752557938079   -1.18898374480054    2.66443850896607
C         1.20121830145988   -3.69629211527756    0.69210688805681
C         2.26272091717400   -3.15676053653683    1.49628960991368
C         1.01310928548416   -3.32305706015643   -1.68867104831958
C         1.71080595850730   -3.88242801295027   -0.61277200423274
C         1.32175076647994   -1.14057032885334   -2.79337217324232
C         1.86261580287154   -2.34551411978115   -2.33093200952554
C         1.48946047388621    1.30210247188721   -2.93138876743239
C         2.15992527164905    0.04152427871912   -2.76555587834409
C         1.48535718334171    3.51477106013256   -1.79176267265678
C         2.17675134938558    2.47664934105222   -2.52884106887823
C         1.48349094110256    3.60664785194851    0.67379228205542
C         2.05618468872142    2.73674808419568    1.67310116135220
C         2.19485688886924    3.74659178541297   -0.54802862777172
C         3.70997960076000    1.00518093347601    2.20539903971040
C         3.37822259898193    2.19339890646546    1.50715325160909
C         4.23032977223311   -1.24502048999904    1.98283500601424
C         4.65050564939510    0.09659094735154    1.67720039599375
C         3.45132520915216   -3.08333994241423    0.66876275538334
C         3.05935634801111   -3.38790510322828   -0.65188573282722
C         3.14298812101121   -2.41259649126820   -1.67030892288388
C         4.36297018848341   -2.04402210228709    0.81991520910885
C         3.47293085680249   -0.03881691942445   -2.15961757025190
C         4.97150128605866    0.12345731336116    0.29238707839641
C         3.92252900701491   -1.24538159240779   -1.48757527629068
C         4.67608723630790   -1.17161210284509   -0.28700848556067
C         3.44331589265033    2.38176473464360   -1.95393643429430
C         3.44800165499267    3.15651463592005   -0.71263898560326
C         4.07350196314017    2.39261745412757    0.27553527418106
C         4.08160876360325    1.16494952869008   -1.72247845618060
C         4.68513192139043    1.26465729827661   -0.40733875519231
