80
C80 Isomer 14728 Symmetry C1
C        -5.40467412857018   -0.03617297178519   -0.19275103874479
C        -4.94546964862948   -0.96533492884506   -1.08322602543466
C        -4.23328283078655   -0.27901363382139   -2.17665996458400
C        -5.04851111236141    1.28495653989346   -0.75987850988970
C        -4.15821783343209    1.09427781309421   -1.88978858998062
C        -4.64841049612875    2.06399573137874    0.28597126439072
C        -4.95792847356383   -0.08527275381093    1.18440787123880
C        -4.64746188840102    1.24660755358791    1.51568980653476
C        -4.08954619818404   -1.12068925724156    1.64224806103339
C        -4.15754376538747   -2.06783839683748   -0.65893986903166
C        -3.82619527057350   -2.20773137427102    0.71859503649489
C        -3.09188296821484   -1.02983772987795   -2.45117804929857
C        -3.11815262288135   -2.21514599010586   -1.62987631361315
C        -1.85763141284287   -0.39572764083732   -2.70038127115043
C        -2.88790972333245    1.73844948928406   -1.94135531899926
C        -1.75586702653724    1.01546306748597   -2.49785088966584
C        -3.42852939332056    2.78773080659977    0.23136350840170
C        -2.58830571432160    2.70534238094112   -0.91589196457325
C        -3.49471280534252    1.57552275021241    2.22104152134224
C        -2.82210363395459    2.63424484380300    1.50944489014844
C        -3.04062096581618   -0.78552517756859    2.59456056129927
C        -2.70301459648718    0.58790906408512    2.84365939597954
C        -2.02102604066058   -1.76517900083568    2.90186217835252
C        -2.71419193144694   -3.03647687067957    0.95036610966017
C        -1.91497043405879   -2.92725439306510    2.12561836705229
C        -1.92790453003736   -2.89013747816087   -1.35325179146795
C        -1.86323599911503   -3.50051737825156   -0.08784762937707
C        -0.68394462647746   -1.22232834473412   -2.65667755395515
C        -0.71789442560460   -2.49437348279228   -2.01436172957736
C         0.56504355340938   -0.59505956493581   -2.94721540149262
C        -0.44265380833075    1.59882111973710   -2.45181568632307
C         0.71548178100717    0.82586121563234   -2.82743826685487
C        -1.25648092172633    3.15367967206752   -0.73351426447670
C        -0.26021415840144    2.80537350534138   -1.70801984072255
C        -1.47432457428695    2.90314770496359    1.70450538764043
C        -0.80928601378543    3.49639311337184    0.58648018992986
C        -1.36845855413011    1.00381435464810    3.22696252172206
C        -0.74938020863086    2.19625279231405    2.70936652623517
C        -0.82982406829887   -1.35805296904115    3.55450817666208
C        -0.51579259569631    0.01448042295059    3.72120117535036
C         0.41016475592633   -2.05855404060118    3.42678799830485
C        -0.63969454542484   -3.53487415627104    1.86240998415325
C        -0.59968468206702   -3.84563075806089    0.47973565772391
C         0.53815376152770   -3.13649127685325    2.52825718348536
C         0.50940131832157   -3.11841397649778   -1.58317097666431
C         0.58028623492148   -3.76318058399414   -0.27524290909102
C         1.70218861191786   -1.43339389178022   -2.89931329300096
C         1.68548878303471   -2.66330574133154   -2.15488759506156
C         2.98953956220911   -0.88147356669039   -2.78541581206519
C         2.04926220650351    1.35266816271927   -2.59060553147062
C         3.16495350235426    0.46830811081882   -2.49044167652910
C         1.04697836674186    3.29214558756773   -1.49848653289144
C         2.20392988950660    2.55718521885528   -1.90424679915857
C         0.52326270208161    3.84256135698079    0.79951227441743
C         1.37782203834607    3.96092937149819   -0.30758223043445
C         0.68473823301723    2.38039983280657    2.77114839605901
C         1.26785535861329    3.31309281635914    1.90597295243867
C         0.91044764539902    0.16013331575860    3.74983815767456
C         1.48629804823986   -1.12612422113762    3.57839890711597
C         1.53785804953557    1.32632779127299    3.29461142763968
C         2.71721619011509   -1.28719936538068    2.89884273234612
C         1.76206683173666   -3.28699583449968    1.83273677050759
C         1.77922053094657   -3.66638845964400    0.45837043062973
C         2.86866755708447   -2.40436275825632    2.04814784989967
C         2.96569951241268   -2.76517073263677   -1.46279670400020
C         3.76486564105036   -1.67851608546877   -1.85745538076084
C         2.97487964736892   -3.13265769403260   -0.12535021862362
C         3.64262000429003   -2.31778511749624    0.84264595629945
C         4.09989003721864    0.53849915412217   -1.38978632280859
C         4.36494667434021   -0.80594958039431   -0.92977720766001
C         4.30434085131511   -1.11447665676408    0.46296519081278
C         3.23769145140703    2.72274957187643   -0.89485257446323
C         2.71029817669170    3.57526573340350    0.08708124021729
C         2.64910067528702    3.17554488973544    1.44444799330456
C         4.05338351645766    1.62113479574315   -0.50143014636025
C         2.85843352692689    1.17969079659950    2.81272364475770
C         3.41526005685065   -0.10421202567696    2.54972574421093
C         4.20796130665550   -0.02002134548430    1.35614242548104
C         3.39707746332464    2.08319245945062    1.84242330978324
C         4.16516057315532    1.33069429949073    0.88998310352572
