76
C76 Isomer 13678 Symmetry C1
C        -4.50251598840082   -1.21670693175689   -1.17474462622745
C        -3.75999517596451   -2.31250982692809   -1.54007911162783
C        -3.52327101723319   -3.11370905136885   -0.33434836069600
C        -4.61793325445368   -1.22841063163135    0.29961876024215
C        -3.86604904858961   -2.32031957880129    0.80039820124625
C        -4.42029070405937    0.06017137649045    0.75443171698118
C        -4.11287165795341    0.06680585233369   -1.58723684343493
C        -4.39809809852820    0.89963313764777   -0.43786134247495
C        -2.89123058038673    0.28418752572543   -2.28360577734035
C        -2.51655246258135   -2.13869210854428   -2.20585498623336
C        -2.02469478325396   -0.84718629294926   -2.53145316296739
C        -2.26014677363899   -3.67448713805288   -0.45684856255570
C        -1.62308406047146   -3.11330871799912   -1.64890174715193
C        -1.50194626859672   -3.77644069398579    0.70988138763647
C        -2.87934661225843   -2.04730755679046    1.80788526685405
C        -1.78014788065736   -2.92382468434460    1.82270359555010
C        -3.48885453094216    0.37281106906256    1.80462337040175
C        -2.65779090283467   -0.69518131549077    2.28870993976708
C        -3.08380610242036    1.75380180781887    1.90372885691397
C        -3.90586523929686    2.14615770953361   -0.39340949804671
C        -3.45855338213404    2.68948558504901    0.87904899428360
C        -2.31688327014209    1.60436131390669   -2.20809674513912
C        -3.01945634153557    2.59083581571811   -1.44370548023542
C        -0.92496027824665    1.80169022537813   -2.45953489473686
C        -0.58905834666840   -0.66091158558011   -2.60661970472112
C        -0.04266758588206    0.66498930102670   -2.68095431078912
C        -0.25810582888789   -2.95036817663648   -1.70593812717074
C         0.30448581726410   -1.75572733438851   -2.31973707161344
C        -0.10260416622162   -3.90194670642311    0.56828305730535
C         0.50086753243346   -3.64477743932189   -0.68562814480189
C        -0.49636502035150   -2.56755126073749    2.37606158296271
C         0.51528777670504   -3.32121448160624    1.71606704443801
C        -1.34937304411470   -0.35961317544003    2.82514459504022
C        -0.22028282692504   -1.27442594813796    2.81480022496463
C        -1.88125685826265    2.04901205029021    2.57265381038457
C        -1.02620936334577    0.98565906882792    2.98420646239988
C        -1.04100252666833    3.16808613845744    2.23866170456911
C        -2.63903282437275    3.76055067146651    0.55026593364860
C        -2.37341106886117    3.70356153939724   -0.89189140152682
C        -1.39969914062450    4.00532702873684    1.18709645803602
C        -0.34247957830193    3.04940542438066   -2.01443153397410
C        -1.02138354206763    3.91725622119703   -1.10147893216893
C        -0.41169251014978    4.24765827093038    0.17196817656143
C         1.03082988658524    3.17374923405921   -1.95698908902005
C         1.39286039064493    0.83245215859161   -2.66561806582681
C         1.89810325458654    2.14557892320747   -2.45979776582504
C         1.72038040317579   -1.57040533667914   -2.25724815060896
C         2.30479010010272   -0.26227674600997   -2.42473349149081
C         1.86278428649082   -3.45847423230159   -0.65666678689983
C         2.50996338084793   -2.57793767681738   -1.61115014559245
C         1.86190673447024   -2.95665240893158    1.72464228398373
C         2.58638686479329   -3.39203124849650    0.57430117907604
C         1.16413125046940   -0.82482987601805    2.78417889965635
C         2.21136636606947   -1.70997158423644    2.36165414500082
C         0.33115122840259    1.44646705909728    2.91477264115972
C         0.32581477813944    2.77385739071369    2.39708343482930
C         1.42298839724695    0.59048975786989    2.76833391615129
C         0.93771493139381    3.97819088024869    0.38194022302350
C         1.66901275043982    3.79720112848139   -0.82275877084610
C         1.36111581076089    3.22031831642110    1.54804839047188
C         3.14714023097684    2.35776522931076   -1.86580548264048
C         2.95174163998410    3.27952875281073   -0.75099705996191
C         3.63445720154112   -0.01030039575518   -1.88589828334775
C         3.95059191858792    1.30189358557826   -1.44863561317912
C         3.78676232382819   -2.32825554389467   -1.11561730835127
C         3.82580693882214   -2.80828604106189    0.26071240330733
C         4.32460066832841   -1.01447999394202   -1.14605543717081
C         3.47626916459677   -1.14270967178117    2.02668139572774
C         4.30903103879350   -1.76844196142736    1.04100448692984
C         4.82063815105752   -0.73609955558279    0.15777897252423
C         2.62249391444005    1.16580712595394    2.20171450343040
C         2.56844575620268    2.44560920428954    1.52043409121754
C         3.43797979205319    2.63330079638271    0.40429351140268
C         4.28322733558649    1.56777604953187   -0.05739514724269
C         3.65583684673479    0.26744142795363    1.90374356037378
C         4.53200378372971    0.49989875597414    0.76716978518495
