76
C76 Isomer 6501 Symmetry C1
C         5.01847060506383    0.16992318722714   -0.66680690059995
C         4.61876418240054    1.47929294251818   -0.23008275372956
C         4.02325594056830    1.34658332009181    1.04278900276377
C         4.61783935941142   -0.78517070995756    0.32722326510212
C         3.98696431769706   -0.07203563116262    1.37216731358763
C         3.83666478192907   -1.80211896004028   -0.31386609403906
C         4.25478183252233   -0.10492472848871   -1.81856842950506
C         3.57436645351182   -1.35335544903869   -1.64791272893852
C         3.84008559172646    2.08674932149736   -1.27560418995643
C         3.50657123397054    1.05424799729325   -2.22969413585539
C         2.85695423135430    2.96774954410932   -0.89183564511372
C         2.95249919434063    2.17862717623228    1.43473486496184
C         2.55284562406847    3.15980584927430    0.49518042826257
C         1.96507347728536    1.64958670539743    2.35868144649245
C         2.88461591291729   -0.63227655322655    2.06572164651063
C         1.89795672159105    0.23261676259928    2.64755859025410
C         2.85576232041586   -2.48924198353538    0.40965753839673
C         2.53525181094857   -1.99124550164411    1.72707189657704
C         1.84823701108487   -3.15506828400715   -0.37091162524404
C         2.31353381344753   -1.54279254839739   -2.22009848138522
C         1.55756312086835   -2.64618801171257   -1.68267419208522
C         2.19393797445345    0.90774822207352   -2.70002833026049
C         1.65044785261490   -0.42945561646776   -2.85607905406255
C         1.61628481150975    3.02769626567926   -1.61841341250636
C         1.24983850243589    1.99720044709654   -2.49586606830758
C         1.22649928580938    3.68370507505808    0.53418130953303
C         0.63619407808183    3.63011695763520   -0.76396781886374
C         0.79210161690111    2.38877959440781    2.53924259014065
C         0.42051389392266    3.43450285850909    1.61895075289420
C        -0.42723425993764    1.83510907011197    3.03849646488716
C         0.63815614332010   -0.32312441560676    3.10516830978672
C        -0.56513061993558    0.46315843253065    3.26179551778157
C         1.39931020700790   -2.52684821710218    2.33927283060346
C         0.45214474993711   -1.70475392270471    3.01637246905699
C         0.80691799177855   -3.80289694322187    0.33878610825778
C         0.68172319607058   -3.56835787640243    1.70758134433013
C        -0.53954677512595   -3.91645203943307   -0.18613254013934
C         0.26703008723398   -2.81175936129263   -2.19583117311788
C        -0.78899155577088   -3.45363196637351   -1.44808110869352
C         0.28607313584912   -0.55655596514560   -3.21392858927021
C        -0.32736195705222   -1.82088030193810   -3.00915791794280
C        -0.14797326623918    1.84580014407399   -2.77569559362659
C        -0.57841261641222    0.59921845563806   -3.34174379815014
C        -0.73333493307337    3.44385358198629   -0.94702452487517
C        -1.11182483470871    2.70103149009372   -2.11706039903385
C        -0.99234124727368    3.46165878781514    1.46559328735961
C        -1.50916924580960    2.61564387453825    2.50989339589184
C        -1.61327713436051    3.49164782805368    0.20510610315210
C        -2.76585331522360    2.09685904024691    2.42817777478831
C        -1.89051950433717   -0.11846307819878    3.10938624166373
C        -2.97092966216365    0.73468444179838    2.82786385675071
C        -0.87356107781050   -2.27218760619597    2.80474942670135
C        -0.73054616790104   -3.41354674045824    2.02098034991243
C        -1.49400656505351   -3.59859288146592    0.84649162821409
C        -2.02490315410404   -1.47987997637864    2.66657290330290
C        -2.62087869782100   -2.78681829184839    0.60598417219935
C        -2.98489265954026   -1.85885174242320    1.64719639390193
C        -2.03754527414928   -2.83084678084518   -1.75727506399152
C        -1.75093395418311   -1.94250784658196   -2.85675048370694
C        -2.97084712368308   -2.47638269718459   -0.77117113541539
C        -1.96288916813549    0.37777805188747   -3.47525941788929
C        -2.56311194559200   -0.89038243255101   -3.14031303876753
C        -2.48458627386328    2.42286137720911   -2.25045604361410
C        -2.88352366344789    1.34868491290244   -3.04290405553862
C        -2.97107489728704    2.98787243308981    0.11022948301388
C        -3.58213379071108    2.39538013102223    1.26493706237176
C        -3.42483070465703    2.54384833121516   -1.13845263524673
C        -4.05662824573680    0.26874173502221    2.04936036775447
C        -3.99988704973472   -0.92815848991066    1.34135426653065
C        -4.46514081037828    1.32008308022913    1.12969678405212
C        -3.88515306883049   -1.38593100044828   -1.08129283089308
C        -3.73835525919812   -0.67300861821409   -2.31957818102880
C        -4.00745421250758    0.69682303510515   -2.39022580072612
C        -4.36425648276637    1.45434578074529   -1.25505561477745
C        -4.46166353111419   -0.67856316435459   -0.02018481610216
C        -4.75452635841986    0.73324009194420   -0.11922256474165
