80
C80 Isomer 29169 Symmetry C1
C         4.19279037913852   -1.19907909450839    1.71905140298077
C         3.23740212829739   -1.00050004242736    2.75760486067506
C         2.26966941262909   -2.05683823414486    2.65688864399038
C         3.79777546574902   -2.31152110199944    0.95215592663341
C         2.58518359756245   -2.82920112880360    1.48801015711305
C         3.91528706924598   -1.99534234296775   -0.43376133613143
C         4.54889374580604   -0.15238736486064    0.81455071577570
C         4.40447329590667   -0.65771095393830   -0.54388575762745
C         4.12979428735292    1.12649224283886    1.10344367404344
C         2.82571095009487    0.31676483724189    3.06325899149234
C         3.29517905799577    1.39117123800164    2.25766343230010
C         1.52433836503694    0.45966855339151    3.58127048550391
C         0.92906376281053   -1.87688733500742    3.02917942947053
C         0.63133353765047   -0.64697016578264    3.65662427723719
C        -0.11811753531394   -2.59397992825983    2.33457097754898
C         1.58101793199018   -3.31821437821476    0.65159996783101
C         0.22012963167413   -3.34142527385672    1.16142024645810
C         2.96171823711781   -2.52762184751346   -1.31563374689753
C         1.84669755557799   -3.30072461543667   -0.78104026133207
C         2.78074297089663   -1.78050561479180   -2.50254105609043
C         3.97322101635830    0.18444685257422   -1.58998084501912
C         3.25581874530698   -0.45313295351554   -2.62968208469272
C         3.72635562948668    2.01083841557218    0.04354070715696
C         3.67665063911053    1.57681229402819   -1.29923566900276
C         2.44307029148123    2.46834939338215    1.92157988627493
C         2.74680479003627    2.88734890829838    0.57822973094537
C         0.73912161988253    1.63159156108505    3.35308133409373
C         1.12295757492723    2.61335641943366    2.42885508100391
C        -0.70062719289212   -0.13769123781785    3.66111946421715
C        -0.63767069058664    1.26732290127276    3.49202042019696
C        -1.49600987073133   -2.18707766926569    2.56651102329292
C        -1.77747135193837   -0.90501110541895    3.20199610650932
C        -2.50368478416369   -2.73356185140888    1.77349850201654
C        -0.82632167939901   -3.74659137280296    0.26295623113151
C        -2.17682551777420   -3.52501738432146    0.62290399347968
C         0.75473788305874   -3.50183882565424   -1.61954503242594
C        -0.54881257309510   -3.78694844399656   -1.12151154409121
C         1.54583425777201   -1.86428948653142   -3.23051030864989
C         0.58900842533132   -2.74917793263274   -2.83787842248845
C         2.26781214063326    0.26737275144644   -3.40690782933180
C         1.15132963117949   -0.57349161856033   -3.69665441616697
C         2.75383099808003    2.27196403986860   -2.11013752446784
C         2.03983287418691    1.59445059700484   -3.17323007221450
C         1.77272969103498    3.51249895657162   -0.20554085847763
C         1.88666743201777    3.26241100414171   -1.59609527232007
C         0.11139248122761    3.32993052345897    1.66948077068959
C         0.48568139139277    3.84748574358092    0.37749352739229
C        -1.64902118062232    1.99110843574141    2.85387874813488
C        -1.28090243802754    3.08658530206783    1.97895416587495
C        -2.91024808664246   -0.14788258811255    2.83795326203460
C        -2.84328557999082    1.25910562889708    2.65234609688075
C        -3.70954339547982   -1.97756922499511    1.45364760294280
C        -3.85326164479749   -0.67766526262908    1.88579761335046
C        -3.14610080566123   -3.25337328327216   -0.37242344093005
C        -4.04200769580883   -2.23911674418463    0.10761107316938
C        -1.48558528651177   -3.24472688448866   -2.06243677931965
C        -0.79104130303625   -2.40611421002756   -2.98375737018441
C        -2.76105726995981   -2.89624736113503   -1.67836537409738
C        -0.19019158450798   -0.13172936005248   -3.60408521477693
C        -1.20944602093528   -1.08395887828841   -3.23366946850198
C         0.70890482368135    2.10176685473636   -3.26834893114753
C         0.70101976943015    3.24993741993020   -2.41209797332967
C        -0.42549442967837    1.27009159036015   -3.38917711517691
C        -0.54049068027013    4.16786836225259   -0.54262627727224
C        -0.46961799748511    3.72115607433063   -1.92338609167297
C        -2.26814993758790    3.47143651855043    1.03843919038042
C        -1.87717928670215    4.03585187878266   -0.17651031065748
C        -3.70013925147768    1.56543436350817    1.53787370458684
C        -4.21994415543734    0.35586266320133    0.97063104044374
C        -3.40357582670174    2.61884002283380    0.73225953708614
C        -4.09622242224198   -1.20242920571404   -0.84906918424797
C        -3.25953470615560   -1.57175315123898   -1.97159276480532
C        -2.46274101901793   -0.63064865305770   -2.63675641322757
C        -4.16733984332596    0.13840057694985   -0.43091139158811
C        -1.68252121036725    1.72267495127872   -2.81464232817544
C        -1.69403790907204    3.03258762033030   -2.26843893287936
C        -2.59974306393751    3.36451190171334   -1.25581811571676
C        -3.47402224094988    2.43544646685014   -0.70953328288158
C        -2.67278076438745    0.78199836634276   -2.35341070194031
C        -3.58121525547757    1.14601187978530   -1.28812250238236
