78
C78 Isomer 6007 Symmetry C1
C         5.31779410861780   -0.73586859441530   -0.10691601123249
C         4.69008004774465   -2.01128315668681   -0.15871955745821
C         3.88951233018349   -2.17528553921548    1.01392894546735
C         4.82681832882340   -0.07487937793658    1.04025845831494
C         3.85498585093231   -0.90424273773835    1.70977332077501
C         4.41018464048110    1.22586295010218    0.66702250409689
C         4.84603468507803    0.03249690136510   -1.24184225187843
C         4.39406779450919    1.28537026823698   -0.77526749241069
C         4.01284142860501   -2.09202959844659   -1.41629431462076
C         3.93241130082138   -0.75160539757954   -1.98270813876293
C         2.91568182321224   -2.89637627926661   -1.48031305868937
C         2.73751483952803   -2.95630874018678    0.95367746283064
C         2.44762389382294   -3.56255964857633   -0.30022665808024
C         1.61756282099882   -2.57341553817738    1.79378001688190
C         2.63293113691153   -0.36423417598412    2.17518727664896
C         1.47223683002227   -1.22106829912460    2.28064902335473
C         3.38799883189557    1.84556386372076    1.39059110659307
C         2.42778719993965    1.07048178733934    2.13792023912280
C         2.95496550050620    3.01605598766177    0.73158964713792
C         3.30271289427175    1.91055078121922   -1.42482232564530
C         2.84120181827951    3.00880074534400   -0.70757953875488
C         2.65668938851419   -0.24192830197393   -2.42478632125867
C         2.37238868747844    1.14203044571332   -2.23998301700660
C         1.75012075107153   -2.50539550206173   -2.23647357278411
C         1.54394626511006   -1.15601296209027   -2.59327007362521
C         1.12394442355950   -3.97010088804614   -0.59012568401902
C         0.67953330099774   -3.30477842746870   -1.79290907476964
C         0.46553000097343   -3.33279000579312    1.64442852851683
C         0.23561902206239   -4.10206730453530    0.44637408256305
C        -0.80234443616158   -2.87923905990960    2.09062586613429
C         0.15353986571797   -0.67674149387072    2.48754210056776
C        -1.00780225962017   -1.53240512554640    2.44076865946501
C         1.11183648404944    1.60717000766434    2.33308467114605
C        -0.05394524841896    0.75775007717361    2.45530954443029
C         1.84175342767054    3.67596329767088    1.21631466517820
C         0.89331342705741    2.97566563699903    1.98816841894680
C         1.62371942805935    3.65569762241711   -1.07204835473737
C         1.12746917342778    4.27597823179532    0.09238898112496
C         1.03068807256530    1.63639942266282   -2.42348950291021
C         0.74207323066052    2.98669287759553   -1.97158699855344
C         0.17825413545040   -0.69433507373097   -2.68180856396971
C        -0.06159507985710    0.72890287165603   -2.68885808528467
C        -0.65446979225757   -2.92063870889202   -1.95336421209876
C        -0.92107736141979   -1.61245522889020   -2.47961408600764
C        -1.15200459816808   -4.07848804449488    0.15576769473316
C        -1.79571696955319   -3.58901578418194    1.33626559872885
C        -1.60522796245379   -3.59291352796273   -1.09783248155094
C        -3.07961857420390   -3.11924666487467    1.27161794857325
C        -2.36090410551621   -1.00635038316505    2.32397618810994
C        -3.40068019794508   -1.85257090388245    1.88731505267829
C        -1.37280019721137    1.29133223974212    2.24504811805601
C        -2.53587053235653    0.43078767052781    2.20429801493891
C        -0.40432484442806    3.43738960233878    1.58363256707365
C        -0.23190142530356    4.26175413706721    0.39196277876062
C        -1.52391025858981    2.63636960874660    1.71295598445806
C        -0.59674657090099    3.37440715301817   -1.85206232857326
C        -1.08030309649423    4.05180819316437   -0.68355351788161
C        -1.43512695923673    1.19417421539246   -2.66131304296204
C        -1.66042932936302    2.53645820281851   -2.31610240311347
C        -2.29471108122806   -1.14632686180187   -2.43992613936245
C        -2.56369735024314    0.27539163303562   -2.55762250394486
C        -2.93389835568734   -3.15846614675948   -1.14723780727295
C        -3.73270621284493   -3.18287176334259    0.01490391499563
C        -3.29233213513535   -1.99090704537869   -1.91967423040571
C        -4.52394817440594   -1.33179329309452    1.14290926415719
C        -4.66082329004449   -2.08867720787356   -0.05096979937406
C        -4.48345842113883   -1.44690097143961   -1.30398715168434
C        -3.74895602726565    0.92258078401803    1.67780889054563
C        -4.71298935071743    0.03973500264195    1.07052637385883
C        -2.64594654117447    2.96849552119077    0.84729483641058
C        -2.38366571222109    3.57860410413612   -0.40159401987401
C        -2.83374298319700    2.90505518898891   -1.58595022914644
C        -3.77153455916793    2.14328183392712    0.90211911362514
C        -3.81728881694755    0.75594129410856   -2.12567258547534
C        -4.72584751306394   -0.08669732851593   -1.37936978573871
C        -5.08313583806254    0.59392083258098   -0.18382751237494
C        -3.90626201247756    2.05859693238095   -1.51451306044681
C        -4.54662301512788    1.92275316674925   -0.25557036526090
