72
C72 Isomer 567 Symmetry C1
C         5.58350401543898   -0.85053290736485   -0.35774309300874
C         5.39537361309561   -0.94954202822423    1.01764969811804
C         4.92318430005044    0.34105453138795    1.49608588677596
C         5.26783406146391    0.51126487514176   -0.79006251366465
C         4.95412095697994    1.26729710892170    0.38721032042743
C         4.30858269402612    0.41221437121550   -1.81548757163901
C         4.70670541397375   -1.77187863434160   -1.03594511519568
C         3.97064100886226   -1.00760970091847   -1.96837096423670
C         4.35133966673694   -1.92716272954538    1.24768882257375
C         3.95812949118307   -2.47902230228089   -0.02069687284695
C         3.69353828960720    0.12390091868010    2.14745028170380
C         3.34134351791172   -1.28791442341203    1.99615522465947
C         2.64420645011663    1.08627794661211    2.10346030705402
C         3.90433380616226    2.16730639546240    0.28908701023425
C         2.88034547989454    2.21184887972898    1.29923688804786
C         3.25855075461352    1.36093181550997   -1.94942778455816
C         3.21000007119834    2.35764709361726   -0.95734545351176
C         2.01427763213124    0.99610053425725   -2.62203107252738
C         2.65846209131031   -1.36451967664682   -2.30144712913046
C         1.74880973091660   -0.38497885450899   -2.85758798302181
C         2.61208498049835   -2.75413914136826   -0.25064064696458
C         2.09141218958833   -2.46104715430942   -1.56716962682789
C         1.99234735114006   -1.64476077157584    1.83427671128643
C         1.64855137222945   -2.57670560080312    0.81184791446864
C         1.27007547080050    0.66352659066023    2.32398391041605
C         0.96448014152716   -0.71992328571468    2.24117222071439
C         0.18912660157183    1.59511273269545    2.11417568694923
C         1.74491697878030    2.87268978123389    0.73226855145115
C         1.94700172548952    2.96837678934150   -0.66336054607337
C         0.45791309420521    2.72454634885171    1.25923651925932
C         0.89957940433553    1.90753826934875   -2.58808048932635
C         0.86260357247592    2.91399603963614   -1.54821712922036
C        -0.35164517068927    1.49544102151741   -3.08098229632482
C         0.41061162819423   -0.81558089289308   -3.18270997426848
C        -0.60016704083377    0.14271116860802   -3.39897361089598
C         0.76331598455053   -2.77258729445425   -1.79067156717362
C        -0.03381228325212   -2.07998816999004   -2.73481418591428
C         0.26863559535625   -2.83628239202258    0.56443826946705
C        -0.10253844541169   -3.19723034093856   -0.73510179323726
C        -0.39768319141313   -1.14499430030285    2.16686899267251
C        -0.75969023363480   -2.29522802668917    1.41040763619885
C        -1.15114649299225    1.19189470359342    2.30365174584674
C        -1.41906925738241   -0.20207479033713    2.51235773153405
C        -2.24027756061797    1.98012828986304    1.73832564455852
C        -0.56642203574793    3.19061294259561    0.41867199809459
C        -0.37381079744018    3.27963211624770   -0.98288967150836
C        -1.92519158198587    2.84433460617509    0.67212839599580
C        -1.61524987425007    2.04788782604978   -2.63410627792481
C        -1.63514842547458    2.92460989764216   -1.57780841363752
C        -2.63187063114537    2.76363399513256   -0.55695188617649
C        -2.00371844994883   -0.13402947839156   -3.18743373031597
C        -2.64168392423340    1.04352813491445   -2.71652233664324
C        -1.40859436476013   -2.33398844572398   -2.41878827609442
C        -1.44500505638945   -3.02956394838972   -1.17880298585744
C        -2.42231750418296   -1.39404572242937   -2.70994574778907
C        -2.14575459022223   -2.55429386075196    1.09893889067297
C        -2.50120980657684   -2.88980385539234   -0.26624832249575
C        -2.74034186626892   -0.66920248439768    2.52861316345588
C        -3.11152537190816   -1.88717523929668    1.87973031914625
C        -3.54859688862644    1.48686715025780    1.70801377782828
C        -3.84117207236943    0.25014618249857    2.38034309848180
C        -3.76248356701691    1.92189459037939   -0.70688396448940
C        -3.76161295589999    1.01343787382735   -1.83977923482633
C        -4.36101900494819    1.52394371833711    0.51898330926824
C        -3.59624775345202   -1.44954171353765   -1.93429356867421
C        -3.69811265187790   -2.34234056863905   -0.81036132531010
C        -4.36645745259530   -0.26306001561507   -1.64364055141466
C        -4.47260585446807   -1.70310679712576    1.40563991019400
C        -4.93663785552207   -0.38191230040214    1.78784310661371
C        -5.21477307284225    0.36380684048151    0.57502143299307
C        -4.70084454074213   -1.83995027073767    0.04151762841363
C        -5.14150150929352   -0.53142396095072   -0.49315729284968
