80
C80 Isomer 1532 Symmetry C1
C         5.65335589428931   -0.13445991441383    0.04756729449837
C         5.41228595956872   -1.18686651737707    0.89027008678488
C         4.60692076127604   -2.16648801132844    0.16979487816676
C         4.95124144863464   -0.37958342574469   -1.22882110974217
C         4.27771785943840   -1.64170694391360   -1.14312721672679
C         4.17250633787031    0.74439973192724   -1.48572919160517
C         5.10665314069704    1.07172482052275    0.65152899274043
C         4.33545428324185    1.66181831508687   -0.34483448014064
C         4.63763558683596   -0.69448410983636    2.04450761091664
C         4.42819183694787    0.72104464181522    1.88050969880070
C         3.54062744079218   -2.44588172329793    1.01380473834193
C         3.50720251802569   -1.49758246229374    2.14207605191653
C         2.32374815763367   -2.84289051394766    0.46555221790696
C         2.95637047284403   -1.75480755147319   -1.62656970822995
C         2.08171527159896   -2.65178414684115   -0.92003400929940
C         2.88154084562999    0.64932935506276   -2.08629368091244
C         2.28204167200934   -0.62990577701840   -2.24931543581678
C         2.05535761699643    1.81619007757827   -2.04308770675092
C         3.24788655267252    2.45137050609640    0.01541759335572
C         2.36606369034654    2.80504349776592   -1.05361817633708
C         3.15706878338920    1.26707936085195    2.14913868461802
C         2.72789889117865    2.37120941516750    1.33220994463262
C         2.24076624454347   -0.97605474977577    2.54728947864107
C         2.07992983577208    0.42998547011696    2.65496715450144
C         1.21290162549567   -2.83533514629223    1.36152051405693
C         1.08511418628376   -1.79447755902497    2.34096051668200
C         0.07425118290481   -3.42027476133466    0.86076430688733
C         0.76495518251485   -2.86095688081481   -1.39930628021188
C        -0.10372037408156   -3.57172303884398   -0.55767009784521
C         0.87021648362926   -0.69810148437084   -2.55289611864673
C         0.18739822210198   -1.94196593951886   -2.33908517235231
C         0.71273415205792    1.76053909201325   -2.53474833333554
C         0.08967571630963    0.48553486518952   -2.74376648413648
C        -0.12455005075040    2.88124277596846   -2.34124894413396
C         1.43092050550793    3.77352135081068   -0.71628485955139
C         0.30576008080821    3.94704776821732   -1.53143930429446
C         1.47636091696868    2.99325603645320    1.59869216667505
C         1.01709139809970    3.93264558219727    0.66328543774495
C         0.74955355052362    0.94595017261519    2.80223005328635
C         0.53760469522260    2.33383172805491    2.47466690782502
C        -0.22046868631798   -1.33330332517496    2.66720378050299
C        -0.37851147384874    0.06574213617916    2.96221457344173
C        -1.18593943180318   -3.22816757190359    1.47122286770149
C        -1.38179080904160   -2.13468383005833    2.33804517850257
C        -1.49947136617693   -3.65494172945127   -0.79343082629212
C        -2.16407237365568   -3.60560683493924    0.49190031856461
C        -1.19719735170056   -2.00545120033077   -2.53410364507050
C        -2.04406994990661   -2.94282108900266   -1.85077183484451
C        -1.35983182662264    0.42481120560856   -2.73087859165423
C        -1.96669307585391   -0.82427831546632   -2.72095149949237
C        -1.55114123430503    2.75301564228590   -2.13405257163004
C        -2.18565173361588    1.53336321139778   -2.27996403137304
C        -0.79856451228231    4.38392913521247   -0.71050129352892
C        -0.35474651105162    4.34701324173040    0.63723869720727
C        -1.94865865348049    3.68958054707246   -1.10855959464703
C        -0.76374899739275    2.82444183362545    2.51817479711085
C        -1.23085153618131    3.82951763568131    1.58157871413646
C        -1.71989425805395    0.58979742946433    3.02422339933099
C        -1.85474972485982    1.97962373693067    2.85477518714165
C        -2.73061897015317   -1.62996918186636    2.46415200332717
C        -2.89980900025457   -0.24253399129939    2.83008411654726
C        -3.43599524854513   -3.14002955149044    0.60852007048344
C        -3.76224330021600   -2.28954302642037    1.72991678006066
C        -3.35352909700920   -2.36859538423166   -1.72069420662510
C        -3.30603631590905   -1.03701867255331   -2.22640144076825
C        -4.12702901204084   -2.64545121592196   -0.57818703386839
C        -3.45393634820206    1.31975374445410   -1.59184601125701
C        -4.06872806985277    0.01406544524637   -1.65831485152554
C        -2.90916525916992    3.29084169624053   -0.15587426819827
C        -2.55538485230357    3.48959071271639    1.20581177792916
C        -2.99509857326974    2.51612944051296    2.16859599068476
C        -3.78337650239633    2.20527922849350   -0.51581561292549
C        -4.10928251490810    0.39847983766694    2.44655519290869
C        -4.05698427803867    1.72798162871287    1.89580597886819
C        -4.59761998887979    1.69546034530478    0.53989870533626
C        -4.91720469778103   -1.58104893948262    1.31172249843157
C        -5.04017644983998   -1.68678150780050   -0.15219547992125
C        -5.05119984824688   -0.36827719555015   -0.68839251040738
C        -5.08063859410519   -0.26613145068964    1.66019522049491
C        -5.27433814855654    0.50078227304714    0.41622143640636
