74
C74 Isomer 3144 Symmetry C1
C         5.37844970450055    0.04712988937223    0.95111237630469
C         4.90422911360451    1.37278800068814    0.93782077559043
C         4.50828927272719    1.71553507872828   -0.40344450178844
C         5.20826239309794   -0.49311413243973   -0.35799111584376
C         4.68433424504635    0.52825420720241   -1.21701012399790
C         4.49798032436142   -1.72440280478491   -0.23966327154151
C         4.52452110005854   -0.71020435934001    1.83651532274822
C         4.02324463686663   -1.83372068345173    1.14317604747666
C         3.92949357793695    1.49335530363867    1.98754508835509
C         3.61639919420030    0.16363840034372    2.49338538815703
C         2.89670150880346    2.37153133067563    1.80440264806799
C         3.39988837018782    2.57132195643603   -0.60412051515138
C         2.68875135230760    3.04232206138257    0.54267173305453
C         2.60275276247002    2.34718500646213   -1.76291702689217
C         3.71916979179216    0.18398543240448   -2.20055756117408
C         2.73688865624756    1.15393190136451   -2.52277666030238
C         3.64539286104051   -2.08702507476180   -1.26425372173441
C         3.27673359057568   -1.16423655226236   -2.29624477319354
C         2.50264515781093   -2.89296643746321   -0.95913306183163
C         2.72379477720679   -2.29251170686484    1.42063568689572
C         2.09034721030223   -3.05776833864703    0.37279351615573
C         2.27792387284492   -0.23571824702571    2.72398842866776
C         1.87108439032875   -1.55165977275058    2.31731583735133
C         1.61212270479504    2.07467596161121    2.37033648000380
C         1.25228391137934    0.78875805595703    2.79858390785491
C         1.31012696578976    3.35085975535614    0.47898634065888
C         0.66648642194261    2.85053591641654    1.65962825370179
C         1.22889878350080    2.75041004251171   -1.82769925472663
C         0.55858279924790    3.28009702080104   -0.72022866689353
C         1.43213310515263    0.79242137377658   -3.01246902965254
C         0.52499017764329    1.82459201834128   -2.66564468340812
C         1.93508332656840   -1.49875479936678   -2.68401183950758
C         1.50852310276735   -2.63592264051584   -1.94936370555444
C         0.96211270204215   -0.52923853353028   -3.04257518224369
C         0.14580402368985   -2.92496338105822   -1.75332380875726
C         0.75700342870912   -3.43544329098707    0.54957731170043
C        -0.15642301716292   -3.58104600822830   -0.54224099214718
C         0.47676362442887   -1.89098238949773    2.41609041162317
C         0.01755624090512   -3.00917884568859    1.68628863575524
C        -0.15069228788592    0.46724651531032    2.81894702765150
C        -0.51621892611810   -0.91784755149415    2.80841100573501
C        -0.69146065670612    2.58968369067514    1.71869521969617
C        -1.13665237113869    1.44964327729997    2.46059258401900
C        -0.86457720732365    3.17036086831162   -0.65299440162048
C        -1.49651509355661    3.11185870001263    0.64196304017937
C        -0.84300424237432    1.61583176908630   -2.56688310947561
C        -1.56866545644274    2.54373858314868   -1.73163219117305
C        -0.45265730971164   -0.79507645388336   -2.88332411677444
C        -0.85534296609132   -2.08198377746754   -2.36197678525639
C        -1.37862839091750    0.29377433602928   -2.80130117761204
C        -2.18106741976742   -2.25247666421679   -1.93197269340910
C        -1.47401762157906   -3.55536801081127   -0.00586509367167
C        -1.36921234796811   -3.21883670110700    1.38866478914486
C        -2.50441043511897   -3.02612598407240   -0.75667224784506
C        -1.89077341068916   -1.23217397213901    2.66183095014142
C        -2.32631652729880   -2.41434069383781    1.95756073259855
C        -2.53644183875014    1.11563773572560    2.37016082213291
C        -2.89565604722680   -0.25003745211610    2.50307127914436
C        -2.86569947539382    2.92402633983543    0.72338317597769
C        -3.41867180532489    1.95624148454096    1.65292574231043
C        -2.95306325475818    2.38032601230270   -1.62466774244131
C        -3.62767257683915    2.85308482238196   -0.48098379649975
C        -2.76885213773025    0.06268696202035   -2.48176582743038
C        -3.16033203783086   -1.22958955372409   -2.05868486499826
C        -3.59330186747397    1.14194355142041   -2.06559384848223
C        -3.61986199374837   -2.39977042622019   -0.10979865895871
C        -3.53425000010639   -2.10384806650701    1.24950438422897
C        -3.97965171392944   -0.81635975903230    1.71494186946022
C        -4.13973301976136   -1.40238810469368   -1.01089368889638
C        -4.58919733957410    1.40785914209212    1.03010943698817
C        -4.74056087377132    1.98258801857589   -0.24990801471745
C        -4.70774322255804    0.92139287824772   -1.22110597740984
C        -4.75874363830167   -0.01459595316830    0.90880491384200
C        -4.84368065195122   -0.31757627733166   -0.52172743035973
