74
C74 Isomer 6130 Symmetry C1
C         1.95357610933377   -4.32445359450688    0.30232162748609
C         2.88907632478285   -3.37713814692567   -0.15992098042257
C         3.23991404019279   -2.49930497010649    0.92124729688583
C         1.48266399422663   -3.83611986658287    1.56625807621239
C         2.27939144937332   -2.73162905341185    1.97755465394149
C         0.07034862095821   -3.68582824789632    1.51495830361272
C         0.83365011547345   -4.31125619194945   -0.59163581544834
C        -0.32971798204030   -4.10400603497846    0.17781298070100
C         2.37833171813453   -2.77654044936141   -1.36341537715947
C         1.09565154019152   -3.36236458151577   -1.63648486346076
C         2.61055709637218   -1.42650481598598   -1.63834722625029
C         3.67906628163074   -1.22100712612617    0.60757044807578
C         3.53982186546922   -0.74340741300905   -0.75852445608171
C         3.49959841203681   -0.25214615376098    1.62594974086725
C         1.65834884749202   -1.62169668482684    2.58747622701587
C         2.40975246734614   -0.43101790119577    2.53556714562003
C        -0.57936400679891   -2.57475133244996    2.08657525920076
C         0.21658541432448   -1.51567451912406    2.68092909586001
C        -1.93732416172880   -2.33055511460440    1.66240392191912
C        -1.43597497534307   -3.52516129006492   -0.42509632765137
C        -2.42621242724087   -2.98027390407540    0.46941719208716
C         0.05402106951672   -2.57507986916762   -2.14596368325885
C        -1.26952567293370   -2.93552919935735   -1.72027398878854
C         1.60738219400471   -0.65565329583610   -2.34188393911423
C         0.31027327328602   -1.21087117894528   -2.55119780638087
C         1.79830298955692    0.76235402178722   -2.50810100933228
C         3.74896728017691    0.59770728702252   -0.99374226376498
C         3.02100881188589    1.29785875943586   -2.01618121498585
C         3.65591500339864    1.13053179154601    1.37943077629163
C         4.01456942924545    1.54220498664586    0.09124286088912
C         1.82428866301702    0.83800774144981    2.72918735647037
C         2.62035473323994    1.84267823646066    2.07255575341885
C        -0.37358441713233   -0.23554311273113    2.88702276733734
C         0.44536903968505    0.96713948758101    2.90614276784364
C        -2.60202796333331   -1.16580460315801    2.14938093068668
C        -1.80973403902885   -0.10272311026990    2.74027948838898
C        -3.87063155670157   -0.84410853994471    1.58008443665164
C        -3.60554219790631   -2.53843632705090   -0.14859807712931
C        -4.37661412965075   -1.54617058902698    0.48144967077965
C        -2.33573578723556   -2.16290180111280   -2.19269016861438
C        -3.56704314445870   -2.20777018153627   -1.54834524796318
C        -0.81009479510409   -0.31204300055225   -2.74597337076266
C        -2.10930823519219   -0.82388782028055   -2.69269892688397
C         0.66259948029935    1.64844290445274   -2.66226845768362
C        -0.67533045895967    1.11335680241352   -2.61896281020517
C         0.81997332321877    3.01653891577792   -2.33794679647252
C         3.13905538680914    2.67757996358091   -1.70578727983142
C         3.63097267751625    2.81353424003253   -0.32696705416627
C         2.06942306396315    3.52142136035166   -1.86824245410606
C         2.05647527007654    3.02686384872469    1.56971111737211
C         2.67852537183256    3.58832762977491    0.39487908385156
C         1.83961606646154    4.18772841583805   -0.59008753637952
C        -0.08776709314318    2.26763738561635    2.61362319334987
C         0.64997567887483    3.23781493938387    1.83059815319756
C        -2.33735876344535    1.19406139639858    2.78649837688303
C        -1.48997006063228    2.36056769863536    2.68018014620000
C        -4.25231087552024    0.54153078822210    1.40202379026074
C        -3.57129296526341    1.50835194843775    2.09282230413215
C        -4.77171288675743   -0.54692780947735   -0.52176741984007
C        -4.19171584437441   -0.90509085680014   -1.72029064351301
C        -3.24388448286191   -0.02742606659992   -2.34440049054851
C        -4.58843715248453    0.74890980744880    0.01117473481280
C        -1.78413811394319    1.88891064521695   -2.13575512580287
C        -3.07005557536736    1.28745286714079   -1.87308504514559
C        -3.87354818133871    1.72799357192653   -0.73904683503259
C        -0.18289276999039    3.64656039544693   -1.55171462852370
C         0.47003834234926    4.25211079532689   -0.40484962193069
C        -0.10135377399800    4.00943514569454    0.87494519478250
C        -1.48328573619516    3.13180816510574   -1.47008204957097
C        -2.16928245772248    3.32496145640135    1.91503957842617
C        -3.40571517608418    2.75275241589224    1.44450579159248
C        -3.39373681933487    2.81352431820790    0.03614326227649
C        -1.49888313072887    3.92513626312368    0.84076743774890
C        -2.22633363577839    3.54700835780374   -0.35340195092359
