80
C80 Isomer 23729 Symmetry C1
C         4.97531917548535   -1.21085448353323   -0.02260305859264
C         4.36523112200564   -2.29404311739307    0.55257886616695
C         3.63392821008238   -2.98803575516002   -0.50926506281655
C         4.57633225320542   -1.16539562416887   -1.44467480111088
C         3.59313351769900   -2.15608214567430   -1.66871672998688
C         4.35427993744237    0.16065466563962   -1.77198184003237
C         4.81861303426851    0.08022193154149    0.52813879128077
C         4.74851792883862    0.95863316542574   -0.61346852186396
C         3.95893906734836    0.30324197090908    1.63933429747340
C         3.47484078909322   -2.11124078177152    1.65203561031099
C         3.21909599213817   -0.82740373203531    2.18625059401162
C         2.45207477093265   -3.44061629244825    0.04282248605594
C         2.36448244325446   -2.97949613616050    1.40823554043319
C         1.29209697006061   -3.47031037191301   -0.76760937836206
C         2.32616552837806   -1.79485007202063   -2.25214898455621
C         1.18391983966295   -2.58710610052504   -1.90160112472166
C         3.19202418102887    0.52260654513082   -2.52950355568614
C         2.12316914384541   -0.44420001488087   -2.70236639739297
C         2.88800961469633    1.89280980408369   -2.48900077182956
C         4.26643919211606    2.23175691865204   -0.48155120644415
C         3.54443157395989    2.76497523286553   -1.57497883638471
C         3.40230632481961    1.64110001465627    1.74413577170593
C         3.61213846202790    2.62137948736099    0.74929703937850
C         2.23837608077443    1.81031524409002    2.51717037012558
C         1.90418643604331   -0.62622674999364    2.79821568039709
C         1.54203537841729    0.69119867217052    3.07078213483774
C         1.10557602343896   -2.78283312405514    1.99042212262674
C         0.82258689400956   -1.59443936399873    2.73383852777183
C         0.15510444910492   -3.79311869381990   -0.03972969497761
C         0.05567279252379   -3.46008435428044    1.35558928788717
C        -1.12101838712783   -3.69025416774773   -0.61734022181385
C        -0.13296227668894   -2.18863152587528   -2.30281291027040
C        -1.26595422407449   -2.93749675980889   -1.80571540942757
C         0.77034622420688    0.02504722396464   -2.90564554475910
C        -0.34376705975681   -0.86743620158315   -2.81586641019461
C         1.53111958880906    2.33862141582983   -2.61372836215099
C         0.49411308451408    1.44270519088729   -2.84825307794693
C         2.55867726847818    3.64046959126888   -1.02596199154039
C         2.56339069382788    3.53958716831522    0.38924295601178
C         1.35333945059761    3.45230153415669   -1.71417287117205
C         1.27076646519725    2.81803016355527    2.25387673751206
C         1.32751767012854    3.59836082199342    1.07832654553027
C         0.18252080365811    1.06438354506920    3.27629792747999
C         0.01793265234327    2.38645036038179    2.78156098729347
C        -0.56316441358758   -1.23192749035813    2.91783850651509
C        -0.86452506437014    0.13477549731674    3.23574817118433
C        -1.29860541358039   -3.16294367506051    1.62827224490775
C        -2.05476157709712   -3.54669989163934    0.46683760553507
C        -1.64816614800795   -2.03109363089377    2.38165097258430
C        -3.29511563538638   -3.02428353696665    0.22984747126415
C        -2.57066687986912   -2.46971661464590   -2.05749252151328
C        -3.61234283280759   -2.70567489328584   -1.11563130663760
C        -1.70147716216836   -0.33611968564951   -2.91795679380327
C        -2.78482287219951   -1.18644272493022   -2.65349491526883
C        -0.83663953996382    1.95074705632437   -2.60691898706685
C        -1.94526678001965    1.08948548470646   -2.82730923990566
C         0.13554414239124    3.63525051855778   -1.05995710378745
C         0.09554240715754    3.80473727078560    0.36086238490240
C        -0.98256550262481    3.10148722657007   -1.76752299289746
C        -1.20185171578545    2.83426364086748    2.26315147412190
C        -1.16839121574470    3.58040686250091    1.02334374724379
C        -2.14471861812900    0.67484717166017    2.98212515598019
C        -2.31858559923871    2.01887260092589    2.54700651196188
C        -2.97480437173824   -1.46169792844932    2.11612843688026
C        -3.80253278507156   -1.98188972529893    1.09077897472950
C        -3.20375763099126   -0.11031105864398    2.44150600088684
C        -4.47035097883910   -1.57416969125046   -1.08377763833752
C        -4.03876267959110   -0.68407590135582   -2.10868718963680
C        -4.59981639960438   -1.11451441714168    0.26097913083324
C        -3.22771397018916    1.55606399871692   -2.41935258330924
C        -4.22930890893439    0.65364051501453   -1.91492978165120
C        -2.22232023670456    3.39307927649759   -1.18590541478810
C        -2.32625913713179    3.57856507925381    0.24249519988847
C        -3.34702888154530    2.71653019140364   -1.64085572425147
C        -3.51143281952995    2.06702894006729    1.75882335825713
C        -4.06897014076742    0.74787142980144    1.68274199175987
C        -4.70600238135432    0.27466459569615    0.50916589872111
C        -4.72008581570475    1.14953800996416   -0.62794348630924
C        -3.54808018384664    2.91219128547786    0.65430028064377
C        -4.22124133823948    2.44681911436071   -0.50432334989383
