80
C80 Isomer 5432 Symmetry C1
C         5.54639605550695   -1.66185923944892   -1.08252087106836
C         5.82352767823969   -0.27475410596445   -1.02794190377112
C         5.77722736186231    0.14202418281778    0.35081517601323
C         5.14416463214672   -2.10509185456112    0.22041561635431
C         5.30319913822181   -1.00734283019713    1.12620030859473
C         3.88502631531910   -2.74565182573351    0.09907052590558
C         4.45021178065686   -1.87083719741009   -1.98238968472698
C         3.46862309731708   -2.61546946617354   -1.29063481221795
C         5.00006613140983    0.36837265389976   -2.01581722157696
C         4.07015607322455   -0.62179743412333   -2.55517025271951
C         4.51781375908833    1.63424795472469   -1.72983332273809
C         5.26543874957069    1.40508105542068    0.62615585683001
C         4.82406610291088    2.21188734268030   -0.46099086373634
C         4.29484888108514    1.59891447077236    1.70461349938214
C         4.31848598258777   -0.81949452760633    2.09289854555885
C         3.84464358281577    0.51181804423285    2.41935815022403
C         2.90365222048545   -2.58966917902856    1.10772539957559
C         3.17521110681194   -1.68168654799266    2.15587660243438
C         1.53398564760101   -2.80698510997949    0.75869784164174
C         2.12588775051983   -2.40771630817270   -1.59467205771644
C         1.17875460008505   -2.82951609885484   -0.61347001474305
C         2.70349059544798   -0.32489200479224   -2.74694913053823
C         1.71900967216264   -1.33324681428626   -2.44918205235041
C         3.15272477157736    1.98256017873206   -2.07858526220645
C         2.24511386276046    1.03861057408802   -2.59992615337658
C         3.65985079242057    2.92593053607291   -0.03806470088114
C         3.30519377988952    2.56278593785120    1.27960340021095
C         2.68486781425847    2.88048200527853   -1.06568511899020
C         1.93835559610215    2.45842101423605    1.61718636941984
C         2.45550046326782    0.42117953516091    2.79372403130490
C         2.07098537526898   -0.94008309386374    2.70596514098347
C         1.49205042700280    1.39632608552385    2.47191340351956
C         0.48332250331076   -2.41027618977964    1.65248448546601
C         0.73749812617242   -1.31316406594609    2.52726092629151
C        -0.84289165300508   -2.71972736126780    1.33596729911141
C        -0.17318147991361   -2.80486596661373   -0.98434054778142
C        -1.11120945005840   -3.18600283642686    0.01532192908485
C         0.32412119905229   -1.04333810552736   -2.54477294695729
C        -0.62400474477971   -1.98956037864774   -2.05309496929153
C         0.84088449786496    1.31008156783846   -2.47452947587221
C        -0.15348870101247    0.28828686721893   -2.69882598932592
C         1.34412900821980    2.94571228083245   -0.72464423640485
C         0.97614411460339    2.90456282358811    0.65805715191811
C         0.41544680635860    2.38419816099713   -1.66010156419128
C        -0.39054244356584    2.76979426207290    0.94750420919406
C         0.10418898858627    1.02742205470090    2.52056704859015
C        -0.30440815254452   -0.32971935459590    2.65726145081955
C        -0.86718524882801    1.91511535922859    1.97583761969655
C        -1.93142443533347   -2.05526661915671    2.01582461451173
C        -1.67286524461123   -0.71252196729625    2.46653583401401
C        -3.23255240093234   -2.43118942025698    1.67562309416866
C        -2.41303063025922   -3.37410210993053   -0.40577954253960
C        -3.45491808323889   -3.32622295623219    0.56273288584724
C        -2.03337570506995   -1.78009889816860   -2.22804544598803
C        -2.88300531423577   -2.73108754997345   -1.60718183355120
C        -1.55233473341141    0.57821819943265   -2.59813740417763
C        -2.53882132412742   -0.47639599639109   -2.52718124766817
C        -0.94660446373164    2.60973514241671   -1.41596191507548
C        -1.30066386846688    3.07752998841518   -0.11713558411566
C        -1.93770307958229    1.89043961701979   -2.15860760111754
C        -2.63585799895767    3.18436817683110    0.22062320609775
C        -2.26711768578372    1.61246108750280    2.06468451158610
C        -2.71001185717943    0.27429383016498    2.34174591246227
C        -3.14105935280383    2.50623496710818    1.40097512298243
C        -4.30956771198128   -1.48235196882662    1.67599559177889
C        -4.06308758265919   -0.11896678515073    1.97028015070941
C        -4.65330789943832   -2.96332988237078   -0.09344651025048
C        -4.26747761636119   -2.47550958273037   -1.41068992703602
C        -5.18866922210293   -1.84866437077376    0.58976518822632
C        -3.92902924704244   -0.17461364391944   -2.21323806240491
C        -4.76260796359441   -1.17474204311579   -1.60942542039366
C        -5.50151537396914   -0.84592929028811   -0.38309612030963
C        -3.27925741401506    2.18795343305753   -1.88777970832560
C        -3.60753965982008    3.06460677194996   -0.80507157670756
C        -4.29191178801064    1.16314914457951   -1.93527053805730
C        -4.48291946137191    2.15225993444858    1.12688098585062
C        -4.92197032242290    0.81940419980480    1.31834652943341
C        -5.55885199031039    0.44543457334399    0.06062975942196
C        -4.82364798698961    2.60897023584232   -0.20494568999058
C        -5.25364575027172    1.46986673168791   -0.90498809432493
