80
C80 Isomer 15459 Symmetry C1
C         5.55701021995315   -1.38422251242460   -0.18088476420565
C         5.70460090095425   -0.00310919238565   -0.15183833097897
C         5.37156421345829    0.44010792257379    1.20354879378120
C         4.94095774151545   -1.79772173660474    1.10191306015057
C         4.72821760776948   -0.64090970891625    1.88436491619810
C         3.87061690875163   -2.66046209947809    0.82308661021067
C         4.81632841782512   -1.95223552643882   -1.21215040834518
C         3.90023037421416   -2.90182539192408   -0.59263082294015
C         4.05833183978124   -1.14977307204836   -2.11247303826199
C         5.01529915749764    0.83136165123515   -1.07083175394100
C         4.10586177753315    0.26840827368615   -2.03002576629061
C         4.78208285987969    1.70083372719174    1.11517324811700
C         4.61660544053922    1.99457315155286   -0.30253700486693
C         3.73182672878144    1.99251677087661    1.98960329160448
C         3.45803408240574   -0.42741563544166    2.52309302908247
C         3.09476214323107    0.92520408075180    2.70228060807694
C         2.60612940664390   -2.49458368795705    1.47214508802755
C         2.38993352391291   -1.39849319302797    2.36964268854911
C         1.46390195908293   -3.00439536515734    0.77698295794858
C         2.72101373114506   -2.86837116699002   -1.30720393718879
C         2.77591793226057   -1.79667689866355   -2.28166361148794
C         1.51736063462796   -3.11845439653399   -0.63933839824306
C         1.60415758808709   -1.13013696778402   -2.62635905579249
C         2.87706931320276    0.98112056071435   -2.35006448631956
C         1.65532694436130    0.30150499668342   -2.74131416473208
C         3.53124443658644    2.72231388582380   -0.69746519573673
C         2.72363948208868    2.26778285750889   -1.80107174404072
C         2.70926631491641    2.91835284009167    1.59407582062915
C         2.63538838542099    3.32249572743776    0.26903157392122
C         1.72367653989169    1.29199242853289    2.87107114799802
C         1.48606819228089    2.54270331923863    2.23882774468257
C         1.02046663229067   -1.02929838577590    2.68961093494369
C         0.70582503195584    0.34267816750515    2.94816377177971
C         0.17482654417215   -2.88132209441591    1.37403735177930
C        -0.07555534887699   -1.88331835517610    2.36277003911885
C        -0.90623411143519   -3.32473109361619    0.60859138964447
C         0.35641436240615   -2.85724556541363   -1.41409723485394
C         0.33705103653455   -1.80297778377924   -2.37615628813955
C        -0.82871704648608   -3.23779772913674   -0.81288455422155
C        -0.90532859821077   -1.18128674962326   -2.65261177208135
C         0.39771518090992    0.96791517454239   -2.77313566944123
C        -0.84825022436230    0.23071686116734   -2.94083776913496
C         1.44035447664105    2.83008908712700   -1.62991299394681
C         1.35354527865820    3.46056954124350   -0.34289005646475
C         0.30488305386316    2.27094068016761   -2.20337713283923
C         0.22547586721720    2.83269926129951    1.70494903217595
C         0.15471032160158    3.36828979932019    0.37478202076428
C        -0.63660003063709    0.82201614463069    2.80571920202509
C        -0.88105406534410    2.07863960763736    2.18423714547786
C        -1.44422661552432   -1.49392681319956    2.62331880828995
C        -1.69612034317108   -0.12165214167169    2.91065014217507
C        -2.25536536621714   -3.09559855404143    0.98244646990884
C        -2.55180800537337   -2.27244357009343    2.09328262566816
C        -2.08660450249599   -2.83555557331847   -1.30876608093926
C        -2.16612459753177   -1.76138127971902   -2.20450852114802
C        -3.01825567171254   -2.99133687792342   -0.22596659748444
C        -3.40975178570780   -1.00343071947568   -2.19191051257703
C        -2.04173574774734    0.94362900327900   -2.91769941419618
C        -3.33198872786013    0.33826589972442   -2.63976192983850
C        -0.94233499514342    2.77992993700079   -1.72185325634116
C        -1.05580281485467    3.22011680975423   -0.37334801480398
C        -2.07805962428405    2.27049026408688   -2.35448681644914
C        -2.17855417444080    2.39175920110722    1.64541343810615
C        -2.28016441080464    3.00688808286382    0.34213590759477
C        -3.01165333029475    0.40455664264270    2.80750478300818
C        -3.25757498900639    1.66461885749390    2.13600053510230
C        -3.87717253146117   -1.75488910722701    2.11652274784632
C        -4.10380685352586   -0.43434517877253    2.60329780672223
C        -4.22014332984351   -2.31581383850717   -0.24449374279549
C        -4.44640339816634   -1.30597487216678   -1.26712092159343
C        -4.74149147749932   -1.89522348320898    0.99112838211008
C        -4.50410325596299    1.54007169272156    1.41679266457714
C        -5.05182226031256    0.25816728445515    1.73709131955436
C        -5.24315670083354   -0.27991815156438   -0.64145315190104
C        -5.41607983036557   -0.62702476071539    0.73648702445535
C        -4.15851973728553    1.31592313685855   -2.05667281664604
C        -3.32784234524468    2.46736024190517   -1.77259108748451
C        -3.46049407845530    2.77633663772275   -0.40157988933597
C        -4.98227726915828    1.06520145093956   -0.94104626387386
C        -4.56651438921336    1.99113756922210    0.10724085009752
