78
C78 Isomer 6819 Symmetry C1
C         5.07237646340034    1.91125373805174    0.40013274980612
C         5.13297745711343    0.63280822515469    1.00750818693313
C         4.08244658733502    0.53566487973783    1.96878555662764
C         4.01745660539795    2.64696395903998    1.02020001108896
C         3.38204384006383    1.80446145134204    1.99039791505384
C         3.17989806052209    3.11415976978204   -0.01373752216294
C         4.68332309652860    1.67893325455487   -0.96824774572147
C         3.50545994438446    2.40238505499555   -1.24556623666406
C         5.19594986530649   -0.34806537918476   -0.03794450317012
C         4.72788476212225    0.28639370883350   -1.26111701671462
C         4.73422916360401   -1.59823671150591    0.28981588894682
C         3.34682849570858   -0.66539052430685    2.12503328278226
C         3.86346780023620   -1.78874378521099    1.43846153403841
C         1.92687800715870   -0.61173210032932    2.46268132461859
C         1.99487286015550    1.85524386176298    2.18732146351305
C         1.25215331321514    0.65960334428443    2.54781558695301
C         1.86022478376781    3.36689115003658    0.28483899153727
C         1.28141577136137    2.89562705550667    1.49791466566973
C         1.00423117142677    3.46358040167942   -0.85699437552789
C         2.43548917221523    1.81964754705808   -1.97067294793683
C         1.18339259332963    2.50324652404325   -1.89759025720278
C         3.67160448167072   -0.31056091885635   -2.01032393586477
C         2.46964564901916    0.43395814383927   -2.34662919506637
C         4.18662358998104   -2.36420668987604   -0.76872341434440
C         3.54014020515317   -1.71256620090605   -1.84224669002817
C         2.98432891922198   -2.86651597205094    1.11713298660227
C         3.25303925584154   -3.30047903922111   -0.20606167946441
C         1.12838338902381   -1.78677850011055    2.32054081825254
C         1.66589785564920   -2.91090417513450    1.59547767194904
C        -0.29642833402608   -1.71538291352022    2.51944566170450
C        -0.17581347749183    0.74182286206060    2.63795189791763
C        -0.96731742800080   -0.45822108340555    2.69142944096111
C        -0.11843039366021    3.03973664076599    1.66524871368388
C        -0.83778788292992    2.01144151662720    2.38377480855986
C        -0.24216089703357    3.98789612838101   -0.57440767966220
C        -0.79533067610681    3.87890800407084    0.76184001929965
C        -1.27696365034595    3.78289768260362   -1.48963091205946
C         0.00194148683380    1.91855576454246   -2.44905502617938
C        -1.20580646262991    2.63817692521767   -2.31463534348420
C         1.20300675049045   -0.23920673530819   -2.56931756124289
C        -0.03695230180509    0.49362106774562   -2.63670480274921
C         2.27925253196831   -2.37115421612395   -2.05680975977320
C         2.17392487416737   -3.43084284426468   -1.09337611439672
C         1.11889019057269   -1.67075871832537   -2.41305719732111
C         0.76960075241575   -3.72936935008593    0.83845060731876
C         0.94233215887014   -3.80461330563009   -0.58454909852762
C        -1.08037423840249   -2.84083270299485    2.19859287787395
C        -0.53504758669782   -3.84665358056812    1.31619151401816
C        -2.48309986264524   -2.76721071576084    1.94353946258641
C        -2.39770142827522   -0.40752938729884    2.52780126277178
C        -3.14091406638363   -1.52889154130745    1.98182090519625
C        -2.22831055793911    2.07249185277632    2.35650481929241
C        -3.00333292273039    0.86186689930418    2.43060390807195
C        -2.21841788505544    3.82361945078581    0.61835840821020
C        -2.52914047938784    3.77631934133653   -0.77335325947972
C        -2.93794253695043    3.00540244146844    1.49329948620571
C        -2.47408499632660    1.97372449407193   -2.21535421825997
C        -3.32180273779545    2.73617109508398   -1.29981787029940
C        -1.31527698952379   -0.17617416170341   -2.56867524403776
C        -2.52948373082084    0.58658727690457   -2.28998525096394
C        -0.14685243712230   -2.34312037405858   -2.22384226860694
C        -0.18741794999500   -3.54196234167019   -1.42660554393342
C        -1.35997895788659   -1.60376101705991   -2.41998952614623
C        -1.53704310176610   -4.31834178598485    0.46690909605492
C        -2.78383416743085   -3.72598846238072    0.91343760437983
C        -1.40425098104501   -4.05196473950506   -0.93777074282766
C        -2.58339955781413   -2.22144695839165   -2.01439595453504
C        -3.49427306808290   -3.32978225102151   -0.20829734295669
C        -2.60744482234427   -3.46197105730909   -1.36706983452485
C        -4.11900434728926   -1.26745665746739    0.94454515690460
C        -3.64353905650255   -0.03650157053297   -1.58895884194635
C        -4.08589526685618   -2.05564464366639   -0.23615249063943
C        -3.63974996782895   -1.41830305844235   -1.44096198195173
C        -4.16061265805779    1.04912772872892    1.64422140182583
C        -4.06248454120750    2.32863625744949    0.97833411052136
C        -4.17588591128906    2.07572055981032   -0.41677354297660
C        -4.48921208120812    0.06033727651188    0.69936582064469
C        -4.37381150854153    0.66638283453117   -0.60032268902560
