74
C74 Isomer 1143 Symmetry C1
C         5.86359316821971    1.36119054439630    0.56212093117141
C         5.03888392583296    2.08956218697294   -0.34270434577337
C         4.91525701785860    1.36705281905424   -1.54961597521295
C         6.05890762115050    0.04021872034299   -0.02985821100880
C         5.52643501973896    0.05104081303173   -1.34441576428367
C         5.57872987766558   -0.93406881711655    0.87957057294866
C         5.07893011783499    1.16781657799720    1.73647677324511
C         4.98706042525394   -0.21127460574139    2.01393124929351
C         3.80941212393440    2.46740894704215    0.31204646307607
C         3.82815945499441    1.88160519405266    1.62211908126146
C         2.59697236904948    2.49753589935589   -0.40158246876754
C         3.65938712917143    1.18111841183286   -2.15466601998066
C         2.50392364783644    1.87502914266580   -1.70130048281422
C         4.59172397842509   -0.91288200585686   -1.76534459556923
C         3.50089476258103   -0.21429386688356   -2.43560341862782
C         4.65168662826138   -1.90997919087482    0.47841745184719
C         4.22139833890858   -1.98989357829297   -0.89192358608128
C         3.75159352334179   -0.80495289232375    2.32819231153649
C         3.60770054346817   -1.95785301929296    1.49403397727263
C         2.63611344701730    1.35433364106378    2.16546538021396
C         2.57891563223891   -0.03055346102564    2.58418410475680
C         1.41271806158063    2.50907666889744    0.38896172476423
C         1.42275895031726    1.92038073178696    1.68504353927802
C         0.17141541221834    2.59396647280730   -0.28416697007630
C         1.23686535193916    1.39705373969737   -2.11952741167019
C         0.08393654698815    2.02920440496451   -1.57734364680217
C         2.22522947236930   -0.77177797631430   -2.61076893983534
C         1.05642344363372    0.07619544368831   -2.65005038482065
C         2.95852601175507   -2.55539555965412   -1.11298701518775
C         2.04998936693642   -2.08692837660304   -2.12154422736281
C         2.34414319848920   -2.50194700479794    1.25639987397472
C         2.13461090763519   -3.03123581466561   -0.04076940391586
C         1.32390538977514   -0.68709508591889    2.56909793634800
C         1.19986808262605   -1.99699323465923    1.97593512615396
C         0.18431556174459    1.43931174481126    2.20332359354158
C         0.12959318688664    0.10522740421652    2.66987763391147
C        -1.01204126565007    2.72939132732751    0.50820221456311
C        -1.02016758960353    2.09238549427440    1.79491358475377
C        -2.21398811095935    2.88891124216861   -0.16659265502433
C        -1.20192825753912    1.66980230047850   -2.06736839381114
C        -2.28500795288592    2.40123809070864   -1.53439159628746
C        -0.25726889352858   -0.49008850151448   -2.62489074862400
C        -1.42343930657614    0.34609191435051   -2.54234445062603
C         0.74384144384841   -2.54001295447322   -1.81608577977638
C         0.81536962491920   -3.14949860857052   -0.51331318903637
C        -0.40927350026112   -1.84089876752427   -2.18289938912980
C        -0.09591097604841   -2.44663292889603    1.62420878643080
C        -0.27773753572359   -3.03059772774847    0.33088323375213
C        -1.14838671152759   -0.52959139419013    2.76240416476827
C        -1.25806476594309   -1.86807825734782    2.25273298868102
C        -2.24474824529569    1.61022089736678    2.26941694022070
C        -2.30804683502230    0.26727504985058    2.77326709499897
C        -3.48415725213820    2.63720752921355    0.45113345629671
C        -3.50304041923564    1.92193461203088    1.65418970075230
C        -3.58090414116469    1.98371189908473   -1.79222472850445
C        -4.38482477084780    2.23692228246259   -0.58860442063670
C        -2.74869746071812   -0.22671786558430   -2.45418485771128
C        -3.83958660943181    0.66296854300012   -2.25151394446998
C        -1.64925916426122   -2.24971233509612   -1.57524072181867
C        -1.54702489080950   -2.91551013675299   -0.32099619358442
C        -2.86884513100074   -1.58554805747399   -1.93225392885022
C        -2.51629499421743   -2.32332859070366    1.86401288170096
C        -2.65232052029378   -2.92221544047055    0.54126144836506
C        -3.61755670037571   -0.24158777395253    2.49221593702672
C        -4.39816092714149    0.79410708372714    1.83023543236982
C        -3.72346971737680   -1.57816137095544    2.09888807725221
C        -5.26082449869189    1.19507938385381   -0.41851238365156
C        -5.01231574232384    0.24301087940874   -1.52602864378542
C        -5.30884923240359    0.45444093368970    0.81575057935851
C        -4.04093057503406   -1.96435697576163   -1.22376639532267
C        -3.90385228978051   -2.63179274602225    0.02626196428198
C        -4.64976742994027   -1.89405516286546    1.04955448684463
C        -5.10808465791816   -1.02328719657145   -1.02232578614429
C        -5.40041169477633   -0.92723168917804    0.42698037757284
