74
C74 Isomer 11214 Symmetry C1
C         3.62652968617452   -1.53183948635987    1.96455653941362
C         4.39552911699362   -0.83323923886149    1.04784803574817
C         4.31207146828823   -1.52834849536246   -0.23977074235292
C         3.07667445361197   -2.69979975616718    1.27273788087235
C         3.39224685378428   -2.60806856476668   -0.10906859258093
C         1.76238072780948   -2.84372944882341    1.68185571517486
C         2.58858761746968   -0.91303401361983    2.70618227756990
C         1.46637171526919   -1.81465736664413    2.65614615571750
C         2.38037506736617    0.48376598481348    2.62637840112908
C         4.16280646491537    0.54395983808484    0.85792060479999
C         3.26164579980154    1.22131290731719    1.73377766036373
C         4.11179282806494   -0.53559354686404   -1.20203151269083
C         4.08233960818664    0.76307603836406   -0.57222327617899
C         3.20097516117261   -0.77349527390238   -2.23591074052985
C         2.33859362619683   -2.79078431206565   -1.06329116058393
C         2.37880491963644   -1.94871771351764   -2.19581187269702
C         0.74474504813709   -3.23632122375085    0.78058255040750
C         1.03141075280839   -3.23756589708060   -0.61828336231804
C        -0.58999622867448   -3.10498834465506    1.28632219995196
C         0.17628158076316   -1.38850594752839    2.87987165702518
C        -0.90862926417799   -2.19321796914144    2.34972377425991
C         1.05231025458358    0.97279152302278    2.90340687659723
C         0.00746297354920    0.01409041114028    3.19518335982396
C         0.66337033895985    2.29270955178618    2.47999173750392
C         2.80169764469444    2.44247000742655    1.24501815592958
C         1.59936649636944    3.03877408954859    1.73140467732088
C         3.31911708453652    1.80652651667323   -1.10779150072092
C         2.94826380608131    2.79270471042794   -0.15345825252301
C         2.43671359078534    0.28952833713710   -2.78634303652342
C         2.44254546987485    1.59463618063707   -2.25297729839267
C         1.19322648224006   -1.65110722790920   -2.94092309970377
C         1.23152584496795   -0.28569756371175   -3.32076001628523
C        -0.09333296365061   -3.16274309273992   -1.52746758640844
C        -0.01470717115770   -2.32047341857613   -2.70438876984010
C        -1.60906112655633   -3.48966235911762    0.39458545033733
C        -1.36250581771786   -3.44830289561630   -1.02561982730586
C        -2.93484027854400   -3.10178183956265    0.63122653837615
C        -2.24716752120136   -1.71534863120234    2.50671259007169
C        -3.26580785493155   -2.16313058323620    1.61295134110074
C        -1.29914056720413    0.46300726473622    3.31263453175394
C        -2.42734340187355   -0.41647745783431    3.05476346732719
C        -0.73147260457954    2.64645554740598    2.30805306611333
C        -1.66186814722837    1.78465311315490    2.91250791644793
C        -1.19702109900758    3.41065190900579    1.17328474382139
C         1.13575831979244    3.91699600579140    0.72767290160383
C         1.93949349288592    3.69159194975959   -0.46371171171703
C        -0.20333697044024    3.99343495357352    0.35795686339223
C         1.25253045341615    2.40244555665585   -2.43921872073263
C         1.06790701625182    3.49883602546703   -1.56339529758898
C        -0.24182663643147    3.87220837252793   -1.09221647888551
C         0.06071622223709    0.46085089327442   -3.49811678147170
C         0.05964604614694    1.83873916955615   -3.05673989181142
C        -1.17130585014755   -1.66609437242851   -3.17932186844765
C        -1.13472710974784   -0.28915218113658   -3.54385961508681
C        -2.56733590812573   -2.91707463943701   -1.63822154136169
C        -3.52892619889380   -2.70753238728965   -0.63307597356381
C        -2.46111377528120   -1.94196107944477   -2.62059236189774
C        -4.18135733259139   -1.22431094409432    0.97826662619409
C        -4.18508085462598   -1.47891004601786   -0.44776551700673
C        -3.49383888287363    0.38438069355794    2.61869114474375
C        -2.99855323525057    1.72198792075572    2.46389818522637
C        -4.23215494599351    0.06577593156179    1.44140645477808
C        -2.44628838540812    3.05609896106334    0.52438815196343
C        -3.35670681208032    2.20311655238419    1.18764703744755
C        -4.11333044287516    1.18028648865439    0.51840143643912
C        -1.34537694517831    3.32287527071379   -1.67331175278326
C        -1.19783342822405    2.37282629896696   -2.73439930688982
C        -2.49881798304484    2.98465533141880   -0.88305167274141
C        -2.38923003276013    0.27938247702838   -3.14691852908392
C        -3.20265912580073   -0.72115896433725   -2.51283180597069
C        -3.99134486105272   -0.41267830329929   -1.37727892255100
C        -3.95097315510589    0.94839618904279   -0.86320735151507
C        -2.39718223609081    1.57938485186209   -2.70502780075726
C        -3.17961887929400    1.92812076180455   -1.54857315724738
