70
C70 Isomer 738 Symmetry C1
C         5.12990671748090   -0.64015602063979    0.43288651324597
C         5.03332670042199   -0.24133729205837   -0.89816854513444
C         4.50591865590570    1.08882257492015   -0.95087795888637
C         4.63775495539682    0.44502212457593    1.28609374990852
C         4.31473323299980    1.54239087887693    0.41898333938551
C         3.59367534575739   -0.09797003956033    2.05786187964866
C         4.31838940474843   -1.80824281542412    0.62234591720696
C         3.42813259246658   -1.49163797116433    1.67474277525449
C         4.11479461428835   -1.15426960051094   -1.59928854199201
C         3.72833411688385   -2.16157071055648   -0.66900981264832
C         3.35404382974876    1.02200347483040   -1.76618056476403
C         3.09369575168139   -0.36315631428850   -2.14497386810011
C         2.26717085825310    1.87672051255622   -1.54728962439193
C         3.19585010553141    2.30171178143886    0.70508113999961
C         2.38748013923216    2.76121688186677   -0.41745281259021
C         2.43279864174715    0.64836283677705    2.38984311077806
C         2.42592214787888    1.99429900939851    1.89838307220241
C         1.17312936039137   -0.00002180970584    2.66401164854734
C         2.15094109572815   -2.05432783658568    1.72430223169863
C         1.05707410800506   -1.40358093084064    2.39508261433886
C         2.41719283226884   -2.60362578237452   -0.68361437540226
C         1.82932235617021   -2.89785561706335    0.60689968481535
C         1.74658469511698   -0.80920669238822   -2.20312311136775
C         1.45615524472139   -2.07884907614680   -1.63060232254928
C         0.96274970843475    1.52784561353203   -2.04237238650050
C         0.67427799310142    0.14204210925269   -2.32865288340610
C        -0.11361048019366    2.44205425359952   -1.80985023020487
C         1.30583847835384    3.56870810361424   -0.13748550136572
C         0.12027694537352    3.53179584620147   -0.93396540811807
C         1.27730450543614    2.73928219617280    2.13265249911018
C         0.91769447565822    3.77476410930796    1.22941006542323
C        -0.05260456500293    0.76926077447289    2.76184902975128
C         0.06593684694658    2.15900970528666    2.62534789122448
C        -1.37472483491230    0.18054196937562    2.60808023051735
C        -0.23275690156955   -2.02615058677663    2.39373772954146
C        -1.45466626697968   -1.25970464935706    2.57469316973705
C         0.59348198708936   -3.45590203436126    0.59973043976810
C        -0.31993340620770   -3.26008600918042    1.68899662864387
C         0.10186263890259   -2.52325058756964   -1.57589446319276
C        -0.18332214163398   -3.54273072811624   -0.61972471198124
C        -0.68229420339881   -0.32345570522586   -2.36154356847022
C        -0.97403093525973   -1.70992105082364   -2.04910847821421
C        -1.46999997793565    2.03997340316575   -2.10074389638350
C        -1.74686187624268    0.65412726338617   -2.42412975552615
C        -2.50466665893416    2.82145430277267   -1.51594372660419
C        -0.94621309506754    3.98677307566596   -0.07233927365865
C        -0.47728986693786    3.95639148310585    1.27794362161348
C        -1.03274590324088    2.95437470484532    2.14114575887838
C        -2.21330717640063    3.56593294991807   -0.31073921245693
C        -2.49615652058943    0.98325715189282    2.17884666599508
C        -2.27518536167445    2.38256047812307    1.86412845565440
C        -2.99670322882990    2.97219648268127    0.76341954441464
C        -3.66952344277718    0.34715795205604    1.60832120019938
C        -2.68927687940627   -1.84464857883924    2.19896184357164
C        -3.71862941286549   -1.04992114545401    1.59801589805268
C        -1.55036465697874   -3.76056921556993    1.22771173874068
C        -1.47934628379480   -3.86631519187046   -0.24688096107111
C        -2.72305848258313   -3.12126633669263    1.54395759999661
C        -2.33612773736373   -2.12217014403759   -1.72984485544347
C        -4.17894323835630   -1.76987537371250    0.41257125803308
C        -2.58485358217786   -3.19148746389000   -0.79198582955240
C        -3.47983062128787   -2.95972914552423    0.31241631242390
C        -3.07755454408573    0.17736756762407   -2.29344236364099
C        -3.34007792201574   -1.15497048134016   -1.81507575934303
C        -4.35442623105041   -1.04860553716326   -0.77850730538164
C        -3.78081059786184    2.27525949252191   -1.29658684830841
C        -4.04359812905711    2.29720633457544    0.15731731777763
C        -4.42805954528071    1.00216129176750    0.56376537620822
C        -4.08931604146190    1.01497734908453   -1.74844547813666
C        -4.70688033270477    0.28554243556956   -0.64069351751966
