66
C66 Isomer 4398 Symmetry C1
C         3.42655298761747   -2.22894527180115    0.45407713540148
C         3.14163428388238   -1.63370824267458    1.68732247294771
C         3.60895673420796   -0.24574916767429    1.62466282815152
C         3.96181147448602   -1.22604523110479   -0.42969288679008
C         4.14346677607258   -0.02991873890897    0.30339143192914
C         3.23813403821265   -1.26196461173991   -1.63712580828830
C         2.45259668018709   -2.97474711946840   -0.26955533308271
C         2.31758398986768   -2.37726079120991   -1.58326558668887
C         1.33056876234501   -3.39171831307849    0.40476768960914
C         1.94407768526584   -1.99358742041631    2.37085989822263
C         1.09366518828178   -2.96534161539396    1.76269214343460
C         1.30949316552279   -0.98764593013499    3.13294373466787
C         2.87161915074297    0.76616743618579    2.27208650446975
C         1.75383395710618    0.38385417739280    3.05742089140977
C         2.79084491509124    2.05499416500860    1.63636945445352
C         3.90536053668880    1.17864946547746   -0.36623745653462
C         3.39130361023882    2.25601503820732    0.39017987029639
C         2.85964282681957   -0.02958878071396   -2.25745760995716
C         3.23315071653131    1.18240381568652   -1.64277977834430
C         1.65261489099628   -0.04548659608004   -2.99149589045531
C         1.06821619995391   -2.33360976749206   -2.21739250071520
C         0.83039519102735   -1.19473303555544   -3.04741448491692
C         0.06701347885013   -3.47200110256879   -0.27843633861255
C        -0.08364311001407   -2.97313098477400   -1.59092830075490
C        -0.31285713128124   -2.92906506078280    1.93732952618589
C        -0.95262313041612   -3.31666524798137    0.69647161506155
C        -0.08830558220343   -0.98495422696045    3.35430278462585
C        -0.93318206458264   -1.97068290877391    2.78320358340025
C         0.60910513818091    1.21264928908730    3.19872896125795
C        -0.52544662063150    0.38316188231226    3.42736044969330
C         1.55471369097762    2.81863937520926    1.65901863253957
C         0.47098783689109    2.41604353207980    2.44461001677909
C         2.45366675850558    2.98891672609512   -0.44061846161592
C         2.30426242346837    2.30400252576228   -1.64810189016485
C         1.33219947905447    3.33906181515362    0.33667255516948
C         0.79181742712493    1.11794722888380   -3.07105709067682
C         1.01626625205253    2.24293312251320   -2.25921489545348
C        -0.50902031509660   -0.76929524131781   -3.34623927842353
C        -0.52302717353204    0.66634670030306   -3.36544649610220
C        -1.39246302834565   -2.54861835774956   -1.93299785132867
C        -1.59444132448348   -1.45569158296942   -2.84677035916907
C        -2.24306613271628   -2.87023782848640    0.36325870484135
C        -2.47125871911201   -2.53773017490196   -1.00282701588370
C        -2.27215501309804   -1.62332565538872    2.51510939673747
C        -2.95874378164505   -2.15028165432914    1.36331779561576
C        -1.83409148829286    0.75938995750001    3.05576920009936
C        -2.75229412619892   -0.28193528585607    2.75101975199649
C        -0.82871564769661    2.75870007125074    1.98529905927508
C        -1.98059008253026    1.99755375923619    2.34941881142959
C         0.04482703092043    3.37191964723325   -0.25287150045641
C        -0.11604899483097    2.87998856442271   -1.60554872780171
C        -1.02538023619970    3.25828467697785    0.65999731868703
C        -1.61809900071554    1.35939352523715   -2.87092768300287
C        -1.41433775362612    2.46424225668556   -1.98593995310946
C        -2.78920328942885   -0.74743381527530   -2.45719934814406
C        -3.37329117385748   -1.46335474713887   -1.35984574334123
C        -2.80164709922589    0.64151857674656   -2.46876640192950
C        -3.91705601068804   -1.19816524566646    0.97669743816516
C        -3.80095989448775   -0.04848511958953    1.83460456815736
C        -4.05858924607244   -0.76521347828871   -0.37206166065027
C        -2.95821775395916    2.14226041654981    1.31023280371680
C        -2.33528545392947    2.86247479614213    0.23797521151186
C        -2.53001535957887    2.48293329874158   -1.07752735709506
C        -3.40068315628541    1.36511146385153   -1.37524650582900
C        -3.84521848598873    1.10485723747244    1.02578543399557
C        -4.04542589642055    0.68390380884083   -0.35896747861661
