76
C76 Isomer 9532 Symmetry C1
C         5.21720971890329   -0.43197415681822    0.03437253955627
C         4.76391740980005   -1.09737205084709    1.14012588494572
C         4.24995684005737   -0.10999619875746    2.10863261721229
C         5.10074591225021    1.01448547806168    0.32126636804133
C         4.35159141789827    1.17873654026462    1.55192138807495
C         4.66286320525136    1.60222078855728   -0.83749618885395
C         4.60317161379274   -0.70274380056707   -1.24369713618091
C         4.35906524652035    0.55881192120270   -1.82630872878412
C         3.60031463260957   -1.69606006802831   -1.36803354892864
C         3.82096549295699   -2.15045240247226    1.03343290325521
C         3.30391735938192   -2.53967220695714   -0.23145039011549
C         3.04913607943472   -0.60594207067767    2.60895063158300
C         2.87842915806970   -1.94622744270349    2.08198468324589
C         1.91535374481149    0.23140376568143    2.77294304409843
C         3.21427123809396    2.02220461269549    1.60084799892795
C         2.02913492914510    1.58554880083980    2.33122215507125
C         3.58654462615130    2.52354608981352   -0.81591833755046
C         2.98998720923579    2.84593136052861    0.43352657350615
C         3.13128170233986    0.90522099412959   -2.41068005105818
C         2.72032146161283    2.18764738290046   -1.90334592210851
C         2.49024485400170   -1.40224143721128   -2.25465148253607
C         2.14594352870784   -0.06715518462572   -2.66550534085893
C         1.45990001140093   -2.34022027320613   -2.29635309283348
C         2.10623310147312   -3.31900397362547   -0.18433522738824
C         1.34825032040859   -3.40823490177423   -1.37093334679108
C         1.64216376632480   -2.55679891828786    2.09399437696484
C         1.38270802641702   -3.50803767955731    1.04203223346864
C         0.63341206653791   -0.42117906399323    2.92400730462821
C         0.57284552671525   -1.85360375509952    2.75793450564190
C        -0.57635496131469    0.33050048301496    2.87893756301064
C         0.80154166389769    2.33307008845034    2.24030882274637
C        -0.47632015798037    1.74796346050062    2.62732325378787
C         1.74737477052779    3.44894483723444    0.30417640057175
C         0.77454113018320    3.42199814634286    1.35570185255628
C         1.37168494171347    2.55859867897684   -1.92859073126644
C         1.02002854530442    3.46865190026772   -0.91410267096829
C         0.75904407218519    0.34823509271082   -2.80395204227313
C         0.35665424228782    1.68218203673542   -2.46137544891342
C         0.15363862262591   -2.01135888263180   -2.78429771658661
C        -0.24673221038022   -0.66587451405061   -2.92608900653994
C        -0.00888951411980   -3.86522902326873   -1.39645836949257
C        -0.72993549148474   -3.02997986449044   -2.33187386818908
C         0.09269942074526   -4.06984338584671    1.00183150202622
C        -0.62753028902027   -4.28752330016062   -0.24108992375084
C        -0.67648566303598   -2.46980810873290    2.71363423946624
C        -0.85032469023732   -3.66115627447146    1.95225297039477
C        -1.85383169569500   -0.32589878750704    2.68082430696880
C        -1.87928743493146   -1.71798533807983    2.62658440037557
C        -3.00683058484397    0.36060667363148    2.13178751930441
C        -1.66266909353616    2.43079619431957    2.32766854071971
C        -2.93255004401433    1.76233144539065    2.12651024109675
C        -0.44532706303132    3.87776387284231    0.79550521677303
C        -0.33910210716205    3.74472502681020   -0.62785985682334
C        -1.63825955300986    3.55517575160572    1.41535659422318
C        -1.03401673266417    2.01545261506544   -2.23126406296241
C        -1.37052344681947    3.16961147534935   -1.39463614922553
C        -1.63883971538703   -0.34598691299285   -2.74974615950601
C        -2.03144222577026    1.00943651686587   -2.44181825496396
C        -2.05679618381565   -2.72499506965393   -2.11641962357560
C        -2.51465994523308   -1.40675464649775   -2.41334669821459
C        -2.02849908133929   -3.98126545246855   -0.01315058864436
C        -2.15990057789044   -3.62200703150755    1.35494158428425
C        -2.79223127215566   -2.43480057103915    1.75628852670874
C        -2.73481324947125   -3.21670506850518   -0.93572885000493
C        -3.83695115812127   -0.31470520882703    1.14800005484874
C        -3.61499022123612   -1.17616663631027   -1.52612243442761
C        -3.59811006329427   -1.70709813665552    0.85168057931015
C        -3.60406491625425   -2.17047598890692   -0.48717909653687
C        -3.33603316322468    1.20838575938449   -1.87986580665226
C        -4.37337866835878    0.46168773939104    0.09180491321818
C        -4.02246220520720    0.08808721085165   -1.25628130737787
C        -3.66642867887726    2.51402640898730    1.16586551341226
C        -2.77858870237035    3.52514629537189    0.60882752700832
C        -2.65924090937061    3.28583718241622   -0.79445861640706
C        -4.29007605286622    1.86630550647163    0.11630038055259
C        -3.65060988624993    2.33125565415022   -1.12089163429609
