70
C70 Isomer 4133 Symmetry C1
C         5.08455150114912   -0.57798566716379    0.70873169637931
C         4.37743253604328   -1.50745683158771    1.43484713127725
C         3.54248606306247   -0.79867698091818    2.41350485542113
C         4.74359930299179    0.74624290228539    1.26925472825526
C         3.66348178980083    0.59725325521533    2.21120541461938
C         4.58928500008381    1.60252180895044    0.20904746261875
C         4.93217090850037   -0.51349540624163   -0.72602166430782
C         4.70852900824875    0.84747675196568   -1.05331685211277
C         4.10202487919268   -1.44900022974505   -1.35833230990401
C         3.56240494620244   -2.49824334709994    0.80512336647019
C         3.50041260224946   -2.51061042453982   -0.58827839347235
C         2.29785290804870   -1.41590150003222    2.43949953975189
C         2.31814278642695   -2.54957802213307    1.54423973236362
C         1.11661439211834   -0.64628490895382    2.57706577835775
C         2.47937319981531    1.38308400210945    2.11296827073522
C         1.21193581838883    0.77873131100170    2.47041471114546
C         3.47020292691638    2.46544240355849    0.12986733533625
C         2.45202519131056    2.43711806030737    1.11662259305506
C         3.66996860737089    1.26693527508327   -1.88973577278648
C         3.07800808597788    2.42705478837599   -1.25470109632171
C         3.09654124341240   -1.01335514742581   -2.30060674862186
C         2.78792181197114    0.33776866365074   -2.53721228945493
C         2.24449418579649   -2.84120368465743   -1.19485503817809
C         2.00730910517255   -1.94384618308388   -2.27112909983981
C         1.13220014896953   -2.98171693016554    0.98001857153880
C         1.15014027136751   -3.28943449981571   -0.42923769518976
C        -0.11529692931877   -1.32974647066293    2.32847136259759
C        -0.10984606527982   -2.53303073033830    1.56790589081240
C        -1.33678403370825   -0.59364238891343    2.53026130806517
C        -0.01652818789451    1.51501684729796    2.31474900556483
C        -1.27616758586060    0.85272381680567    2.56585369924839
C         1.18607126654123    2.99689398416797    0.75098994510202
C         0.01756855853310    2.72118402728285    1.54706722018951
C         1.82144259522932    2.80292079011523   -1.59659519918372
C         0.96809314827686    3.34516872910778   -0.59586656721956
C         1.39880211312208    0.71566400783865   -2.82266965726141
C         1.00501145865693    2.02222024223298   -2.50344432545137
C         0.69489325522196   -1.61024036867381   -2.67429082674035
C         0.32311688052746   -0.24169500760429   -2.92530239533935
C        -0.07297295126544   -3.30111920675024   -1.09441674666870
C        -0.29643662448181   -2.50392551589747   -2.24231327799676
C        -1.33120205066256   -2.98198264689615    0.96856736013989
C        -1.30953637850478   -3.39524665290397   -0.37990802832721
C        -2.54736528348008   -1.23971429399085    2.25869574034458
C        -2.55593983209247   -2.44172871992560    1.45261462375844
C        -3.75673396982992   -0.51155640855585    1.95826319420418
C        -2.48431647756522    1.54448295614228    2.29095226167805
C        -3.69961138479850    0.86343622930516    1.87656861268395
C        -1.20962740103767    3.24426711819605    1.07717259666394
C        -2.41615378978026    2.74270019200688    1.55734092789913
C        -0.34291715594942    3.31286518778592   -1.16210979237007
C        -0.34322867461912    2.37590682140484   -2.26537283691851
C        -1.41661813651612    3.43835534338637   -0.34469403094548
C        -1.06783694958037    0.13874421317343   -2.79072867340014
C        -1.41594520134427    1.48749347038736   -2.42936741896794
C        -1.68889009406022   -2.18908378895036   -2.29410540717594
C        -2.34275376620819   -2.96213614015924   -1.26839402624535
C        -2.09101745602682   -0.87506026792580   -2.58018859705583
C        -3.70773192762362   -2.45062585182415    0.65417881288062
C        -4.46346832111004   -1.23967451458675    0.94353731798507
C        -3.56902465012024   -2.55879954343464   -0.76392899308828
C        -3.38962298435330   -0.50620237075761   -2.09357995341543
C        -4.78666848457787   -0.62693140613714   -0.25800830634436
C        -4.16037226285943   -1.39709319180711   -1.33551859704820
C        -4.19804388637910    1.52105329095713    0.67615638512498
C        -3.37874436211542    2.63631960928119    0.46227360526276
C        -2.66727206484586    2.83537469256358   -0.73117878231238
C        -2.66909369027413    1.82396755872430   -1.74821881066763
C        -4.51048621220836    0.74994945842780   -0.45856144371741
C        -3.65785327036489    0.84268744116404   -1.61884140347984
