62
C62 Isomer 1581 Symmetry C1
C         4.44683251225396    0.03480776460533    0.01243542405941
C         4.03428981071656   -0.42331219252383    1.23664474199409
C         3.54377899969932   -1.79731771953611    1.09431720036990
C         4.14006093946344   -1.04471262662192   -0.95664622184500
C         3.44182418422313   -2.10377051519347   -0.28917668078772
C         3.55522868257239   -0.44126816547824   -2.03776733231664
C         3.94307305911234    1.28291112289575   -0.49633333044406
C         3.56484179647694    1.01177892281294   -1.83355420363594
C         3.09681635131040    2.09958850835438    0.32012186312105
C         3.10177964973764    0.30425404367279    2.04638401356823
C         2.69129281481783    1.59909323985423    1.63574721657587
C         2.45081408374404   -1.92202466902778    1.95432015584887
C         2.15029474018784   -0.63497422300863    2.55526737753955
C         1.38917273060040   -2.70069417389739    1.53237445945288
C         2.19686449996131   -2.57748624171111   -0.81141669516699
C         1.29539276641245   -3.07608118383260    0.15674175036546
C         2.25915384273259   -0.81793788131948   -2.52211088999976
C         1.57106893448008   -1.90933374517672   -1.95155837395670
C         2.37805430900099    1.50309386857161   -2.37850428967419
C         1.56412039367411    0.39669635866612   -2.83608365774532
C         2.13200277013023    2.87550227371669   -0.37453022293177
C         1.74185180902401    2.54567876694389   -1.71597499879591
C         0.95743907280108    3.40142728739415    0.25806533194532
C         1.44436729304499    1.99990548649339    2.16381648719580
C         0.64335012237425    3.02361933783455    1.55049924990885
C         0.80683708094692   -0.28719537093440    2.83016241788087
C         0.53174803329546    1.09014845115363    2.77343218650265
C         0.06105671441908   -2.44793492609416    2.01313675907379
C        -0.28743368361355   -1.22201232161015    2.60385058323738
C        -0.08794741507990   -3.27042081907163   -0.13466181425792
C        -0.81646591869330   -3.07358353679766    1.08085565844949
C         0.13893665450985   -1.93123284948941   -2.14432881931544
C        -0.66092795100237   -2.84958668871709   -1.35680875843637
C         0.17158230948743    0.47303679954267   -2.82026463654208
C        -0.52511535668170   -0.77741132486152   -2.69022353995188
C         0.33663839021883    2.71794378916044   -1.87266863090693
C        -0.11469299114499    3.45534793209347   -0.71663724185268
C        -0.47438031265743    1.72628182687186   -2.45142563639399
C        -1.42556695422073    3.40796614177015   -0.33670100771126
C        -0.72803397607724    2.82581317421984    1.93054106586141
C        -0.81487310710739    1.57850769552977    2.62058684977279
C        -1.75306518012326    3.19589930605455    1.05980547826609
C        -1.65508143611968   -0.73295040740901    2.43759077931184
C        -1.91313919212321    0.69994480931569    2.46717702373680
C        -2.15404810262036   -2.72249949888681    1.05823245676853
C        -2.59431058792062   -1.55088807700031    1.78022245598261
C        -2.07653279178622   -2.75924049042778   -1.37602503467162
C        -2.82816104930602   -2.82595881604620   -0.17026947601905
C        -1.94359293585435   -0.69149664576941   -2.64478614116488
C        -2.70642539238057   -1.75122961107535   -2.16795377617885
C        -1.88709253397545    1.74329543289686   -2.13732868166141
C        -2.37081412335179    2.65226495681817   -1.14191716746759
C        -2.62847984075518    0.56634264289054   -2.34009702253855
C        -2.93786200193400    2.44758000862879    1.08921440630513
C        -3.04361748032441    1.21440780816932    1.75673987057787
C        -3.40060157135317    2.24351008007944   -0.27982709787701
C        -3.70343656124736   -1.00852232991706    1.01579016760600
C        -3.84541096109823   -1.78827249298810   -0.18536878610017
C        -3.82730159726824   -1.18074025445447   -1.43003940550443
C        -3.77274432672187    0.23899584359221   -1.53855493289214
C        -3.87433640014369    0.35622711720096    0.92979829709946
C        -4.02307361874362    0.98821900107361   -0.37432722363376
