68
C68 Isomer 1440 Symmetry C1
C         5.18018136455738   -0.44501002698532    0.04876607374428
C         4.76300155133936    0.62430750395973    0.93105919193206
C         4.44735608430275    1.71072048243187    0.12551479514012
C         4.76449498954904   -0.08805620389776   -1.30354618546772
C         4.43004640248028    1.26423263074095   -1.29240097898677
C         3.78467920573057   -1.02091174997163   -1.77563930037718
C         4.45014510003840   -1.57762027935817    0.40808288359325
C         3.76041660606032   -2.06182145989625   -0.76749314216903
C         3.73457976506053    0.13109946127215    1.82450832254832
C         3.63234813405186   -1.27754001859786    1.55710610480488
C         2.55410446274362    0.87619243201379    2.09564505226710
C         3.28515785537860    2.46245681959028    0.36396841971729
C         2.38132853466709    2.14491485233039    1.41608133933215
C         3.22851545807283    1.70877766511975   -1.86068448152549
C         2.72089544825252    2.70414084711922   -0.94206477890070
C         2.54311130665809   -0.59330472741728   -2.33725142875024
C         2.26531391151451    0.81838992164903   -2.43572625058893
C         1.39118085822044   -1.47842337693920   -2.24637284807456
C         2.62002407972261   -2.77403929931738   -0.56130064034565
C         1.50184194158245   -2.63413456419789   -1.44877839994925
C         2.41985166935641   -1.95421154664408    1.74531696533549
C         2.07795265931744   -2.92927102330287    0.77074737945529
C         1.35937132676094    0.17386577194026    2.53109169108016
C         1.34413078491397   -1.26416722259569    2.43126806115960
C         0.10422163934258    0.87482537760995    2.68583763738470
C         1.06833583851272    2.71755754139584    1.33785788202209
C        -0.00520686701437    2.21066003588367    2.15603915112554
C         1.44080018075286    3.11818681718150   -1.03977745832801
C         0.70282247952585    3.38433449096015    0.14939997849369
C         0.89171622684791    1.26660507596572   -2.52908102793958
C         0.54278628166091    2.53152524570712   -2.00324927410378
C         0.04974973754829   -1.03599380616521   -2.52894567919852
C        -0.21122052006853    0.35871691213514   -2.70764233707047
C        -1.06165824156443   -1.91056590251854   -2.21164723797037
C         0.36479909371644   -3.19024710206522   -0.78245123864149
C         0.73392004214179   -3.33369425575607    0.60546665712865
C        -0.92680970441237   -2.89856048798535   -1.16367715480370
C         0.10855993337166   -1.92811517822427    2.46339117185292
C        -0.19712967711042   -2.99113034049130    1.55939334899890
C        -1.12466447257821    0.13433625700892    2.89959888159369
C        -1.11702575246226   -1.25721619963311    2.72313893189730
C        -2.41108714753693    0.72626876204794    2.70741147917742
C        -1.29460574645342    2.74928445132125    1.92598268509585
C        -2.46251513053203    2.06570154967837    2.32851614809568
C        -0.65717592429170    3.46531045072019   -0.27539694968252
C        -0.76825743359521    2.85383229010419   -1.57742260194624
C        -1.64406013827294    3.31417610818487    0.64915597215878
C        -1.57197133278225    0.85130575604057   -2.61010886828274
C        -1.88361199382618    2.07888804332766   -1.91661382178450
C        -2.35416372762256   -1.47429608585048   -2.48800799505372
C        -2.61608426095069   -0.08278320487397   -2.71310584481321
C        -3.49365110211484   -2.02397699106916   -1.78120259827501
C        -1.98093458342241   -3.00242367235309   -0.15523625602418
C        -1.57769478279094   -2.90029303580883    1.19947838280051
C        -2.18875381995712   -1.93821879494628    2.04946890206435
C        -3.25850209114456   -2.53359228692971   -0.46697689198545
C        -3.54209487534183    0.03245980114617    2.10143015844493
C        -3.40730600845740   -1.30960532115100    1.68726660586136
C        -4.03214943421977   -1.73961978304008    0.48018702845591
C        -3.50765276203582    2.20049238715332    1.32964507677530
C        -2.93078645696003    2.79967412090676    0.21368474711055
C        -3.06817219017678    2.19408066980305   -1.08190852116921
C        -4.21841635636197    0.96986720664894    1.24407399878110
C        -3.90857593472187    0.19023104974305   -2.16918015845829
C        -4.48193410140825   -1.02825427948908   -1.68634761489159
C        -4.77555871159366   -0.81325081194372   -0.29454841988564
C        -4.07419289936369    1.21426649911280   -1.19133513935662
C        -4.67311677260758    0.58566375146128   -0.01445958062887
