76
C76 Isomer 894 Symmetry C1
C         5.58269774038907    0.62630836880238   -0.26593204620067
C         5.37117848242063   -0.43258614908756   -1.10577786383355
C         4.76432999092680   -1.53070219872373   -0.35411009546786
C         5.04721389836425    0.25774115143015    1.05306876466218
C         4.47277605622508   -1.07825006415416    0.97258842270578
C         4.16928582389232    1.26036130482090    1.40725016055517
C         4.81663611259661    1.75824831762909   -0.78542183669230
C         4.07552684281741    2.22819290345905    0.28417693022262
C         4.45295200831939   -0.03778562131411   -2.18312292363198
C         4.06275183819712    1.33190600988636   -1.95830159358391
C         3.70214325220957   -1.96832579248277   -1.14726902527004
C         3.46406725991252   -1.01138580761910   -2.24598076828798
C         2.58869230179299   -2.51379694884306   -0.53476630642447
C         3.19427468980276   -1.34847293563348    1.53023332972353
C         2.37865427146368   -2.30953637092497    0.85918117862557
C         2.97957478967266    0.98544726786256    2.15718657446421
C         2.43967156680539   -0.34302325851362    2.25580601370558
C         2.09455450769773    2.05216700405297    2.23418162142755
C         2.85023995914792    2.87954573099201    0.04436760777479
C         2.06607758610933    3.07388716954087    1.18650899723241
C         2.70951020347005    1.68695016412124   -2.09415212017045
C         2.16598997856979    2.69328969432992   -1.19849960518248
C         2.11873399428917   -0.66886221912844   -2.56653477718034
C         1.75858331206486    0.70206383684598   -2.58657433750301
C         1.44392722074188   -2.67025628307480   -1.38934989613137
C         1.10471254138041   -1.64691423726055   -2.33363301740433
C         0.45784902376678   -3.45000236584790   -0.86209115706999
C         1.08972473540125   -2.63072495023756    1.37383532244386
C         0.37725198073579   -3.57326849638480    0.58858588173847
C         1.03242502690996   -0.51121523575849    2.54386151925360
C         0.36537156053703   -1.74871416289463    2.22143088989386
C         0.77619393973286    1.89233406372825    2.70085653583430
C         0.18841292511294    0.61663278195151    2.82878038845963
C         0.76848609408598    3.55839824927916    1.07763742998640
C         0.02047703828183    2.98961969327845    2.17090563431203
C         0.79780441794327    3.03909965098876   -1.28025496114918
C         0.12556705290472    3.67022451387471   -0.18027540097663
C         0.37222543826145    1.01098841000251   -2.66162368070788
C        -0.02397559423307    2.32884237741497   -2.23625548762785
C        -0.27546934184088   -1.37377838871832   -2.55593332530814
C        -0.63198025780366   -0.00545104919109   -2.81419416618402
C        -0.85852117896998   -3.45847084540347   -1.39847598187145
C        -1.28681644821511   -2.33796875339849   -2.15833856436583
C        -0.91916506094829   -3.90115506050722    0.90495443574803
C        -1.66388305323706   -4.01367688969594   -0.35834709230510
C        -1.07956934519291   -1.88823192236816    2.32624259857704
C        -1.66766197376127   -3.06872737757143    1.79486468229243
C        -1.26324259208512    0.53727976762072    2.72507730509618
C        -1.91922010159511   -0.70936103386238    2.44549900072480
C        -1.32751264863347    2.92501680867758    2.10616962322379
C        -1.99849234944910    1.71833711962520    2.49185158147303
C        -1.30376275636540    3.81082981767875   -0.17065864490373
C        -2.03128431533659    3.54375177266250    1.01569390007018
C        -1.35006463658394    2.67531854452631   -2.35387301757766
C        -1.99087929630897    3.55497593337777   -1.38901640556670
C        -2.02831703023651    0.35951678405136   -2.86617677551768
C        -2.32742132714714    1.74266302632357   -2.84067565879777
C        -2.66069486697024   -1.91153263551812   -2.00920650159376
C        -3.04201316251369   -0.58025238429977   -2.42940242180830
C        -2.91806543865642   -3.52020506549062   -0.14499394052724
C        -2.97473077095459   -3.00420769897326    1.24023404061246
C        -3.45523366951705   -2.54066832736469   -1.01043432889979
C        -3.25447455249423   -0.67168221519281    1.89509857855451
C        -3.71218232911686   -1.83981015530781    1.22227616999419
C        -4.23454503242102   -1.70006284995973   -0.13454292677158
C        -3.26583160371995    1.75929744408758    1.83880718848171
C        -3.31954610915072    2.93993030232004    0.98963897978049
C        -3.89979693509013    0.56127303922341    1.49723946810311
C        -3.35474028968117    3.28246341889937   -1.40198735501783
C        -3.58534062471506    2.22308832140569   -2.38394981328111
C        -4.05029491411102    2.92311642578846   -0.20221842409681
C        -4.24654107839517   -0.05147476963220   -1.89336575816026
C        -4.66945467340376   -0.51247349070996   -0.58865312288372
C        -4.73228752928544    0.61516838567079    0.32179740901824
C        -4.50026266212804    1.33530818230898   -1.86400810441684
C        -4.80326991268513    1.75143025250933   -0.47950893442015
