80
C80 Isomer 17374 Symmetry C1
C         4.83356992218206   -0.18654583130632    1.62408273918304
C         5.04301857863831   -1.14116046176892    0.64336981602331
C         5.09637658927645   -0.46664740952162   -0.65100185115505
C         4.68169438047471    1.09905772875093    0.95348285902530
C         4.80584227309142    0.91035323474272   -0.45847694145992
C         3.54187724260641    1.71394187395324    1.48072626898845
C         3.76606485392551   -0.32861360227442    2.56316815831827
C         2.99403277342947    0.88039311292183    2.52979458640375
C         3.07038637036901   -1.53539878508166    2.59584194366633
C         4.17429790971190   -2.27195016984964    0.51833949422974
C         3.26885515253694   -2.50768745925601    1.54196278726329
C         4.33101246275717   -1.23565938290030   -1.54530077089913
C         3.70629791444034   -2.34250494501040   -0.84713018336564
C         3.61525499931487   -0.55699223586950   -2.52408279184277
C         3.91165748433923    1.58891266477604   -1.32685379042459
C         3.51525913986368    0.87424676720057   -2.48418240411439
C         2.68142037088296    2.49317588338399    0.67103595378001
C         2.94860277618372    2.52537645127338   -0.75824869664566
C         1.38556249144649    2.76884211944796    1.19271084463039
C         1.62076829306786    0.89882271338258    2.79203413395607
C         0.83908496651132    1.98194684803110    2.27634692456429
C         1.68092518272402   -1.52174259638951    2.91391612330247
C         0.94907728581283   -0.33460927083262    3.10089553788252
C         1.98659301468204   -3.04929980919734    1.21012558630846
C         1.05845354451488   -2.58867796381801    2.18448868166924
C         2.39517585643238   -2.73307482891010   -1.17052802793316
C         1.52900104027898   -3.19454422711858   -0.10857166329694
C         2.38118065461253   -1.09056937914976   -2.99687896064372
C         1.75241682263470   -2.15901784102784   -2.33635633343105
C         2.31070782177012    1.19889326291493   -3.17940201159105
C         1.60728077694528    0.00365565142753   -3.51632144710139
C         1.90108309315811    2.95790709636580   -1.58086399007335
C         1.57118422229943    2.29611263254988   -2.81193179152580
C         0.45344042561684    3.45292220641221    0.34277910774300
C         0.67987097633909    3.45661797409499   -1.05106356645701
C        -0.86470659411345    3.60674302950542    0.73971201421913
C        -0.55868108176551    1.98612609087429    2.56815158479443
C        -1.34078889015870    3.00213702652964    1.95946901332646
C        -0.47960376897644   -0.41202230350719    3.07402962240415
C        -1.25241474128346    0.78807536191147    3.00718254848732
C        -0.29976195611082   -2.63943398916739    1.98513799018964
C        -1.08474627709987   -1.66720760612875    2.70976158483836
C         0.11551017452144   -3.33710626511956   -0.31353897971453
C        -0.79499013899831   -3.24495137849735    0.78316509387695
C         0.34826088442010   -2.32057758887687   -2.54757120348313
C        -0.41204000614300   -3.13754938368734   -1.63706341582720
C         0.22123922355442   -0.04645000813337   -3.56978639648077
C        -0.35845571702395   -1.33159411809526   -3.31573478028253
C         0.14953566248332    2.28731553445136   -2.95454343771040
C        -0.39198202668781    3.13455292112062   -1.93559543382139
C        -0.56319471096414    1.15068019240436   -3.33225988342935
C        -1.94182481560505    3.57741734629869   -0.21190194291474
C        -1.72475294931720    3.04186779021408   -1.50392056702114
C        -2.72609274111426    2.88272887453936    1.85015041266719
C        -3.09479934401413    3.19943121495422    0.48416902293421
C        -2.69009780532713    0.68080089384986    2.87421811943939
C        -3.41831894798976    1.72315339463818    2.23794101987898
C        -2.45264347324139   -1.76014188599230    2.56956026780485
C        -3.28126178095861   -0.60322251411668    2.74827317699689
C        -2.21951448630521   -3.25098218298408    0.58869203546927
C        -3.04030478022854   -2.63511380114139    1.58274021250755
C        -1.80207012853335   -3.22881828384606   -1.81385497767141
C        -2.72801294460526   -3.33422922248315   -0.71323162639249
C        -1.75357231265124   -1.36638545571785   -3.36628920797830
C        -2.42851295321788   -2.44398901049774   -2.80721615906914
C        -1.96025036488474    1.05760528100077   -2.93777714902349
C        -2.57588568000610    1.98652779120429   -2.00723591436463
C        -2.56856936220455   -0.17479884008416   -3.14533791541904
C        -3.95788524635423    2.20659943021850    0.01092128349714
C        -4.35648264273123    1.43301801184673    1.17435427829776
C        -3.72653963944568    1.56984673538260   -1.24551126615104
C        -4.43117278550071   -0.81482000074063    1.96060983742987
C        -4.27545779930126   -2.06151957159675    1.24510544302898
C        -4.83177314929274    0.15627388771555    1.01206232485337
C        -3.93220846561360   -2.60182606799906   -1.06844707361366
C        -3.69991593216029   -1.97932782106855   -2.30078162136711
C        -3.75277300483341   -0.57309026666262   -2.44335551603671
C        -4.29237912325397    0.24086973672718   -1.41094141293504
C        -4.62944930478136   -1.85445954704484   -0.11256566375021
C        -4.86598573505199   -0.44763545454537   -0.30985166746172
