80
C80 Isomer 1455 Symmetry C1
C         5.70513148121628    0.38647662263922    0.94281368409662
C         5.82703434990868    0.37155551129708   -0.44060303220664
C         5.31418749609012   -0.90301867800567   -0.91549494376725
C         5.13619747979372   -0.86541885176175    1.39217347887801
C         4.91184107226428   -1.68276637947731    0.22130926902653
C         4.01250683094385   -0.53414507140098    2.17861132292958
C         4.81075357401138    1.47340582020927    1.32620844196299
C         3.81746768244180    0.91473536240804    2.15166745891122
C         4.98462938229022    1.42712876682150   -0.97630732949412
C         4.39953409597612    2.15279882587712    0.13306389669558
C         4.31958025912570   -0.61630920684630   -1.86750897188703
C         4.10393835945900    0.83612022498685   -1.89309617974873
C         3.21325558828173   -1.45848040994235   -2.02897830287783
C         3.74207749107321   -2.44565462213396    0.14392937591955
C         3.02608033040698   -2.53713342555721   -1.10638919282317
C         2.87856663988888   -1.36272284193050    2.20654855913409
C         2.89654134216587   -2.48750922744252    1.31901083965794
C         1.60153881262978   -0.82520656670153    2.61959870323577
C         2.50656942387318    1.41318683559837    2.12917245936218
C         1.41163943638796    0.58595956878386    2.58043413316580
C         3.07499628358204    2.56637146658658    0.03295796084882
C         2.21121480198515    2.42574117602891    1.17520231538444
C         2.79390511467581    1.34231559931471   -2.07595165278100
C         2.36620745461367    2.39046166856329   -1.21661888957561
C         2.05122189224181   -0.90622183517172   -2.68917827036644
C         1.79032063695577    0.50555318188215   -2.67138985059352
C         0.96488395772989   -1.74766973027354   -2.86380410290875
C         1.80308247828713   -3.28577533763321   -1.15783656736696
C         0.85928881157508   -3.00063568490802   -2.17666429804318
C         1.73423147334809   -3.23455192989858    1.24818279784152
C         1.27763871287274   -3.81709740051390    0.03198009901370
C         0.44079724206195   -1.66471154239768    2.61710232858068
C         0.58968209573086   -2.93956018767275    2.04030121604898
C        -0.89048071354960   -1.14274329837145    2.76933501901811
C         0.09933067197484    1.12438134542978    2.58030666063052
C        -1.04634327943324    0.27630353084398    2.79680251006473
C         0.89438518703490    2.91252571741007    1.08900043921233
C        -0.08702691772027    2.43917591595962    2.01665555989600
C         1.04373521297861    2.85424064051625   -1.30816083898519
C         0.46832112425932    3.49048454124345   -0.15317570011902
C         0.45286998154878    0.98898765126168   -2.78940367955054
C         0.15572857147244    2.28336345149932   -2.27226346569858
C        -0.35035896163905   -1.26340402902258   -3.08840373354140
C        -0.65900564369211    0.08684156273419   -3.02015924279142
C        -0.51337503905826   -3.32221252582642   -2.06618961650766
C        -1.28180002759675   -2.26334894362195   -2.66131114867742
C        -0.11938034609216   -4.09558726781584    0.18406191629734
C        -0.52367984270862   -3.61155933867036    1.46170572705211
C        -1.01499789360756   -3.95868672238760   -0.89993990053323
C        -2.03407858166650   -2.01303712162517    2.51229693455048
C        -1.84202188639459   -3.23674797325344    1.75712612407531
C        -3.31331917922012   -1.42293990257693    2.44317716851886
C        -2.35923605116983    0.84149093651659    2.60040839578086
C        -3.45214915964339   -0.01247503688590    2.38072242715664
C        -1.38013227149960    2.98035474402616    1.89134915474337
C        -2.52927375979445    2.15599755366042    2.13303370803561
C        -0.82664463445761    4.00483520161761   -0.24755486127210
C        -1.68844540390295    3.89487838183463    0.86510967581528
C        -1.19361720413315    2.71101526154017   -2.27055570493343
C        -1.61332852931462    3.72594456117727   -1.41649340374845
C        -2.03140766008345    0.42854559167316   -2.69958841052720
C        -2.29330356710843    1.76968278646222   -2.43869801016503
C        -2.58513392543087   -1.93948857164196   -2.27389582594277
C        -2.99865499438428   -0.55587801339616   -2.25949326088335
C        -2.36178802062394   -3.75696583248461   -0.58321897356919
C        -2.79284884854320   -3.62872123227546    0.76961295535444
C        -3.20763729485968   -2.87934931260803   -1.39200873897041
C        -4.33431398745170   -1.96418893109414    1.58575222887301
C        -4.06082496679242   -2.98767544440620    0.72253241606753
C        -4.30229743178983   -2.49466129342935   -0.64103730276221
C        -4.42956293410206    0.32131306058729    1.36088623916783
C        -4.06735280622375   -0.14162806759349   -1.38372851178293
C        -4.90733799156124   -0.85771983411465    0.80949717669555
C        -4.70484843794361   -1.12919395355466   -0.57241061070874
C        -3.53467954389281    2.48849020925591    1.15825843724263
C        -3.02324698900561    3.55109024283510    0.38229225237984
C        -2.97093981027748    3.41177470982846   -0.99703743212638
C        -3.37258366595583    2.18519257646058   -1.60714671621626
C        -4.26072144441309    1.45024943193281    0.53107691257684
C        -4.10973318641996    1.21883133902215   -0.88857170544608
