78
C78 Isomer 2385 Symmetry C1
C         5.80823214287125   -0.39934902596658   -0.04857870174506
C         5.20087703826746   -0.94161873190485   -1.25338199126390
C         4.57792389613705   -2.14017711034039   -0.90793092195677
C         5.31983830377882   -1.15948822106949    1.07236447475533
C         4.61190275114241   -2.25696178825960    0.57104980233584
C         4.62876335990488   -0.28036442195122    1.98133233284524
C         5.30938158714676    0.90176590848625    0.10655105904947
C         4.71474298828642    1.03548553820242    1.41348236624865
C         4.39599639407224    0.08112829021782   -1.86348030170625
C         4.48753237834532    1.24879057264270   -1.02010287087114
C         3.14232565067150   -0.22306484039503   -2.42199430631460
C         3.26502294015830   -2.40149725665746   -1.32715021684530
C         2.58735362566890   -1.53784376573082   -2.21917756844288
C         3.30276842168959   -2.54575495176506    1.00050661810987
C         2.51403284845515   -2.83175442628254   -0.17107409453358
C         3.39969073528088   -0.67684828849128    2.57310288838045
C         2.67956018495592   -1.83208686710594    2.07152230944721
C         2.61263219514610    0.38398740615846    3.06692481481696
C         3.71546162769303    1.99370471802356    1.60085263456450
C         2.82512431386123    1.73099760302230    2.66296501231043
C         3.41632157311506    2.15020004314564   -0.87072267406187
C         3.18105682509095    2.70212736524611    0.44634354482829
C         2.22114648894056    0.87896882345941   -2.59385779321323
C         2.33909993945915    2.08580563955657   -1.82017118519252
C         0.96613887335617    0.55919056564057   -3.11352733026265
C         1.17359597005414   -1.73213206233200   -2.32049048993080
C         0.45025106138638   -0.77457709811515   -3.03564973450416
C         1.13623833860525   -2.79893967435546   -0.14244204503679
C         0.42777391816440   -2.47174732663684   -1.35087148401668
C         1.25719305960798   -1.87649216607574    2.14465479765310
C         0.49840131455011   -2.54281948685047    1.11603573615132
C         1.21745061432366    0.24060120727972    3.32684665886329
C         0.52393228004306   -0.89134870052673    2.89787557280472
C         1.57882637853114    2.42067941366303    2.78963672156737
C         0.57234837819474    1.51522352749999    3.25483415666660
C         2.00476350389097    3.41757728802271    0.62409708982486
C         1.22669987591094    3.34848042155832    1.84051754209521
C         1.17522505276696    2.91405763759820   -1.64986930576042
C         1.08221219285885    3.63235109911138   -0.44211378132778
C        -0.15177136582599    1.44329942525187   -3.08676818810161
C        -0.06509160875810    2.63887265899144   -2.35088475449244
C        -0.95978527972311   -0.70835030710829   -2.99598797826700
C        -1.34683454599929    0.66735024463454   -3.12588480745421
C        -0.98207417671248   -2.40972970337036   -1.31060026497526
C        -1.72695788128492   -1.58130687908984   -2.21566196883604
C        -0.89749773603820   -2.56278826933552    1.14782004789472
C        -1.63327397007754   -2.78185339784481   -0.08216887553159
C        -0.89652518662724   -0.78626803150535    2.82011431667797
C        -1.58934175437956   -1.87527869481441    2.20203778433363
C        -0.77709275899831    1.65215690767987    2.91572218397812
C        -1.57824080065884    0.45990510674583    2.91081016208342
C        -0.15388170971027    3.55213910380377    1.53328060916717
C        -0.19630196459978    3.91088425513081    0.14628053253786
C        -1.18305690199569    2.77034305673692    2.09763621951571
C        -1.30299178315691    3.11164925385051   -1.85810268376632
C        -1.35452039465006    3.71019838326842   -0.55318355838909
C        -2.57011544520056    1.10472009362242   -2.60059315010293
C        -2.52461576690965    2.40334092948152   -2.03217216657283
C        -3.11327120212051   -1.24537987035496   -1.96897488736574
C        -3.53796540440262    0.12787632873386   -2.14912918378213
C        -3.01666323597850   -2.77343034032768   -0.05344932384806
C        -3.80240416068663   -2.07659864215557   -1.05912423922562
C        -2.97153441407267   -1.86151033300424    2.22000033744174
C        -3.69005885900976   -2.59010347425955    1.20547125609975
C        -2.97674881957993    0.55353694372480    2.56642645393732
C        -3.70597656979429   -0.65597034711297    2.50993515959507
C        -2.45147497068562    2.69671691547557    1.41633319250515
C        -2.52688056442892    3.26922971565698    0.13045919308046
C        -3.33596413061734    2.65300931777145   -0.87381938075873
C        -3.41620530766567    1.68672531991775    1.77723999264918
C        -4.58243355210215    0.59565507762381   -1.30324761730156
C        -4.31748371896415    1.78198967101062   -0.51114671011888
C        -4.50306324361388    1.46554747329564    0.88506304985334
C        -4.99854026425815   -1.63400739060757   -0.40822403010961
C        -4.93014813002187   -1.98818646224878    0.99909368202835
C        -4.94141000502533   -0.76146344293830    1.78017410645504
C        -5.30324469101162   -0.27389918468805   -0.47199766713191
C        -5.25639674703759    0.27272173063536    0.91031381996525
