78
C78 Isomer 15811 Symmetry C1
C         4.32514560559500    2.11249417246333   -0.98656459579088
C         4.87423653812238    0.86054284814556   -1.14150892283081
C         5.12827235783699    0.30829683629580    0.19387470747902
C         4.18530776274450    2.35367985061432    0.45282773768690
C         4.50629221052679    1.16452795687338    1.15492970366250
C         2.97128611773855    2.99244713804243    0.65878436621119
C         3.10202901655459    2.44830240143865   -1.61313574026293
C         2.38060386387114    3.22329112228089   -0.63754532240332
C         2.39394797084743    1.51076096576804   -2.40692937161347
C         4.21402281026456   -0.11269892936749   -1.93179379512601
C         2.97129743979986    0.19147818039220   -2.56688218491295
C         4.85018751675123   -1.05557930302307    0.13350888502593
C         4.39240313414178   -1.35707838062663   -1.21931067139438
C         4.16519413070272   -1.63325021092000    1.20605981110614
C         3.55715740882659    0.62808502003190    2.09453904637354
C         3.53170371188364   -0.78631757819888    2.16982360408660
C         2.11796017932139    2.60305044916024    1.73364537491123
C         2.34016408978133    1.36039150698664    2.40960810413150
C         0.81791840372885    3.11517099353307    1.63112696244656
C         1.03086442578510    3.46069927307398   -0.77611894588390
C         0.33137783404118    3.69743100148801    0.43214629013619
C         0.96427286135771    1.72086941809408   -2.56542932553206
C         0.34947844212454    2.84001449162391   -1.88736576716290
C         0.11602611724402    0.67497375064583   -3.04276092157375
C         2.07359982868437   -0.90504888493280   -2.83076759064405
C         0.68134842375166   -0.65501859418098   -3.14535672643989
C         3.49573159935337   -2.36971638668836   -1.41369038070644
C         2.42592731514923   -2.18463949869017   -2.34647227898341
C         3.29222368005241   -2.75095152229192    0.97903333607366
C         2.99424010729803   -3.16221701871008   -0.30760997194877
C         2.35447993570675   -1.45759990301596    2.61852655400636
C         2.20999603619466   -2.68667536781340    1.91144162861521
C         1.17181110150774    0.68262416410178    2.94678690162995
C         1.23752432883022   -0.74144244016335    3.07686670426114
C        -0.29812485159108    2.52840666044705    2.30442458940005
C        -0.14805904368890    1.27706158701776    2.91845976622009
C        -1.08892503857716    3.62308482915532    0.46848983098427
C        -1.50199501294116    2.92277176531855    1.65316842789709
C        -1.03716380027718    2.95033686723971   -1.87498044336837
C        -1.76548708658193    3.40785580372490   -0.70531074882762
C        -1.32837651200800    0.82676575627598   -3.03432539958595
C        -1.86870021526451    2.01859432304495   -2.52924946573782
C        -2.21956799325372   -0.32071151960174   -3.00202383398789
C        -0.21073397609384   -1.73589470979696   -3.07735696185783
C        -1.61877015839182   -1.58177926649921   -2.91059763557416
C         1.42070612397027   -3.12133866825450   -1.96194247126572
C         1.67192188687147   -3.61196667919550   -0.64457655611343
C         0.13408703066825   -2.93004097937148   -2.37642177223396
C         0.93668577574138   -3.21755096495616    1.61357998857053
C         0.61338546020155   -3.68369548720087    0.28610907335621
C         0.03928186430461   -1.48163124032379    3.12100204576024
C        -0.11025010067753   -2.70368712668724    2.38309246473679
C        -1.38013812612870    0.51796873465950    3.04175113200827
C        -1.22629227252902   -0.86736285823572    3.22423729970936
C        -2.68588501663149    2.17382109399560    1.68763912072572
C        -2.64399881932020    0.98821627647479    2.50384955222458
C        -3.04750131810589    2.78852599102162   -0.66871477357176
C        -3.17178000136426    2.06580210621236   -1.89606624738097
C        -3.58927033792408    2.28055856637085    0.54609624906178
C        -3.52760139640691   -0.25702998013431   -2.48586738880631
C        -4.04004228622921    0.99487216511415   -1.97798693225772
C        -4.06712347212348   -1.30368709559759   -1.66045223054141
C        -2.09305148568230   -2.56600740096711   -2.00208625359164
C        -0.95698193467485   -3.30695214799196   -1.54261709261891
C        -0.76048272813322   -3.58501292257755   -0.18384573678088
C        -3.23194659046023   -2.36747754669442   -1.21228274704150
C        -1.47426960466938   -2.83578620566824    1.99826583493415
C        -2.17879847416667   -1.80174583670861    2.69362685863556
C        -1.85217933658951   -3.20984615280598    0.69923454107031
C        -3.12369736377110   -2.71044971920577    0.19145205766156
C        -3.68708985202543    0.03980748214063    2.28357350848418
C        -3.38938492910872   -1.38007192216123    2.25599218012886
C        -3.95765130265994   -1.97536022133116    1.07499543630967
C        -4.61409288960909    1.31218835178176    0.39695902767431
C        -4.88494914330158    0.74249481466304   -0.87925679636108
C        -4.97259565416275   -0.70222675282051   -0.74554471019683
C        -4.69029635143142    0.24474018629349    1.33533559796192
C        -4.88384597132160   -1.01345747859538    0.59888440955253
