58
C58 Isomer 17 Symmetry C1
C         4.80528288805447   -0.41078254796790    1.19554276559467
C         5.01527584287883    0.60037461532369    0.22080653387308
C         4.81202194774818    0.05567865101230   -1.07641443632636
C         4.33605226838285   -1.60823953447059    0.50344271177072
C         4.30401202901058   -1.29765145828082   -0.88232518430119
C         3.11208598653073   -1.97797523493290    1.11634876035582
C         3.74969463345220    0.01795041466163    2.06402114734953
C         2.74613214145324   -0.97588097732578    2.11520973826126
C         4.04028696239325    1.65787083096596    0.45594257586571
C         3.30455605087122    1.33864591859693    1.65992051989994
C         3.73754000659271    0.79327777771921   -1.67408806303863
C         3.31501266186079    1.83368630382965   -0.75555444445047
C         3.05792286096851   -1.40155389849846   -1.58641205405694
C         2.70767271563619   -0.08606731736883   -2.09810650511374
C         2.03463480499044   -2.43749522011321    0.34739156121244
C         1.99183207828950   -2.12733712686467   -1.05657649367888
C         0.78053825384099   -2.54083669325302    1.02570297064593
C         1.38227164057490   -0.64137653626374    2.35110700030344
C         0.38571194145972   -1.61252985410221    2.03578500584595
C         1.95142067211610    1.63747551157067    1.72745203647357
C         0.97193922579429    0.72279680241799    2.32597021500608
C         1.96409394575128    2.17838962000891   -0.70189502298360
C         1.42399555469882    2.39357774442081    0.61177502431996
C         1.34757897086565    0.33836006264021   -2.17270744281434
C         1.01229450720772    1.62321385805815   -1.64185146803402
C         0.68499116192644   -1.91670769050671   -1.65225023499609
C         0.30631940936024   -0.64360599944291   -2.19931755559931
C        -0.22163989350256   -3.13255846792733    0.24208632140707
C        -0.31590791512302   -2.72653445347881   -1.14966927354339
C        -1.50465061526829   -3.24468808403377    0.74461558600283
C        -1.02108997252946   -1.33604778330568    2.23447408611787
C        -1.93998574995464   -2.33531447373871    1.77530304683169
C        -0.42222445619656    1.03175082753971    2.31100751765141
C        -1.47428440871822    0.02411387644944    2.36591806586173
C         0.11126523018215    2.75693265866784    0.68098923294774
C        -0.76583568275576    2.29389915621552    1.74358487077480
C        -0.35560585452472    1.99249094433312   -1.55316392540238
C        -0.67754004528742    2.90013997295175   -0.50015233913969
C        -1.09152760943180   -0.27229366656299   -2.23305825612943
C        -1.40809865618163    1.12166841037967   -2.04363645150738
C        -1.69936823941892   -2.53322275452047   -1.45391479121553
C        -2.42480831503276   -3.12455314616941   -0.36470744867441
C        -2.11687771958566   -1.29570715762086   -2.01629991842221
C        -3.27065217115546   -1.99432765128328    1.48169332952482
C        -3.58137137309926   -2.52818337144435    0.13260027403673
C        -2.86390049448346    0.37427742149196    2.03078496595371
C        -3.73923202112011   -0.66567983231121    1.55667881893252
C        -2.06020549032642    2.59036355878868    1.35490365053267
C        -2.00419087037434    3.04967215746752   -0.04522534016959
C        -3.14097075366618    1.67815989752399    1.49746283503377
C        -2.76992488132404    1.48382731643512   -1.74457901604362
C        -3.04283384842133    2.46371109123419   -0.71357746336209
C        -3.91472807192850    1.83652244286006    0.29387301257446
C        -3.45922618899587   -0.88718862320885   -1.68933300057386
C        -4.16799236703496   -1.51436495311718   -0.59454023600777
C        -4.53457949768737   -0.46646759118668    0.36332100676952
C        -3.74739583534592    0.48779965036619   -1.60103401554210
C        -4.47278739441736    0.73154460537041   -0.32532480660445
