64
C64 Isomer 2026 Symmetry C1
C         4.60977357381101   -0.53598592149147    0.28129785006983
C         4.09097391422847   -0.89261863724272    1.51308377020542
C         3.35867306002912   -2.13990365267705    1.36940839115714
C         4.17272318096275   -1.55896784804997   -0.68358398979645
C         3.32535561697680   -2.49431382867266   -0.02136249566225
C         3.67680909721269   -0.88590722989506   -1.78851916188557
C         4.32186004068091    0.76139937687517   -0.27151001639533
C         3.81309711325846    0.55203776513511   -1.58346985704187
C         3.63254362620663    1.68772687735750    0.52315972134230
C         3.27008522825957   -0.00210497682191    2.28507048450007
C         3.12791300202311    1.30244364063567    1.84354088446003
C         2.18096279303572   -2.02665755463802    2.10443161968048
C         2.07685958461652   -0.70429934979178    2.68793251197301
C         1.02834901920208   -2.69842923590266    1.67743339369444
C         2.07820509851700   -2.84695412129273   -0.57341468148824
C         1.05435739444489   -3.24256327486585    0.35622465424956
C         2.37882144754600   -1.14337257604852   -2.30046343994587
C         1.60330742779997   -2.18202065294904   -1.77632299417586
C         2.63219859783142    1.15862359275326   -2.03464763000967
C         1.75242780130535    0.14601646761959   -2.56086652788518
C         2.64081576278794    2.52377317083686   -0.06545164048687
C         2.05395876674375    2.24327021515660   -1.32794953218740
C         1.88898628500545    1.96638836173743    2.07901007080857
C         1.74527550369248    2.90063800618853    0.99693894960629
C         0.81749918509785   -0.09451289633122    2.80102487218838
C         0.72629127201053    1.33045464869726    2.57655803894574
C        -0.22059161161142   -2.29242849667787    2.26821333507287
C        -0.37610702725014   -0.92052074461848    2.70101233163132
C        -1.34057250336915   -3.04106460449819    1.85728899168985
C        -0.17787063430968   -3.62957592657181   -0.20045505820981
C        -1.27752221117534   -3.78894878952567    0.62971151700758
C         0.18909745624995   -2.12821206082587   -2.08019612959128
C        -0.62521769382517   -3.08830212576246   -1.47846945430824
C         0.37486932879950    0.31058207723711   -2.59006599181144
C        -0.42073980008404   -0.90309233633361   -2.55503950312658
C         0.66324554013776    2.53641852020007   -1.57221256553030
C        -0.19441842788625    1.60230012304191   -2.23960008170969
C         0.53783759609629    3.43186843429983    0.72065243395964
C         0.04867507694147    3.44508998666758   -0.65389538713728
C        -0.56129681506299    1.95719208462729    2.35664840097401
C        -0.57435796899178    3.15797292374777    1.59509193245127
C        -1.65727093218047   -0.28549402742103    2.59520393738741
C        -1.76990877330182    1.15645589334215    2.40279663942389
C        -2.61655744483503   -2.45271003971017    1.90704233692169
C        -2.76867856824244   -1.09508334741180    2.19493269742352
C        -2.47512051336335   -3.48822484201821   -0.14595618553111
C        -2.04835153773054   -2.96722642227309   -1.41575147883500
C        -3.32641901495426   -2.75022093969152    0.65210720264238
C        -1.80646759121852   -0.77213458108024   -2.45628333410998
C        -2.63951971112482   -1.79534707090221   -1.88505803540638
C        -1.63412672718307    1.70449858900330   -2.10524848491001
C        -2.40565819587852    0.51696396747523   -2.20567637023038
C        -1.31981749423233    3.59230216869038   -0.58254967221140
C        -1.70810698434013    3.53452000809391    0.84318972724612
C        -2.20340273462434    2.75475106638217   -1.31594189413511
C        -2.93146466291363    1.64260590893623    1.73973607908761
C        -2.86635063253553    2.81062301931590    0.92843875134238
C        -3.28604648587860    2.46177642918190   -0.43616755911372
C        -3.76146205293097   -0.58783848040124    1.26129940442455
C        -3.92822014299652   -1.55224070218124    0.18658464674162
C        -3.66571117091535   -1.13034334781377   -1.12284357674210
C        -3.55369091264482    0.27923026212074   -1.39172327737021
C        -3.79206913199518    0.74427595269766    1.00307875341669
C        -3.86973228192523    1.20242110433500   -0.38244832474510
