80
C80 Isomer 19826 Symmetry C1
C         4.85503871084123   -0.60468273162925    1.05643310279645
C         4.85491460312131    0.77621090431189    0.97307525327298
C         4.86846061310042    1.15084699848594   -0.43926290366664
C         4.79764445027421   -1.11097377248819   -0.31134366203763
C         4.63938905214681   -0.01396040958777   -1.21191930809195
C         3.89708255655868   -2.15914784807977   -0.33892481112858
C         3.85954732942086   -1.27184405214956    1.81108411868832
C         3.41400359237157   -2.37476125595256    1.01392170534037
C         2.88580865435226   -0.55842203620503    2.54215463895676
C         3.86183546037398    1.53519955220546    1.63253414395163
C         2.90732056602257    0.89183324219941    2.46247204451370
C         4.04982609193590    2.28366111328580   -0.56125294068394
C         3.43164404163968    2.57033570403448    0.71653844907701
C         3.26561294943658    2.39234780525005   -1.69649404843876
C         3.56546477790373   -0.03672512114163   -2.17660707236859
C         3.02230517379257    1.21164409498126   -2.51015207570403
C         2.97942347251025   -2.29829392439051   -1.42988746994099
C         2.68611700142962   -1.18075078724595   -2.29758456488839
C         2.01718328182374   -3.26393184877155   -1.22608891058780
C         2.20701937889329   -3.02645277138093    1.24038664978746
C         1.75157897899304   -3.76722231957726    0.11632256301691
C         1.63382907361835   -1.24753336256830    2.79837442866779
C         1.26569177775899   -2.50300477130461    2.19164510628245
C         0.59922267534278   -0.47527538201106    3.31823915930088
C         1.71375233025408    1.64102141356742    2.72038297529475
C         0.66523092674998    0.94356568928071    3.34714097002214
C         2.16880056805483    3.15661976523644    0.79364667135528
C         1.37668108307942    2.81591890502573    1.95083728977776
C         2.07888160796342    3.15430701966058   -1.63909223151737
C         1.51089984213677    3.59805295779359   -0.42380823542088
C         1.71106337718332    1.32516993109584   -3.04019763910722
C         1.22327804964919    2.61824976850371   -2.65802117579342
C         1.33545081073028   -1.05228266419866   -2.79784148196132
C         0.82618933294350    0.23751374170431   -3.16373556119112
C         0.78599146972669   -3.27151799280376   -1.94787281425748
C         0.35038993500345   -2.09893271605516   -2.61081864522895
C         0.46795764403585   -4.26587564353035    0.13503534673022
C        -0.10562812081546   -4.07292094092332   -1.18759848446684
C        -0.12746194467448   -2.87899447253466    2.08259018152482
C        -0.47790508481733   -3.82457502987262    1.09067793377882
C        -0.78764122681357   -0.85373129685021    3.22069066719010
C        -1.18823954361625   -1.99638839302034    2.52841050764904
C        -0.67614432021186    1.42601273370032    3.35303264943149
C        -1.58545821108501    0.31856592580848    3.27127401052299
C         0.05006947561461    3.26859693125503    1.96595717799495
C        -0.96680729220889    2.60509239134070    2.71419302106013
C         0.09996389062777    3.88651753301685   -0.42125361998872
C        -0.59199614915578    3.81453536875218    0.80846615917308
C        -0.10888498893591    2.86471017902250   -2.64348416782246
C        -0.67923190175092    3.63484582196685   -1.58257808329810
C        -0.60567512739808    0.50711865082289   -3.19775574871055
C        -1.02808968993640    1.84181024413822   -3.04545184261189
C        -1.07305276092919   -1.83266708816711   -2.64307374732627
C        -1.58094512491824   -0.51659397473625   -2.93165286616935
C        -1.42140750224755   -3.71039995810867   -1.03946797769005
C        -1.71526582430653   -3.66383166195981    0.38829666561448
C        -1.94807241160413   -2.71802843152519   -1.91210755778156
C        -2.52250268815313   -1.97426427255141    1.96219850710134
C        -2.74651220185941   -2.86457421114549    0.84408374962932
C        -2.83081794493257    0.40847362497994    2.63752054370653
C        -3.36347954622599   -0.81827492644776    2.08654963067957
C        -2.22795991307879    2.73500637867404    2.04594332400814
C        -1.99117979957772    3.52431827602228    0.87746468007555
C        -3.18794099039899    1.70820722422985    2.08335050154147
C        -2.04369440429196    3.25851243300388   -1.51992597068579
C        -2.26694583780744    2.18306738861772   -2.45099484657150
C        -2.74341762316621    3.27100191563623   -0.29408903736173
C        -2.95222414289075   -0.14398274458779   -2.61910302856799
C        -3.28259184451784    1.23193014329016   -2.29145222127714
C        -3.21822071636067   -2.31135331014105   -1.53871219378191
C        -3.68221341424904   -2.51782112940363   -0.17117708546863
C        -3.80693538977454   -1.12086136355365   -2.04010222040803
C        -4.49425365353620   -0.68673789513865    1.20273077872594
C        -4.64940839506977   -1.57334743405934    0.09033397303173
C        -4.83956802996275   -0.77756323958742   -1.12482172037972
C        -4.14579170287644    1.73860849529602    1.03606080971523
C        -3.85481905326199    2.42381293376923   -0.19434776390270
C        -4.23698573233830    1.55131163352585   -1.28182243677369
C        -4.89026863562534    0.58778976074736    0.74334773707064
C        -5.01992572203413    0.52815859114703   -0.71451965299852
