80
C80 Isomer 27425 Symmetry Cs
C         4.71647704527111   -1.68092133716208   -0.03788236559738
C         4.28069933090844   -1.06091377971955    1.14810510007457
C         3.41369310825189   -1.98896680280036    1.85970227798464
C         4.18942635020779   -3.01984657542710   -0.03571554684087
C         3.34798042532191   -3.18644877516218    1.12122474785780
C         3.34596724207375   -3.13891017005959   -1.14762472231530
C         4.30789863637806   -1.03259610461946   -1.25524983502218
C         3.43106886567644   -1.93712834148156   -1.93822794523799
C         4.06110874141032    0.34295697672238   -1.27591589540723
C         4.03448723552554    0.32410705089906    1.18956505708029
C         4.24124872323832    1.07073057496596   -0.03273883180675
C         3.09029327371894    0.79834974402729    2.16465881551529
C         2.27323662011931   -1.51740743193196    2.53502423203423
C         2.14209763853101   -0.11084955420166    2.77667689866683
C         1.09716375767856   -2.34820591212182    2.46265202209022
C         2.05393368437233   -3.66548731973693    0.69556543341406
C         2.05195031529868   -3.63776912557706   -0.73117055889037
C         0.90399665939718   -3.27985333389037    1.38118632592917
C         0.91102179814922   -3.24410126002703   -1.41409860772477
C         2.28811869350030   -1.47888849926150   -2.58921936103648
C         1.10507256653355   -2.30905175640048   -2.50122134033898
C         3.08961555943426    0.82726674501351   -2.23074014355431
C         2.15165437945264   -0.06422329565192   -2.83376890130427
C         2.72700121614099    2.19887750959519   -2.14906362085450
C         3.90580751591237    2.43338757051216   -0.02311441435037
C         3.27244857316998    3.02056717807068   -1.16726242520451
C         2.73049566801020    2.15935799323653    2.10297181925443
C         3.27441973274262    2.99018385899752    1.10955296055402
C         1.37328002127832    2.59461350044669    2.34189428700519
C         0.87308880916724    0.40021841627067    3.19871739931782
C         0.42707263935488    1.72573048482705    2.84331316127926
C        -0.05390094017084   -1.85151477656046    3.03580255716702
C        -0.14650154595106   -0.51703794832968    3.48227797578150
C        -1.36713225529638   -2.28963149851401    2.64425116400034
C        -0.37077710623177   -3.29056904170543    0.68721317214965
C        -0.36936754867857   -3.27770920620922   -0.72979097100025
C        -1.56367945493497   -2.87597571576363    1.38955574750896
C        -1.55452056308822   -2.86037510162638   -1.43571656393375
C        -0.04000019401790   -1.82208621992282   -3.07464978873977
C        -1.34827857524116   -2.26078259125072   -2.68522752483428
C         0.87038627947707    0.43978580281592   -3.25886751435504
C        -0.13835488498286   -0.47547696775162   -3.53954604878226
C         1.36534977248948    2.63389119064911   -2.39319805229540
C         0.42213217908222    1.76729572201247   -2.89996959633836
C         2.21385498965641    3.92155788491448   -0.71285526672583
C         2.21263096448865    3.90065055082850    0.66717605348454
C         1.02476215127104    3.58947192367388    1.36940868780487
C         1.01711880657641    3.62230423299608   -1.41516947844079
C        -0.21457315340624    3.47543248157772    0.69965151352733
C        -0.21584969676060    3.49241576277043   -0.74278680181054
C        -0.95869262506219    1.99643959781617    2.53255863515002
C        -1.26181063872921    2.78984217897356    1.39230101917266
C        -1.53034912977896   -0.15573187369462    3.51065453803669
C        -2.27882082503983   -1.32524281887487    3.15859324737744
C        -1.95426861583892    1.10351550840392    3.04520623469220
C        -3.53739353687069   -1.21719549081615    2.60042617869721
C        -2.81815372559953   -2.62270547144476    0.69847591575889
C        -2.81474646998227   -2.61669458618280   -0.75368774371637
C        -3.83612966677691   -1.92721052749675    1.37801334034713
C        -3.83045670751363   -1.91909669641376   -1.43465994750779
C        -2.26001864735627   -1.29615382637740   -3.19869488686335
C        -1.52061166609081   -0.12506240300646   -3.56272544881605
C        -3.52541331219568   -1.19814027953970   -2.65210916630203
C        -0.96406029193430    2.03092499941366   -2.58945921701737
C        -1.26665030712719    2.81059124363959   -1.44104696592968
C        -1.95808152824609    1.13660991927028   -3.10581362507835
C        -2.52369310617733    2.62419161925257    0.70342283539408
C        -2.52368938892348    2.63290962656623   -0.75224135204171
C        -3.27906391093317    1.20644123227705    2.55835289248044
C        -4.11308001843944    0.07122915843381    2.52453928721814
C        -3.56672116579883    1.99317130165266    1.37926495302220
C        -4.80640502193968   -1.11917105543376    0.66357346540348
C        -4.80453654377886   -1.11798153328084   -0.72589229067500
C        -4.92619476925486    0.12554046799366    1.33546842085456
C        -4.64214209755381    1.34180049915296    0.66746561304538
C        -4.10699121360719    0.08415045821060   -2.57991506737610
C        -3.27825640597374    1.23101671460986   -2.61980247310007
C        -3.56558371272067    2.00228534050012   -1.43429549969438
C        -4.92449258999740    0.13205194942188   -1.39628403072432
C        -4.64261641126596    1.34425003401659   -0.72504414854752
