80
C80 Isomer 31711 Symmetry C1
C         3.47176890619275   -2.53962134168254    1.62308475151520
C         2.61858040225369   -2.02514371328597    2.61507440802876
C         1.36296154784613   -2.72395009582447    2.49328316092661
C         2.74278443665516   -3.53081134079053    0.86188450302838
C         1.44277281074031   -3.64263541137988    1.38087478703280
C         2.96735728107937   -3.26369499269016   -0.50703866913906
C         4.14703429939067   -1.68897877924692    0.72290886037819
C         3.76534619093349   -2.06627379923681   -0.63267539959715
C         4.24962168380334   -0.35674051633776    1.07739767057329
C         2.64084595767233   -0.65045311668236    2.93897517882506
C         3.59601204635368    0.13588254142801    2.25061497440093
C         1.40635671276881   -0.04283958315490    3.38212661169701
C         0.15745392902330   -2.12014461119301    2.81181466615082
C         0.16975939357721   -0.78211769778929    3.37336600913041
C        -1.03130404984829   -2.65571613153744    2.16075310097967
C         0.33334842766700   -3.83645720465575    0.51095632582067
C        -0.96697565219639   -3.39496086757801    0.92959360279622
C         1.90893659006073   -3.46835466089591   -1.36852635098476
C         0.63529465819597   -3.88687838581200   -0.86550809335181
C         1.67623116842068   -2.54484913595415   -2.43168833729481
C         3.45819237504079   -1.08772106341470   -1.58413081085262
C         2.36991655892562   -1.33577102412089   -2.53344742318619
C         4.18050864358972    0.64962855308809    0.05847407933812
C         3.81020537350069    0.28850893826147   -1.26010135662097
C         3.34854104604647    1.52377576999048    2.00377922882202
C         3.69874090742033    1.85369527718958    0.65400350320317
C         1.31704396213682    1.35975563894506    3.32876975637803
C         2.26848461052187    2.13688446843612    2.58122526827497
C         0.06749998317147    2.03696507657546    3.25125939255554
C        -1.06917529073338   -0.08073477575156    3.48060582439862
C        -1.14755563581671    1.35432867641865    3.33488742871713
C        -2.22979494949731   -2.05271688013983    2.51288485472319
C        -2.24751452877251   -0.81739080350716    3.22512633783095
C        -3.39534139167376   -2.12353365856307    1.66116089491228
C        -2.04249470118349   -3.27009622780160   -0.03181304671246
C        -3.27987114017310   -2.63653411242281    0.35067630678374
C        -0.34710716708879   -3.45928915267051   -1.79876409926945
C         0.28734838796465   -2.62443153471524   -2.76237464618715
C        -1.68880827444871   -3.28998069003758   -1.42889731946157
C        -0.40083112354140   -1.53992730327849   -3.33177875365096
C         1.68352943352009   -0.23735717966418   -3.18456863564840
C         0.27722549312301   -0.28896825391089   -3.50767308092930
C         3.26665205350425    1.32024490762302   -2.02611262026467
C         2.28001143279289    1.03262793012070   -3.06282670595590
C         2.97669814088650    2.82111040899543   -0.07494469138753
C         2.96231294741232    2.59853157574381   -1.47098509875486
C         1.57349283927772    3.18718321950340    1.88563155914035
C         0.24429593498716    3.19189503658169    2.41062493997670
C         1.84982577992801    3.50649629760456    0.54279158127925
C        -0.80394433373630    3.62241982876307    1.63001354027376
C        -2.29075542110638    1.95106115777576    2.66517464601334
C        -2.08197520946558    2.99856549980832    1.76130013483300
C        -3.45113069563370   -0.16792322852830    2.85605974894701
C        -4.18571394637998   -0.98947696592486    1.93898915150856
C        -3.42850838721712    1.15815147063993    2.38530606821229
C        -4.62466267836283   -0.14213828355900    0.88782573791723
C        -4.12409793569091    1.19983997617965    1.12820645024299
C        -4.08154645679692   -1.97295829848032   -0.63627606493937
C        -4.61408437736902   -0.63899203795545   -0.38932306527837
C        -2.44814775055274   -2.53897607741524   -2.36574150780954
C        -1.79449326428448   -1.58717440792266   -3.22559416275772
C        -3.67312517925949   -1.98549695022472   -1.97308551766323
C        -4.21145401032950    0.21819403612483   -1.48779142922627
C        -2.56628315654429   -0.37386080322103   -3.19935962723347
C        -3.74670782044708   -0.63486299442467   -2.49549030228167
C        -0.53444421764356    0.91009538110321   -3.46851109934726
C        -1.92986030611736    0.87148500796978   -3.07645935864378
C         1.51951734605973    2.18221635604280   -3.25433539949487
C         1.90357302183228    3.14238540986909   -2.24806312100181
C         0.11359811736579    2.13622575249437   -3.30773883945394
C         0.71889920274368    3.92011166736748   -0.27708042552116
C        -0.57168424288623    3.94725113608896    0.26625683464631
C         0.75291647501679    3.67607173584351   -1.67882476825280
C        -0.38898113662198    3.11582771729592   -2.38464326035748
C        -2.67290690381194    2.96507626963365    0.45615684090733
C        -3.61850346633802    1.98282172055891    0.07267885734679
C        -3.57193406110831    1.46425557780447   -1.28135585823432
C        -2.48097687600492    1.83224379759050   -2.15371864589350
C        -1.73375153872686    3.48337614289000   -0.46078735554871
C        -1.62204923199393    2.92774413503284   -1.75754263027780
