78
C78 Isomer 16925 Symmetry C1
C         4.37406103933024   -0.81411083437064    1.90220912365474
C         4.97489826994328   -0.14625388604424    0.85140331819507
C         4.73482024412302    1.28056061488746    1.01787597425899
C         3.70161450121522    0.19172671662474    2.73211444926927
C         3.86190353856178    1.46797667061938    2.12544654406980
C         2.43206856690417   -0.27977612752762    3.02849063548553
C         3.47470840641390   -1.88262622528778    1.66324807927048
C         2.33454081617370   -1.62605372544832    2.48766324505758
C         3.27803064800153   -2.41192363173372    0.36638804125597
C         4.66199666077303   -0.52437992824202   -0.48362214246166
C         3.95060448532754   -1.72553671253571   -0.72498059356672
C         4.38650060310712    1.76611140222869   -0.25474475850084
C         4.32401082408825    0.68224645392203   -1.20016255963941
C         3.42198899726544    2.75995501369181   -0.32628087083035
C         2.72366592030782    2.32378209779871    2.01864415617553
C         2.69439855456323    3.11683686559567    0.85253664804457
C         1.28834335985400    0.57805099976039    3.03738058515383
C         1.44048930436206    1.92038380534157    2.57808373564695
C         0.01032200085008   -0.06195771592089    3.05605209988838
C         1.10153944818765   -2.17036294855723    2.22854343298971
C        -0.02702150124568   -1.47920276048782    2.80909791196480
C         2.01473710011225   -3.08296325333144    0.13234349288793
C         0.94784405127072   -3.03228863790278    1.08947065161716
C         1.62037166465628   -3.32600665361661   -1.20470503279913
C         3.33370694846074   -1.77111213113090   -1.99796867404777
C         2.32889937733835   -2.71210729097453   -2.25238415044044
C         3.33248574590196    0.68924492229799   -2.21137540693422
C         2.97864122473006   -0.56961358206047   -2.70762468252324
C         2.50880458783515    2.83275187305464   -1.42631191055891
C         2.35557601430312    1.76525177056304   -2.32681131559713
C         1.46992964337006    3.69314102311833    0.42548795077718
C         1.37545320608404    3.58250603057087   -0.98465678398768
C         0.23848820691481    2.63802982565227    2.24760737833288
C         0.31808456718244    3.64274977101542    1.22184054254973
C        -1.19502919502160    0.69403585678778    2.91422320304989
C        -1.05503632504393    2.07652929277272    2.55071683672151
C        -2.47048440516567    0.01547948090354    2.76235242184674
C        -1.24371758643976   -2.10127172281854    2.66632647909010
C        -2.47533772750586   -1.38865307358845    2.78934800334636
C        -0.38868333842186   -3.38619498079275    0.72927614561909
C        -1.40216170061177   -3.14166989627690    1.67037172798278
C         0.22641498872273   -3.33595768695669   -1.58378290196893
C        -0.79309325808296   -3.39876522399856   -0.65925139088154
C         1.35960040926059   -2.12633416575511   -3.15617205941076
C         1.70656047786067   -0.77709418951048   -3.34046674383408
C         0.07479420039970   -2.51086058284059   -2.75052666649746
C         1.03386453588176    1.52753522784027   -2.88201141117662
C         0.69392766214653    0.20778379957886   -3.33548329829738
C         0.13820836828478    3.51112145147475   -1.63323291579359
C        -0.03675531697007    2.45725436939576   -2.60844390119097
C        -0.84103195161041    4.07625128856788    0.54277165167095
C        -0.95128900181443    4.00161812260163   -0.89133504690603
C        -2.20777456620534    2.72131177868907    2.01979974569749
C        -2.08808546544792    3.76700179791450    1.09477258830436
C        -3.55858734438611    0.65641560908921    2.02558046154309
C        -3.38426990074136    1.97282158329554    1.63967335518712
C        -4.41172697774139   -0.12544367652866    1.16859125723480
C        -3.44230877328209   -2.15108210460678    2.05684023467256
C        -2.74677452993160   -3.15095148482215    1.28686535748502
C        -4.37494171575675   -1.52792630436885    1.23427733138890
C        -2.10064690273442   -2.90871222615567   -1.06622672423370
C        -3.12099627089102   -2.97371494510616   -0.09087371145208
C        -4.20154420120733   -2.05887234301667   -0.11190307475076
C        -1.00114705721021   -1.61179152864803   -2.86255581435370
C        -0.67320084529985   -0.27148023825358   -3.27529901989643
C        -2.18167641579032   -1.90731869456305   -2.09764040018693
C        -1.35899393828477    2.05232754222328   -2.84073848282197
C        -1.66671083160396    0.69137141653621   -3.09325623922587
C        -2.30258988119542    3.61688757116254   -1.19993376270385
C        -3.03443882784693    3.54785762385080    0.01541328689504
C        -3.82542377720269    2.44793089740172    0.33734474732593
C        -2.49824409038131    2.61791556133761   -2.15003716119107
C        -4.49909260884537    0.22158303171453   -0.22515794839434
C        -4.19045250799873   -0.96793291360814   -0.98760557207324
C        -3.21794967032637   -0.90239982198189   -2.02355687611523
C        -2.93318600825812    0.38141756051140   -2.51613055770009
C        -4.14284298309058    1.49495852429562   -0.67754557239240
C        -3.45165177047582    1.58498860468221   -1.91567669627128
