80
C80 Isomer 17411 Symmetry C1
C         5.03241057631838    0.54650590402263    1.63089978338497
C         5.34357364140407    1.00333351421029    0.35074168977019
C         5.30050870894436   -0.13067806310997   -0.55514972814164
C         4.73522847551685   -0.87115850598275    1.53229928798022
C         4.89044146996762   -1.28223221442128    0.17701651387521
C         3.51935978240300   -1.10123326664313    2.20829628840697
C         3.99201576410678    1.15950119520887    2.38713170987142
C         3.05169741763414    0.12943729772158    2.77765052348207
C         3.47739925596571    2.36277944725310    1.93526462942969
C         4.60078357958150    2.07480028242556   -0.23591673646618
C         3.78253743843353    2.82593792837999    0.59791459683867
C         4.55489657846692    0.27240307363174   -1.68341117619466
C         4.06278726335688    1.62109755275861   -1.50032503090610
C         3.73773546296950   -0.66654847740469   -2.29448131019202
C         3.94946605287572   -2.18783449703945   -0.36687434779557
C         3.56967728404353   -1.96732587498348   -1.71522904178841
C         2.60235190780962   -2.07185489979944    1.75392556632607
C         2.93677074382030   -2.74079133031440    0.51955056465456
C         1.24263112898236   -1.96940551332781    2.20880115079027
C         1.67323174404025    0.36514888515813    2.90559475975825
C         0.75704066210728   -0.73365577882717    2.75952665774777
C         2.10064502542817    2.65304565010064    2.18722971671181
C         1.19514098671957    1.70798603761574    2.71552205420589
C         2.58301970326262    3.37485379684078    0.05913024122431
C         1.64018972107912    3.48062789434324    1.13169796603861
C         2.76666345754322    1.96960153319312   -1.92735797031391
C         2.06586840855959    2.98689967071711   -1.18786690247427
C         2.48257951746568   -0.27518649268315   -2.85769088038971
C         1.95595596833087    1.00443310868302   -2.65230766511070
C         2.33008721947604   -2.45869737097587   -2.21519938332145
C         1.62089668617613   -1.41401571895010   -2.88695952201556
C         1.90125468203347   -3.46872820839903   -0.06353673087133
C         1.59688316131137   -3.34995582517061   -1.47093443737298
C         0.28608243858195   -2.92286596393464    1.72788169112766
C         0.67863347780680   -3.69026162616606    0.61274680170687
C        -1.11211389287557   -2.79501602963129    2.03661508633823
C        -0.65489437461305   -0.47313826606385    2.83584546907857
C        -1.58623543117190   -1.57890756224151    2.65791220517407
C        -0.19849232009269    1.95978410983941    2.55973021657414
C        -1.12747310113735    0.88304038093200    2.78707890907653
C         0.30209038330937    3.71155026786270    0.90997607712295
C        -0.61722818119237    3.12708143369212    1.84418842002585
C         0.68152321305262    3.24212668639500   -1.44665623696054
C        -0.09845007789603    3.93534320884653   -0.45702076268371
C         0.53084529307799    1.14349995068690   -2.74869026357813
C        -0.02571346948984    2.40474545470243   -2.36834108881464
C         0.22337056403897   -1.31168861637594   -2.83380808267519
C        -0.34403739320043   -0.00092184228395   -2.86033862574662
C         0.19357175704647   -3.42911208519862   -1.64896543354954
C        -0.30434187760364   -3.94328679119837   -0.40576672776268
C        -0.54688553937615   -2.41772731512319   -2.30643278345924
C        -2.02480376678678   -3.54285127906131    1.23341997336862
C        -1.61530809392601   -3.85899071340439   -0.11409960206434
C        -3.36815233625303   -3.16097953542986    1.10366071470365
C        -2.96755119446814   -1.28665055506237    2.58508813413459
C        -3.86581069479076   -2.10575192261004    1.83209706999232
C        -2.51652185648187    1.13913803943817    2.50330466419157
C        -3.39736828211093    0.06164359266557    2.36989299973383
C        -1.98012245446912    3.34482311797432    1.56138210654907
C        -2.94231370634492    2.32870000125822    1.87155661594839
C        -1.46294524910641    4.16129704500089   -0.68211182839098
C        -2.37608246050269    4.03625514968978    0.40826619716141
C        -1.42258251496729    2.55449047423995   -2.48562686884360
C        -2.09226788799422    3.57393503467979   -1.80821609544447
C        -1.76223036160204    0.11445268408217   -2.61257335954438
C        -2.29639379711079    1.40029837743886   -2.55696068117541
C        -1.93663573595885   -2.25815962846618   -1.96744068570819
C        -2.50221915969944   -3.18918868480570   -1.04716806423392
C        -3.65237775629952   -2.88973409957219   -0.32635818653870
C        -2.57295907048480   -0.97531758552215   -2.09998766767727
C        -4.59538707044551   -1.24130097075865    0.91294191505703
C        -4.36925718912293    0.06967304681386    1.30619929160473
C        -4.27772535979592   -1.63441933652687   -0.42992589557174
C        -3.75998658834740   -0.66278924038647   -1.33883372237537
C        -3.93460270921968    2.32918511577829    0.83015733413824
C        -3.58426154929081    3.36720609073065   -0.07197433383894
C        -3.39605495500573    3.05121457599032   -1.40468628514319
C        -3.50150428859607    1.69855788581506   -1.84955070134972
C        -4.38691714183176    1.09414292404716    0.32838975584777
C        -4.09263771338589    0.71478426699169   -1.03775050266803
