66
C66 Isomer 4184 Symmetry C1
C        -3.67071380149219   -1.05436121232070   -1.57173328703626
C        -4.15876935597100   -0.83977981186768   -0.30261314682309
C        -4.22973432893881    0.60189774157204   -0.06070829904972
C        -3.43509162725956    0.25567901745770   -2.18979722234607
C        -3.79246452842572    1.26590845938279   -1.24471389778917
C        -2.16360379498740    0.22998943446656   -2.75318055445817
C        -2.52595902063233   -1.87665229452548   -1.77605722217533
C        -1.63754662733597   -1.12001460113699   -2.59519118850381
C        -2.01479222153692   -2.69240051979906   -0.73677708428722
C        -3.53173635374721   -1.47082226142062    0.80404658788895
C        -2.60231693980210   -2.52127476103969    0.58175221771097
C        -3.60379791638781    0.83804570757786    1.16478872397157
C        -3.24755832794179   -0.44578719977072    1.75551126908844
C        -2.76048952324143    1.97087310450844    1.36158586302438
C        -2.92773673978950    2.33902421284544   -1.09328143692997
C        -2.57675672518319    2.79499177784548    0.22749126818763
C        -1.27318041999420    1.34371291875078   -2.64586310729579
C        -1.73976521889407    2.44274575442446   -1.89584965369679
C         0.14109515957344    1.11781390789490   -2.77829976145188
C        -0.27307712194206   -1.36012273808202   -2.63262641284195
C         0.59831371198926   -0.24456405043029   -2.98317873914886
C        -0.63781251039111   -3.09590962456905   -0.87432528525065
C         0.19716576541705   -2.50530760387291   -1.88188175915916
C         0.01030614553362   -3.62271136212008    0.28667139107288
C        -1.80497891191923   -2.80446099425730    1.70861413764478
C        -0.60219404716106   -3.51553961895767    1.53232352802064
C        -2.18236450488663   -0.55260673078836    2.66409007245335
C        -1.59798754633734   -1.83773803575011    2.75412392186605
C        -1.71843938511693    1.90610458566522    2.37699337691739
C        -1.41703375585322    0.63258495229645    3.02511773213913
C        -0.71834363344538    2.89023466896139    2.34874657354886
C        -1.37523400988253    3.55710021551136    0.08823555995017
C        -0.80970523430636    3.28397432756819   -1.19825868016946
C        -0.55632631301887    3.74273680221812    1.18650970775391
C         1.05367872030783    2.10677363556791   -2.25910636393569
C         0.57662820274536    3.15940268194864   -1.38866076171491
C         2.41856872933036    1.73990531118081   -2.11242380664150
C         1.98004394120391   -0.50522331507947   -2.96447932987568
C         2.88042547988177    0.51502550628294   -2.56847091736382
C         1.60837868476575   -2.62282305893266   -1.75023548952998
C         2.45224717613685   -1.72079133483838   -2.37708456926758
C         1.42434292715764   -3.38925622146935    0.53305481533584
C         2.21078400614104   -2.92786256568434   -0.46074153255393
C         0.37637105768724   -3.02976097824731    2.50130264502073
C        -0.24708164929372   -1.99817183446661    3.22825901345961
C         1.61178432211265   -2.85492716774466    1.87181908757877
C        -0.11854415410367    0.42200931908512    3.51432569377644
C         0.50987792562746   -0.87263251181738    3.50175860664344
C         0.61406024608768    2.62926762833239    2.83532258629362
C         0.93289664594486    1.36861831433052    3.30995607854717
C         0.82032587737555    3.91814434095003    0.93390160145764
C         1.39770934671523    3.59798276084096   -0.29974130589975
C         1.56134270912622    3.24444476908069    1.99029580487416
C         3.13316083710663    2.01146719307163   -0.86807451188802
C         2.61830674429925    2.88562100960070    0.02380390041649
C         2.63040381818665    2.53345506164904    1.43322208048599
C         3.79594876199860   -0.03734939306786   -1.56314274128884
C         3.53990530498420   -1.38720566583117   -1.45018819802858
C         3.26679728648512   -1.96171657862882   -0.19216606585449
C         3.77947402946691    0.78854817397198   -0.42103545518692
C         2.37747534174321   -1.66154360370605    2.06107989794594
C         1.83350079025709   -0.73404704265468    2.97473757835792
C         2.10107564472065    0.67583054584279    2.85570273685401
C         2.91422606215761    1.18659979606349    1.82569757400637
C         3.22774834154817   -1.16882876433033    0.98535180303086
C         3.49676650540447    0.25867982046096    0.86669435211890
