76
C76 Isomer 13008 Symmetry C1
C        -4.43847069619133    1.51970113141416   -0.98257582082440
C        -4.50698122094971    0.20728840427732   -1.36370255499946
C        -4.69987073675826   -0.60519895291393   -0.15777980031744
C        -4.41482974757309    1.54853426881055    0.48542457590812
C        -4.41799584664502    0.20839353964793    0.97374070440760
C        -3.41747473034589    2.42734417223065    0.85133454297985
C        -3.38854248519129    2.33989516316814   -1.47048554740656
C        -2.92395192831594    3.09711724442036   -0.35154874729120
C        -2.42779335482689    1.79016366133183   -2.36838252175958
C        -3.46533735330859   -0.40378193670554   -2.14374926426911
C        -2.37224395805621    0.36000918021407   -2.61380746499940
C        -4.02862836019654   -1.80605678066791   -0.36742748771149
C        -3.25534858393656   -1.70113611711399   -1.60220362050084
C        -3.41980573287759   -2.39119251190088    0.73463448540328
C        -3.40011207161813   -0.20542321813551    1.90163537968974
C        -3.06516549094715   -1.56444461536503    1.86428726689336
C        -2.46017334486638    2.06953284625007    1.86006057100196
C        -2.35212230123363    0.70487087634372    2.32388211062301
C        -1.34011980191965    2.88272130690772    1.91559014432931
C        -1.68227597750751    3.72715710679425   -0.36780074101057
C        -0.98232889908749    3.82358324450418    0.86479798979977
C        -1.21957627598014    2.49716768419208   -2.41976639953622
C        -0.89919896734092    3.55955645755235   -1.53375090191834
C         0.00269520825472    1.87578104131949   -2.81902847983077
C        -1.09100280374132   -0.30894262584412   -2.77211018722985
C         0.11355266321799    0.48821129135227   -2.94010933006601
C        -2.03487299839533   -2.36247825587478   -1.73376027877049
C        -0.95173342261774   -1.68637225446943   -2.41208926601506
C        -2.39025426148902   -3.32369464759727    0.50787203601468
C        -1.76417706706879   -3.40642705216444   -0.76563383600831
C        -1.81594434301352   -2.05340953310746    2.35395277339996
C        -1.55339424401630   -3.28977894009017    1.67623867828914
C        -1.05189393841526    0.20795492664695    2.71496009376795
C        -0.75882900607799   -1.20401999879161    2.70750884347502
C        -0.13842601068145    2.44311519140690    2.52439207443692
C         0.08219439381832    1.08963928976020    2.81027768016419
C         0.40077169302888    4.03833408800422    0.90467788369318
C         0.90077597766625    3.30676191691325    2.04892710110897
C         0.52307966931584    3.68752207129647   -1.48179213005501
C         1.07481386367801    2.69819368868148   -2.34206835139306
C         1.19400609840678    4.05370686816509   -0.29195480622470
C         2.36041150339057    2.18211054747606   -2.16625684104288
C         1.44709275047071   -0.07488649420562   -2.84746136603145
C         2.56594486068531    0.79912749020988   -2.54972317843040
C         0.36680106769437   -2.28846617695420   -2.37666966173511
C         1.54991332138192   -1.49451232519513   -2.66557629801890
C        -0.49902810635430   -3.99737620035640   -0.79473161920967
C         0.51982547465743   -3.50542269507958   -1.68074469571070
C        -0.28772591881289   -3.79779750412047    1.63367207365918
C         0.12257578582833   -4.41419429988288    0.41929214020653
C         0.61512331240395   -1.70227759924404    2.58069391818219
C         0.81438943338935   -3.02168052263715    2.14769760492042
C         1.45954363812344    0.59851705945442    2.73722719890542
C         1.73291826138484   -0.79032600486854    2.47284749449372
C         2.19912120657917    2.89956115377487    2.12799492388959
C         2.48632502651677    1.52558266963441    2.49524641421467
C         2.54816996007513    3.66342400503274   -0.19420698354394
C         3.15325061254651    2.81094367038785   -1.17046295209474
C         3.09081663273352    3.29167455001489    1.08841951375980
C         3.66730677377357    1.15435298827862    1.77938974042583
C         4.15648715339536    2.02993116738748   -0.47799935286164
C         4.02549790884211    2.25676021169079    0.92598250544875
C         3.76426178062847    0.22053248478502   -2.06916363030476
C         4.42752203679953    0.76378762249023   -0.89045261348573
C         2.80741751002579   -2.01804614181883   -2.25693850343395
C         3.86659569518582   -1.15808904339643   -1.96913314816927
C         1.77861334248175   -3.83299230305254   -1.04160805547956
C         1.51956314227727   -4.22597107672578    0.30212220613524
C         1.96355784523541   -3.37387726869891    1.35938561365983
C         2.87684054054136   -3.06400535682640   -1.26137972791585
C         2.95059939911698   -1.18049825344957    1.80076042705979
C         3.87640666169893   -0.16339004584320    1.35957903624625
C         4.53641250227918   -0.31010014894539    0.08746850587662
C         4.37246500035382   -1.48835605146839   -0.62538418585355
C         3.00575137872689   -2.46589682051039    1.13895299652583
C         3.65121889974749   -2.57304250820104   -0.13550689753570
