80
C80 Isomer 30580 Symmetry C1
C         4.47888224720390   -1.66140775730179   -0.40603738144093
C         3.88004101190624   -2.18290317305611    0.74361063872094
C         2.98789496148188   -3.22586560178309    0.28217944180202
C         3.74619219008320   -2.16791018921627   -1.57264552174949
C         2.81669030095774   -3.11118573990830   -1.16025075651311
C         3.39385603307639   -1.07785590239359   -2.38435254370808
C         4.70066498387212   -0.28897883675278   -0.59070738385113
C         4.10618337924750    0.07187767450621   -1.86555874829655
C         4.51105922802082    0.54090693390415    0.51538674406613
C         3.47521721524031   -1.32312981903626    1.81547967498172
C         3.88513595409504    0.02031829931551    1.70334210682106
C         2.25951400752092   -1.60722926175023    2.55112638736943
C         1.92973201120838   -3.56702937851174    1.05229839715028
C         1.60017518519597   -2.83130104492007    2.24886419710141
C         0.71375078444254   -4.02477104933094    0.43106325742086
C         1.52482548316267   -3.13188504646787   -1.73440181169971
C         0.50335758667634   -3.79582880573113   -0.95745980774411
C         2.07022377813834   -0.98585783799775   -2.88357867510127
C         1.16733931133823   -2.08065127164107   -2.64945861066988
C         1.53087755630868    0.34366229436566   -3.09421221293941
C         3.54955428111553    1.31505669705956   -2.01122571842913
C         2.28406562452572    1.45445790331056   -2.67965037794637
C         4.04543513432618    1.88074125279293    0.31657640465688
C         3.62092510561761    2.28696532449134   -0.94551545851535
C         3.09772491605644    1.06263447001862    2.28656424430620
C         3.26376265201975    2.24278200311577    1.46889692941171
C         1.46502018372625   -0.56753516800708    3.13408545910221
C         1.89820828471925    0.80623299305753    2.96595163936717
C         0.08338377981298   -0.83386189089273    3.49037177118148
C         0.23079031513876   -3.03268325946489    2.45849169354784
C        -0.31543326122613   -3.81785381732680    1.36112112875334
C        -0.55598654944774   -2.08036648288306    3.13090253130874
C        -1.65536077972794   -3.65577570615494    0.95288660252890
C        -0.82191721477333   -3.64383235849735   -1.35808801179162
C        -1.91531401762645   -3.65116387326432   -0.43418788237174
C        -0.22420215545721   -1.89207234969113   -2.98727531648681
C        -1.16123533064047   -2.78761414734909   -2.45259221216438
C         0.12726662172135    0.54567784088599   -3.30565229683011
C        -0.71420154906626   -0.61119668239682   -3.45083051741340
C        -0.45597791317084    1.80599422619197   -2.93999630160552
C         1.65094996236830    2.61949955515049   -2.13630417265193
C         2.46493149663509    3.12215281674572   -1.07397031033069
C         0.26212377158522    2.74736096564911   -2.13002702613441
C         2.24004600287693    3.15403244189378    1.34602468644501
C         1.82897724415750    3.62179106750970    0.05116519115171
C         0.92392247930018    1.87732489534409    2.99674260605165
C         1.06720132722989    3.00133298092972    2.14935705896606
C        -0.78556566841761    0.25288863666797    3.71424844442700
C        -0.38907535170417    1.58875337843102    3.37120053189710
C        -2.19420321278680    0.16584706579045    3.51994315162057
C        -1.94946248375202   -2.14550782376984    2.89368291782523
C        -2.49623119421642   -2.87756338076114    1.76811310372105
C        -2.77794486583066   -1.01920977357635    3.09617744224842
C        -3.58265173443607   -2.14769369938139    1.22297534869941
C        -3.79749324711012   -1.00760991783943    2.07440305034832
C        -2.98221293770641   -2.88066194454928   -0.98113047786982
C        -2.54025623316622   -2.43920331112764   -2.27580452549894
C        -3.81220800324580   -2.06677910190956   -0.17945602935711
C        -2.11074853875285   -0.41188414363550   -3.50126934188098
C        -3.03538950832751   -1.29468994924116   -2.83295052759620
C        -1.85356272671256    1.94037788185363   -2.91020833165775
C        -2.64907017909294    0.88317537572238   -3.34492865437859
C        -2.53230102471755    2.60349306354467   -1.80756980628905
C        -0.39295767059913    3.38946968672537   -1.01219437812414
C         0.41015620827393    3.76192775613257    0.07032666410998
C        -0.04053006599798    3.50020774808353    1.41399441143114
C        -1.80027957610896    3.15669317488148   -0.76118363682129
C        -1.50937969611168    2.27136851559144    2.81643595127165
C        -2.64249585683004    1.40700980273650    2.94270382936086
C        -1.35563781178799    3.09817734071296    1.68411509950418
C        -2.30223807819986    3.02339804732829    0.59603303755427
C        -4.21916954513569    0.18164323028703    1.52684772143850
C        -3.60944676198869    1.42020582631205    1.96327973943840
C        -3.46543194319568    2.26445268480670    0.80798802635880
C        -4.32935580861902   -0.82764765004147   -0.74156136173996
C        -4.01466039745588   -0.51646958155255   -2.10125243021197
C        -3.82500044018417    0.81298569515262   -2.50334224117134
C        -3.74903278975575    1.87461624595831   -1.57401046727116
C        -4.50958818886879    0.27886592916167    0.12298335644487
C        -4.14484828843273    1.61230700699349   -0.27109935365909
