80
C80 Isomer 20555 Symmetry C1
C         4.79616538631603   -1.85517804776837   -0.22244227014554
C         5.10188200365994   -0.75052465176664    0.53612121350383
C         5.22786320281617    0.38978612375533   -0.36578960311946
C         4.53011444230256   -1.37699460953446   -1.59723306212627
C         4.66364935604763    0.02879586584514   -1.62652362990634
C         3.37692123595791   -1.99738324737230   -2.04606279904119
C         3.75473402545529   -2.71340466737051    0.16656052556689
C         3.08169985523612   -3.03224735436325   -1.07218086113561
C         2.94950823159194   -2.43582037421563    1.30553828032689
C         4.25021297496606   -0.36463132597985    1.61607152431671
C         3.15011586177081   -1.17025950474353    1.98785678277959
C         4.76455737395605    1.50794281832738    0.31902973524343
C         4.12715437363251    1.06888469918607    1.54993525890122
C         4.14437354425355    2.48943498470312   -0.45995378886079
C         3.59223674188596    0.80494269926173   -2.19255216168457
C         3.51076130920301    2.11730003310889   -1.70769454051702
C         2.27888233318200   -1.26890679876283   -2.61866867750175
C         2.36442385910770    0.15997649957877   -2.66650863574327
C         0.99972393406761   -1.92016446132691   -2.63392600006778
C         1.85156347989456   -3.57240141036326   -1.03106216053420
C         0.84379259212724   -3.16419018590124   -1.96974072727946
C         1.65924823347134   -3.08444402124160    1.35737493500399
C         1.23013846121122   -3.82646074095618    0.23626249399377
C         0.64279364683992   -2.59941126696018    2.25061809275754
C         2.00289870157553   -0.50872828287190    2.58570769288046
C         0.82560443040255   -1.29339317445212    2.84417746941714
C         2.97781543258673    1.71607331468862    2.02074418583807
C         1.91463148849552    0.92515814938137    2.59277318067444
C         3.27773923448536    3.35511529749264    0.21626249632066
C         2.65746499752547    2.97530486756808    1.42294360633912
C         2.28052153154955    2.85923373017308   -1.80578180024696
C         2.22864612695959    3.74041353248513   -0.70449108738721
C         1.12626530691653    0.90607535745124   -2.75792416192316
C         1.09226825095349    2.28265699696777   -2.29726607754602
C        -0.19793877874088   -1.18877874465691   -2.89344039888638
C        -0.12600526026388    0.24224875686825   -2.96745741419308
C        -1.46561862987864   -1.83594598643032   -2.67268311884671
C        -0.38562828359118   -3.57537231921020   -1.42260839084995
C        -0.14320674761618   -4.01680633105314   -0.06472283995487
C        -1.58492566206003   -2.96183003294890   -1.78377258393514
C        -0.67672565662791   -3.07988134338132    2.08984182720456
C        -1.08164585334518   -3.75602136648611    0.89834432500058
C        -1.83553837239835   -2.34161872471132    2.49680808176798
C        -0.33002022772222   -0.62260340668734    3.27893250650518
C        -1.65698964636484   -1.13369766471912    3.11801221017436
C         0.62825056390025    1.56203820469435    2.75576354516147
C        -0.43620041005777    0.78792968935293    3.18730621551594
C         1.28649289528286    3.42139536872470    1.35519479143776
C         1.04842584025464    3.89233013685008    0.01288337401112
C         0.27542844657614    2.77077515140226    2.03680996073389
C        -0.14127164302717    2.84675230102106   -1.83106344294932
C        -0.15524453002842    3.59207470773326   -0.61630557529531
C        -1.36628767160142    1.00367858607953   -2.92789390958536
C        -1.38261061932726    2.29756542956828   -2.28577029205956
C        -2.63411837605628   -1.09070923274303   -2.89247993333506
C        -2.58905303094775    0.34096592526825   -3.05605656831161
C        -3.82707687269576   -1.41766958396274   -2.22809504392346
C        -2.68142589519477   -3.03448079635107   -0.84427227347514
C        -2.39381688116550   -3.32242876700729    0.51081607428905
C        -2.90540271020555   -2.49622037929976    1.54084645986560
C        -3.79485235348875   -2.20748460244677   -1.05597312455934
C        -3.84170095255752   -1.46003577153669    1.28489581372849
C        -4.41273988299123   -1.45196565309571   -0.00137006330543
C        -2.57160939092165   -0.05259682183295    2.87612087265844
C        -1.81472000924014    1.13665448039844    2.94392862133436
C        -3.69455796758150   -0.19758489256554    2.00913118664464
C        -1.08651049672754    3.00919750146789    1.59463228502770
C        -1.27380990451985    3.49819282118380    0.26920101447957
C        -2.16233563610812    2.26396664970891    2.17645819827524
C        -2.56090195941581    2.79162396041633   -1.71329144052164
C        -2.50520695673324    3.35722705083594   -0.37617343442964
C        -3.82435321563770    0.87754649352261   -2.52193467458989
C        -4.55262744627056   -0.20192333941757   -1.95460151124111
C        -4.91686525773284   -0.22366084290990   -0.58846738020009
C        -3.80596303089885    2.07880551445054   -1.81997450970011
C        -4.18721152742186    0.98408771509065    1.44127574872064
C        -3.43033921889770    2.20842746113578    1.54343024460490
C        -3.61772016316655    2.90890862958191    0.33340018071961
C        -4.83974455981625    0.96912269879464    0.13744849656121
C        -4.45644801737276    2.13325052527973   -0.55424953937123
