78
C78 Isomer 21113 Symmetry C1
C        -4.04194306252882    1.86629361384790   -1.60899823468559
C        -2.83711115730678    2.35352658097803   -2.19646248735250
C        -2.50094992651977    3.53263411508645   -1.48296767091439
C        -4.21536605073382    2.54304230734881   -0.31154174235483
C        -3.28371477106239    3.53972960946575   -0.23356733092002
C        -4.27277180052483    1.55124887323571    0.69961194486420
C        -4.25955363944328    0.51911777977486   -1.41551015264203
C        -4.64758480439259    0.36057499120782   -0.01817445132394
C        -3.38556544550678   -0.44956652943483   -1.97956833933610
C        -1.81081139323227    1.43057105015405   -2.54745026302054
C        -2.14183109465246    0.02165695809010   -2.53813103391322
C        -0.42896275669714    1.84658355212097   -2.40935387057561
C        -1.18618544811680    3.81697802492319   -1.16053447967848
C        -0.11325494075427    3.07139611706761   -1.71871280441922
C        -2.37556779846514    3.57417456634836    0.85781910940145
C        -1.17381407070599    4.08272432478261    0.27145178494236
C        -3.26725585616645    1.45584725226104    1.70629319360072
C        -2.27472865261727    2.49143212544323    1.78054014257660
C        -2.93428971602207    0.14146953435078    2.22291764234511
C        -4.52052638765152   -0.83221158908119    0.59158040841950
C        -3.80056454025806   -0.90817193149339    1.84307588781763
C        -3.52086658965722   -1.78346217238654   -1.45221728983788
C        -4.20456807504267   -1.99717063901752   -0.20783350983217
C        -2.51737676723599   -2.70875302003094   -1.77030626929053
C        -1.07010405824803   -0.91592744926667   -2.70769692867471
C        -1.33258582577742   -2.27508296812967   -2.44464557433807
C         0.63224808062797    0.89668760215463   -2.60985050512259
C         0.30349019646914   -0.48527546841655   -2.80674936712044
C         1.99940374533716    1.28718784140433   -2.32768065185643
C         1.16604340273224    3.25206536524604   -1.08640410160510
C         2.28457298527090    2.44256892090377   -1.49135773450797
C        -0.01495955068832    3.93906202422696    0.94231560202179
C         1.19921116842502    3.82720012202591    0.19984037336251
C        -0.96834551995696    2.16147499608480    2.33281883824032
C         0.07265373104652    3.06386451988904    2.07941064464764
C        -1.58743004223000   -0.21334284083783    2.64397849100110
C        -0.57765053843392    0.80271704180849    2.68379128895612
C        -1.16657214633362   -1.59582455748257    2.66934497485259
C        -3.39223143545176   -2.24459562715572    1.93307947514669
C        -3.73139899492799   -2.95023259180265    0.69542054132929
C        -2.10954068822598   -2.61048440266463    2.33304292927668
C        -2.15594375783115   -3.79557720225552   -0.89777097800682
C        -2.67980112877137   -3.83131814628589    0.39581234666627
C        -1.74551133634800   -3.74918043928129    1.51179375521447
C        -0.27803139295077   -3.18540587188449   -2.11978370958310
C        -0.76506366662728   -4.07392207628913   -1.10699246829111
C         1.34142721527148   -1.47966991274515   -2.72043392470109
C         1.05539832088748   -2.79763562017601   -2.19890096561064
C         3.01055146715108    0.32906136062846   -2.46563587049163
C         2.67388414123986   -1.04923909124643   -2.65327627234195
C         4.23093212625816    0.38092847344314   -1.67826435099694
C         3.45107791575249    2.47720324159702   -0.70597153726660
C         4.40387735837291    1.39690900133208   -0.73321680641374
C         2.15852542841955    3.37941164705297    1.14539090342971
C         1.44707280523176    2.73145721706025    2.21480745094171
C         3.35062528702282    2.88258994221604    0.67942593539109
C         0.82497744786708    0.44000160108617    2.76645919155244
C         1.84749689605799    1.44968561197776    2.63118845717269
C         0.22782685489193   -1.93313370516958    2.54079741715567
C         1.23650348612216   -0.92927337483428    2.59865893328852
C        -0.42887738398261   -4.00426795038651    1.30062857835355
C         0.05679216195970   -4.33775244563356   -0.01641493999540
C         0.56832366684871   -3.18236774476772    1.93847788083269
C         1.96106345756033   -3.37236519799123   -1.23124843071085
C         1.41113573727809   -3.94023981000144   -0.07129231013992
C         1.75203484031225   -3.32924106872575    1.19443524869415
C         3.65839249068337   -1.82880581437106   -1.97337825542710
C         4.56796144471815   -0.93033899006695   -1.30377268016821
C         3.22652339846465   -2.78598275290352   -1.05641182231365
C         2.59295672222955   -1.25904546684820    2.15633763407125
C         2.81498156389912   -2.42880583921224    1.32474000779845
C         4.60665125370138   -1.29849768851688    0.07757572188421
C         3.72935855020338   -2.40608512908446    0.25485277922416
C         4.74379273758528    1.04069011936719    0.59558302161697
C         3.97662911641023    1.90346960900342    1.47315334677211
C         3.19176888519337    1.10113813109428    2.32362376653328
C         4.59673208840449   -0.28998835174836    1.04376786581986
C         3.56431403617182   -0.26713428846365    2.06863660056554
