60
C60 Isomer 346 Symmetry C1
C         4.70029304192668    0.19321596514774    0.63472093642293
C         4.42777017385408    1.21455550358513   -0.33882472224203
C         4.13726981848813    0.59444408084875   -1.57022533539978
C         4.39024959348718   -1.06817670386723    0.03712449613560
C         4.06728033668087   -0.84944124601148   -1.32368115699926
C         3.40264144759827   -1.72662170978836    0.83754258204274
C         3.75827708922044    0.37759719595207    1.68959100046702
C         3.02018043259522   -0.82213553347254    1.89364000318349
C         3.45338662344858    2.12456171500135    0.21626166384600
C         3.00613673459060    1.56971949951840    1.48791178086838
C         2.50068471703915    2.66501394474422   -0.63713855941059
C         2.98105555517425    0.95516100378532   -2.30093910775120
C         2.26273204217729    2.09629475930952   -1.94170829371294
C         2.85944152014528   -1.32910996317584   -1.86552544248804
C         2.20565471893984   -0.24217313372184   -2.55642765295524
C         2.39006775410025   -2.49513147452326    0.22929874218166
C         2.05441894078258   -2.28278154989671   -1.16291269251987
C         1.32137642332227   -2.80922593576548    1.10930629992054
C         1.67851962435255   -0.75330800196524    2.36417499093489
C         0.91990048841672   -1.90536236301172    2.16146575409817
C         1.65059328252962    1.65432428163855    1.89282225545107
C         0.97280613785324    0.50666265628294    2.44977233134835
C         1.22784607367547    3.03859685662200   -0.10761148275449
C         0.85130995286190    2.63132763520825    1.19257224353646
C         0.85475820966230    2.15114405579797   -2.17316812592241
C         0.24745480399451    2.93252145300213   -1.14153133573423
C         0.82083859676975   -0.20984652250840   -2.73500274747976
C         0.11146203528938    1.05554653485322   -2.65703822907940
C         0.70401540231317   -2.44053649441721   -1.60648665472824
C         0.10481557662487   -1.43444067395486   -2.46222658303264
C         0.15868146148028   -3.35215450529736    0.58284467565500
C        -0.18435327945520   -3.17610764306660   -0.76537823065821
C        -0.52206552421228   -1.90937139304980    2.24354285001594
C        -0.98924428069688   -2.91171132407493    1.38264683267226
C        -0.46534022995512    0.48671663532808    2.55874660036341
C        -1.26702080620085   -0.71917377666542    2.40328586514590
C        -0.51311360555051    2.69096727108439    1.46244877653150
C        -1.13778572175169    1.70526882194837    2.30575338488882
C        -1.13325331406696    2.92198069277582   -0.88792103876099
C        -1.46976365570631    3.11371382184853    0.48063314820402
C        -1.32275426337912    1.11119933197611   -2.53915239449700
C        -1.99263454911768    2.13740566221377   -1.75042872155064
C        -1.28180456416189   -1.36903340439528   -2.59772073384025
C        -1.98300706102215   -0.12433402271932   -2.77070952459776
C        -1.60994970674692   -2.97238446207778   -0.79598406753951
C        -2.09486444723759   -2.72500379224566    0.55662160685802
C        -2.15217047386491   -2.23194508578929   -1.81970746192500
C        -2.62128667982497   -0.70201721908457    1.85384731391451
C        -3.02157020886579   -1.68958587471568    0.85860749148226
C        -2.51317398955049    1.72565291754690    2.04690222046504
C        -2.73169219277191    2.68127189305634    0.94439279559011
C        -3.27330486056833    0.57217716272043    1.79782255524807
C        -3.32884572006293    1.90290374006197   -1.29244306422397
C        -3.66509134736342    2.16913617066936    0.08562043562972
C        -4.15108781699390    0.91184428469919    0.69947801734925
C        -3.31637058146414   -0.30571767600645   -2.30759007860044
C        -3.36681920466914   -1.55875678488359   -1.56636039500024
C        -3.83549990158149   -1.29667460958903   -0.25919877649083
C        -3.96793329487234    0.67065126446717   -1.58499817101306
C        -4.38311732767981    0.02868606804693   -0.31435886954311
