72
C72 Isomer 3459 Symmetry C1
C         5.05432581572119   -0.70453617433480    0.60276116501807
C         4.72017153728593   -1.33500304292125   -0.61647675066323
C         3.82611869469100   -2.42616316131137   -0.36555221193470
C         4.29406748261302   -1.33501292274503    1.65685898422825
C         3.64315609093298   -2.47076921380264    1.07440544160260
C         3.51356245174518   -0.34683061275567    2.28389816025319
C         4.67018134740198    0.66517987527014    0.51774137604004
C         3.76325408557276    0.91170304305609    1.58281915637146
C         4.35547590343633   -0.30083395363401   -1.54560522876877
C         4.26098074207856    0.95592825048659   -0.82414354133074
C         3.36786034041881   -0.59128802220058   -2.44821715579966
C         2.71600293250331   -2.65921235604145   -1.22132599103971
C         2.60987672920092   -1.82380816699492   -2.36226589128607
C         1.46495055845993   -3.18149916354251   -0.69612687203235
C         2.40254725161156   -2.80287867328735    1.56422746711495
C         1.37721577233716   -3.32392759327289    0.70350033979400
C         2.19534745157583   -0.64305344981905    2.73504682726621
C         1.75022060702145   -1.96116107664392    2.53007916536973
C         1.20774277812393    0.40185492772329    2.81628231147427
C         2.73067605749855    1.82472255632727    1.41288679893278
C         1.56013920604668    1.69663321586753    2.27533981123555
C         3.19251500975407    1.83489072506522   -1.04831004182975
C         2.59983454427185    2.46033964240961    0.11325240256322
C         2.48778881488586    0.44142989400653   -2.90974965643428
C         2.35204891206568    1.65808169369982   -2.22371114230639
C         1.36642659108171   -1.60238227207447   -2.98908601173315
C         1.34004912097393   -0.22466381723231   -3.44515765389623
C         0.21721304154005   -3.04217318385766   -1.40169340510263
C         0.17539910488159   -2.24119593153298   -2.59832154724581
C        -1.02542852406408   -3.28022924462615   -0.71053986030261
C         0.13781053657155   -3.14351845424273    1.37331364748576
C         0.35612221469057   -2.23740393531441    2.45382957136614
C        -1.08895998090640   -3.21367936353552    0.72328124767744
C        -0.17606568141886    0.06173333682920    2.97997640499015
C        -0.61878767344222   -1.29750056302317    2.77868725086655
C        -1.17491002345602    1.08200715848404    2.80228323288144
C         0.56195072203084    2.65528085232943    2.09791054596368
C        -0.81251744244040    2.34816175809227    2.32633220396355
C         1.48188450348577    3.27368756903761   -0.08611688978541
C         0.62192688662468    3.54433103485868    0.98311135164949
C         1.07265290404049    2.33931256485255   -2.32291677916898
C         0.68162625660247    3.21903102893107   -1.30227971978483
C         0.15374414021454    0.43751136758675   -3.58327930194969
C         0.00338687308139    1.76144252096652   -3.04162597585461
C        -1.06108305005292   -1.61624689558435   -3.01142491479122
C        -1.07262151721676   -0.26969997122055   -3.44642124965203
C        -2.24071555022344   -3.00445425207669   -1.37829478221678
C        -2.26418048882807   -2.04892546178605   -2.46096462884598
C        -3.43237809794046   -2.87992543787060   -0.66163563989300
C        -2.23010706270490   -2.68550016956846    1.44307865258885
C        -1.97940046108681   -1.65434899057985    2.42623659062435
C        -3.46643406436880   -2.70009015955656    0.74093516080987
C        -2.51522422328310    0.71416280928505    2.58971696004684
C        -2.95018537773557   -0.63890983584044    2.59606503623868
C        -3.33605226355123    1.44514836737050    1.63519896548743
C        -1.59245625451509    2.98312414301220    1.28199180172770
C        -0.69923819665260    3.66794988405524    0.46011186776804
C        -0.68895147670932    3.39570901551999   -0.94258320654011
C        -2.73488713226284    2.36009698607502    0.73610121068225
C        -1.35556249913723    1.87525193444800   -2.63109153622124
C        -2.03362906462268    0.64599421788448   -2.94048678679775
C        -1.73973789105145    2.61991594246209   -1.50051012828330
C        -2.84667132812378    2.13579073695754   -0.68141856258596
C        -3.38358341148529   -1.17811885336887   -2.27508765022024
C        -4.19594532544237   -1.78324081049705   -1.27889229603523
C        -3.19005963944823    0.23377379175369   -2.25722136710114
C        -3.67218264441021    1.03765316643550   -1.14407719004006
C        -4.45261496072366   -1.68219932894261    0.98001747698587
C        -4.17667278620607   -0.68183313265279    1.86706839945102
C        -4.33771044812438    0.60761850988641    1.17953553798809
C        -4.79828787979075   -1.03190171964782   -0.30702215741944
C        -4.53101159164808    0.38166684691361   -0.20424879961444
