80
C80 Isomer 7220 Symmetry C1
C         5.49706709530336    0.44744938170497    0.31751796707146
C         4.96487118771741    0.49070981332788    1.62155288343934
C         4.30038365277770   -0.76148102727528    1.88174082761484
C         5.18439800754081   -0.81928261295001   -0.25350123392304
C         4.46113194381233   -1.59304019959607    0.71380333757001
C         4.56575718206498   -0.55793355788317   -1.50852459556732
C         4.82477196548828    1.46762157230301   -0.46024341561290
C         4.21553197828011    0.85923648711188   -1.58528598893347
C         4.22278242648112    1.71197954877127    1.73672896042866
C         4.05286827505163    2.28196193848741    0.40723913446687
C         3.14022427484028    1.69263272114140    2.57199468812752
C         3.07712755555192   -0.79143987215836    2.58144878245207
C         2.64176072982340    0.45179721688630    3.10544559690626
C         2.05708520749021   -1.78838644337869    2.28022806932648
C         3.41318097659123   -2.44871654111799    0.31335800352039
C         2.24241724169182   -2.65403663281905    1.15417766819892
C         3.65553622964517   -1.47672971008012   -1.94744497437220
C         3.22393988976788   -2.54179558022671   -1.09280803504082
C         2.51438930777105   -1.05617014600497   -2.71333262687350
C         2.91817921916539    1.24643125085239   -1.99341236656119
C         2.08237131671979    0.27380170204091   -2.68116897367425
C         2.78827303295330    2.74175621162819   -0.00969154445446
C         2.26862712159756    2.31442035538429   -1.28104598758065
C         2.01065128714717    2.52575815716314    2.28904149924861
C         1.80896789529123    3.05519164168255    1.00992855811293
C         1.27994783793689    0.66336846186278    3.39414675475798
C         0.89711659053711    1.97619664731340    2.98724446405523
C         0.73381017911324   -1.62885715673639    2.82499210662017
C         0.33658713081746   -0.36386851201491    3.37198040996841
C        -0.30449605745674   -2.56151769207102    2.48024313668023
C         1.11119230205187   -3.38969202339252    0.63100179311073
C        -0.11049045806452   -3.46744029678551    1.37590159594113
C         1.98870490618742   -2.98621575920400   -1.60534190835531
C         1.56231926383440   -2.10329073957581   -2.64235986312198
C         1.04407303020304   -3.61808776009561   -0.79083264598955
C         0.19788814886766   -1.87875501305024   -2.88998497460978
C         0.67864114219105    0.52651364472857   -2.88269872547250
C        -0.26492907512087   -0.53941817491787   -3.04364809466063
C         0.92673557792951    2.65044409938556   -1.62003571739623
C         0.21064348244446    1.83709582021618   -2.56075958879025
C         0.47965889743216    3.43143780314777    0.65621657755217
C         0.15626887158496    3.50345716540571   -0.74330454019692
C        -0.40992344658686    2.31073152623015    2.67090565413638
C        -0.58403368086934    3.25620731749888    1.60536195862599
C        -1.03409014989045    0.06405777584681    3.44139937111523
C        -1.43804738806675    1.38441670035270    3.06441754022334
C        -1.61154142925600   -2.28183494985671    2.92599184304922
C        -1.97759509540356   -0.98290422288060    3.40834703465142
C        -2.78035611270041   -2.79421808890017    2.23176001217954
C        -1.28254409368346   -3.97400974788821    0.73287549168544
C        -2.60648847425100   -3.51347238044486    1.08147107472393
C        -0.20122781273503   -3.80140545125635   -1.43289558241376
C        -0.66647772219642   -2.87966227806595   -2.43445765074404
C        -1.30309506923440   -4.15586233501395   -0.65628601113778
C        -3.28703730092874   -3.07205648022940   -0.12953074289802
C        -2.06339247301602   -2.62165051427787   -2.18935340408987
C        -2.48993179487095   -3.50449517854060   -1.18927115997804
C        -1.67908256978669   -0.31594371078209   -2.82977289054674
C        -2.56244576353906   -1.30171142818350   -2.24245187755884
C        -1.16232967719978    2.08662625817713   -2.77119376295353
C        -2.11032354330620    0.99498224950389   -2.80505103818480
C        -1.16511327882601    3.84132428815180   -1.10358966659217
C        -1.78695718023183    3.19332007038530   -2.20515078210019
C        -1.90682094570899    3.49930457269117    1.18705437732893
C        -2.16829009054455    3.96181349050220   -0.09740641897028
C        -2.76214935095433    1.59694693285220    2.54068061392958
C        -2.97745150418750    2.60921223337309    1.59746180362998
C        -3.31262353421859   -0.71835256981985    3.04375710014799
C        -3.79461007353856   -1.80256512327228    2.23599024032844
C        -3.66130426378373    0.50801392524117    2.45263485923823
C        -3.91850092113500   -1.79721073490010   -0.21359988112138
C        -3.58149577255401   -0.90391104683989   -1.30159262210640
C        -4.28064756685116   -1.23859254359093    1.03958598102508
C        -4.31297155502541    0.19569923732166    1.21388163121271
C        -3.29125081315494    1.38489028629423   -2.09703843672322
C        -3.12781728360278    2.77895839092157   -1.81075461217952
C        -3.37921323032125    3.27709568325544   -0.54874464218938
C        -3.82665647506369    2.39447788542826    0.46527188701748
C        -3.88873206350485    0.50809563157311   -1.17287045901936
C        -4.24139727032595    1.06457813993135    0.12565615327494
