78
C78 Isomer 3228 Symmetry C1
C         5.33696684098827   -1.32323419655364    1.32019116970753
C         5.49549620350453    0.07033892433745    0.96289035216519
C         5.61654793723531    0.14894880912226   -0.42714459794238
C         5.10061603766159   -2.05940707784169    0.10433435739278
C         5.32186310270256   -1.19635482154931   -0.97742335652377
C         3.81394190530901   -2.68837338054490    0.17469882348197
C         4.15039024755727   -1.41249151578707    2.07577692239250
C         3.26345150852385   -2.35774701097381    1.46722566316658
C         4.42996321381407    0.82074520977774    1.57327978429290
C         3.59700448517564   -0.11388849416233    2.29530416935195
C         3.79545248626484    1.86047620478556    0.87964358886713
C         4.89033265506700    1.09379806141779   -1.16793258168841
C         4.08600359735749    2.07203940893412   -0.52077097710971
C         4.38181830614935   -1.03889567471401   -2.01623790761687
C         4.29667795568483    0.38340413421250   -2.28116446875118
C         2.93366043809697   -2.65660101604019   -0.92961424413982
C         3.18367633682636   -1.80796017051931   -2.07397923540678
C         1.58085487639146   -2.96765855578332   -0.63975568232477
C         1.89508811567019   -2.21865049643970    1.64954570573497
C         1.08130893736569   -2.85717634716035    0.68026047864456
C         2.19689426443751    0.06050379571163    2.41098806456382
C         1.31288599068428   -1.06040721191144    2.27454701261768
C         2.50327685243177    2.25711802797246    1.39751416831331
C         1.66972451107276    1.35876178652162    2.15524442357022
C         1.86665660564726    3.28832055999025    0.71269375682966
C         3.08724295172541    2.71979373846701   -1.32888747703750
C         2.10918930048339    3.48159936350542   -0.67916926812555
C         3.20224029202764    0.88995961945923   -2.92794020717836
C         2.67616161529174    2.16360698334618   -2.55969626914582
C         2.04425523836880   -1.26376186006045   -2.78331176998071
C         2.10360927657456    0.04244726376697   -3.28650166140051
C         0.60066768774399   -2.84160156856458   -1.67590010923191
C         0.72108925755063   -1.79750697026876   -2.63094241511316
C        -0.65177496393142   -3.34453207228575   -1.40236601143673
C        -0.30712937817054   -2.92164591977793    0.95519865242771
C        -1.04494607235180   -3.60933752470550   -0.02997164138512
C        -0.10285205719839   -0.87449988794499    2.23931040861418
C        -0.95158351578670   -1.96348831106239    1.78511514514637
C         0.25524045367462    1.55970198129162    2.26117939899114
C        -0.64188988622377    0.43741597599873    2.37669323941046
C         0.51850944654951    3.63869601746171    0.99885969670756
C        -0.26565461938362    2.83560210438899    1.84744745416207
C         0.84458440283054    3.79239925974394   -1.27649494207980
C        -0.04248590703301    4.14517546606634   -0.22173117094753
C         1.29756219745654    2.16801050687423   -2.93515141875767
C         0.93522976409422    0.85108463051876   -3.33742166951841
C         0.34410760155436    2.99790878430219   -2.33381503170021
C        -0.47956414923185   -1.06987318858830   -2.95238657021987
C        -0.37410375240940    0.34791730485995   -3.15372822824045
C        -1.80572790453394   -2.92025524972339   -2.10800407597303
C        -1.78047127249335   -1.62017224049811   -2.68488482618302
C        -2.41827162821252   -3.63869232739091    0.03937885079461
C        -2.91536525075470   -3.35881889933099   -1.32083065390494
C        -2.38871631829438   -1.84599971649152    1.73410161835386
C        -3.11847997422026   -2.81682214215376    0.96092888989163
C        -2.08528996971359    0.60354496667097    2.23819797362053
C        -2.95778670959471   -0.52928313155649    1.93691256715680
C        -1.66472266857766    2.99508064257379    1.73282454752918
C        -2.56448692333254    1.90204398766469    2.00814190574121
C        -1.39806485643102    4.08026262341353   -0.43803875219839
C        -2.20042181419708    3.76909030818293    0.68158168840338
C        -1.05409257049822    2.59225061484168   -2.36862021630663
C        -1.42555141964044    1.23600835144820   -2.76724019088259
C        -1.92330554609510    3.32019933939378   -1.55453859484866
C        -2.92675254747092   -0.75016388128291   -2.50168925965474
C        -2.71386698954500    0.68269256032975   -2.41478154334555
C        -4.03642902307181   -2.59828198731414   -1.21946537556429
C        -4.29548312979364   -2.42575108972298    0.23414867920011
C        -4.08866082413300   -1.30149549315145   -1.85220830792382
C        -4.20508004903183   -0.24716759634735    1.30828424701338
C        -4.78023711630344   -1.16669780118747    0.38623532342041
C        -4.80561166993672   -0.50440507270927   -0.93778164103714
C        -3.71353329583998    2.10669870316989    1.16021360098878
C        -3.38734973968821    3.10728785670185    0.21358696817087
C        -3.17358275739661    2.74794698035915   -1.13659727192108
C        -3.60155687160327    1.48794064848929   -1.60966991521372
C        -4.40903641216120    1.03034510257630    0.69674474998567
C        -4.52832334326015    0.83593329345005   -0.74243450886205
