72
C72 Isomer 7271 Symmetry C1
C         4.89563772495587   -0.26773832339462    0.13034623670796
C         4.63852962545405    0.14171435928366    1.42814252208172
C         4.18231583070150    1.52288312169040    1.38566807155329
C         4.49111931441471    0.82442493535060   -0.75745278862118
C         3.98852058361402    1.90212766611240    0.02635685812190
C         3.73337693734562    0.29539710521595   -1.79425844027753
C         4.35812709549268   -1.48119713340528   -0.37875270079227
C         3.76327181510038   -1.16100810490534   -1.66273861262309
C         3.64843431851381   -2.31232670907900    0.49220947824157
C         3.73853317758894   -0.59490557942215    2.26543717227254
C         3.29306007691546   -1.83142316805732    1.81079692751056
C         3.12731595337034    1.63630548648459    2.30350961743995
C         2.78257909181491    0.33050913204954    2.83296440631177
C         2.10726105282954    2.51581789835116    1.98711844090769
C         2.79305227538841    2.55845525989572   -0.38517040645737
C         1.99020364791441    3.05220192791823    0.66817792927233
C         2.56322090942156    0.96482174252870   -2.27315928348421
C         2.10790645725735    2.15076397607413   -1.60081136149195
C         1.61761684208146    0.15143534353024   -2.99148613438480
C         2.70902602393851   -1.89751101644116   -2.13399856911317
C         1.66775861503298   -1.26424075245890   -2.89366626104015
C         2.51068899603633   -3.04136263248129   -0.00187664917174
C         2.09876022912520   -2.91882053084693   -1.32106984142593
C         1.93472234845189   -2.20913921987113    2.07312758562271
C         1.49103480855934   -3.04627589943187    0.99620646514140
C         1.43581625572476   -0.01035210583764    3.03657456750225
C         1.02022024729975   -1.35417605229470    2.71328082687652
C         0.79209904805803    2.27941500902702    2.48534019579345
C         0.41398662241205    1.02539987280317    2.98122341997813
C         0.61420381872668    3.37456211293259    0.47703361683192
C        -0.10623249721298    3.00297480474122    1.64340846149817
C         0.75089282304568    2.61032127358989   -1.82606524368293
C         0.00720465743999    3.29307831572577   -0.78290664011320
C         0.35556097937739    0.67992612993768   -3.28257878422613
C        -0.03551376393393    1.96017968205246   -2.79040499440683
C        -0.81432107615751   -0.13196163530799   -3.40142723016614
C         0.47580732958398   -2.00385808146076   -2.70858471505491
C         0.71118040404087   -2.96049711469587   -1.65188485722582
C        -0.80234622621712   -1.45733270290744   -2.92825445265433
C         0.13700068739949   -3.14768483195385    0.68352458199757
C        -0.28570005016279   -3.16296585524001   -0.69701365484955
C        -0.37161300218042   -1.66463355894480    2.60076758522800
C        -0.77490695852232   -2.67498217475863    1.67816791442917
C        -0.98840892959688    0.69520321143614    2.96970569506743
C        -1.35878099472320   -0.69697225127417    3.02460844237717
C        -1.47028030195998    2.72600361623023    1.63268101385368
C        -1.94344547857883    1.64449219704281    2.45954507460712
C        -1.40895087337697    3.27952448682551   -0.75966147019595
C        -2.14568163151299    3.07600652265438    0.44285913169870
C        -1.47585751817523    1.99856817705936   -2.79348633143013
C        -1.95400317291752    0.70058553430879   -3.18486011209071
C        -2.17141762865061    2.69007068758657   -1.82308371852391
C        -3.10029223449050    0.16474752752109   -2.63061476049951
C        -1.92845487899403   -1.96519889318067   -2.17990694209983
C        -1.65030722944238   -2.81402548388999   -1.04018485850697
C        -3.10969214657063   -1.19950806628909   -2.16336800408644
C        -2.14085291148354   -2.83572381380205    1.36847784187631
C        -2.59161349636065   -2.89024559262562   -0.01768265220793
C        -2.71907564319196   -1.04425256218421    2.89600294260135
C        -3.09971767605709   -2.19638562639650    2.13676529916526
C        -3.28225428420201    1.23614039927850    2.23345182150369
C        -3.68406994707160   -0.04760041395274    2.59139821373806
C        -3.40285005221921    2.46092267676959    0.11614889478072
C        -3.40614232681233    2.17076713817610   -1.29454932943503
C        -3.90121078922911    0.94492222519692   -1.72334431946110
C        -3.99846302455353    1.60847209653947    1.01535175428516
C        -4.06861919921114   -1.28815324145570   -1.09883957913324
C        -3.85484767545451   -2.20957733299330   -0.07532665244341
C        -4.21138790971307   -1.84509508080290    1.26245056129059
C        -4.59197410148184   -0.55071134474671    1.55866120800943
C        -4.54044739087988    0.04864394944361   -0.79457630201376
C        -4.70731360312967    0.43805728542612    0.53855587721596
