80
C80 Isomer 1934 Symmetry C1
C         5.23717178944951    2.13998625344693    0.55124879016070
C         5.43947619017430    1.54446109456267   -0.71351892794383
C         5.29345744116675    0.14486114039496   -0.57879026859215
C         4.92078339492419    1.08648023355305    1.51587997978202
C         5.00047519349536   -0.15631465863479    0.82796403683535
C         3.67499554610109    1.39435874978848    2.11315723063436
C         4.09897126924477    2.98440070204453    0.44234962502630
C         3.19586811118223    2.61026325314104    1.46840523602793
C         4.40028659298823    2.01051023196591   -1.63672350607809
C         3.58698092956007    2.92156542285619   -0.92574900605433
C         4.36811153087168   -0.29592905870774   -1.57325064980733
C         3.77147152817181    0.86826986640667   -2.20724875877532
C         3.59050891187271   -1.41852714680316   -1.33948438817816
C         4.07368844693946   -1.15239478527347    1.09672240212277
C         3.70650318264730   -1.99853225938352   -0.02239434158771
C         2.73193816521333    0.38927824057082    2.43521013780224
C         3.02086064240424   -0.95863078213074    2.07214416883515
C         1.34727545209889    0.74599781008117    2.60223029929226
C         1.82926863807835    2.77621329526945    1.28838165192321
C         0.93392116896593    2.02170713016119    2.10871541919349
C         2.20147732650762    2.89297046444319   -1.12797548414859
C         1.34159801266054    3.15475847843012   -0.00891695522184
C         2.39418099042699    0.83911139661278   -2.46934831425903
C         1.62484896474751    1.98766496228617   -2.08012145185879
C         2.34087179624627   -1.60422465291268   -2.03458691898668
C         1.70916340239269   -0.43938130504762   -2.56624420774954
C         1.58263514628306   -2.79182529611032   -1.78880185077713
C         2.90613850029450   -3.05813966705260    0.25300922051299
C         2.05902355996737   -3.64313342923665   -0.74946825190696
C         2.00987134203760   -1.95372134447432    2.23483063109889
C         2.22860987483072   -3.17081182098759    1.53368996616709
C         0.33455291392399   -0.24357380163033    2.79158969062221
C         0.66284252859985   -1.63700867719850    2.62365045890413
C        -1.03719279387481    0.16866359927184    2.89319917168780
C        -0.42732384964525    2.36913607053516    2.04397567997831
C        -1.38021869963273    1.55901385803183    2.73813363731815
C        -0.03578306394734    3.20595259646628   -0.20860095185931
C        -0.87264778417610    3.17486150651902    0.94834496467912
C         0.22165151316489    1.96394922543538   -2.23862211973342
C        -0.60629498588049    2.82535302578700   -1.46621408225238
C         0.31213399767792   -0.45777161939673   -2.81739304790395
C        -0.37948751030415    0.81412901400874   -2.86808370432406
C         0.18414472194754   -2.84431918973421   -2.13350590998335
C        -0.45228606454893   -1.66235047190920   -2.64466908010373
C        -0.64961050992683   -3.79677021836089   -1.47961340904719
C         1.18718144010149   -4.49727412236315   -0.04674416351810
C         1.22956737024709   -4.11391369334136    1.38053228676882
C        -0.13128588965356   -4.60241028706563   -0.41763436153917
C        -0.40026266788389   -2.58553313624239    2.38092118336376
C        -0.09567840720700   -3.85127450243260    1.80083007239623
C        -0.94440283893748   -4.36692113293502    0.77152706836582
C        -2.07105234879718   -0.79445058106472    2.67509795973655
C        -1.73999161084213   -2.09361038813555    2.19786422595933
C        -3.40318973523191   -0.35424602518352    2.44832764746715
C        -2.72968707427480    1.96186690202039    2.67051207332571
C        -3.75215697828937    0.98175985933302    2.63206907079823
C        -2.24389344601210    3.38917683365991    0.76171385413207
C        -3.13512234518365    2.98051838291681    1.75071349948621
C        -2.03103585437231    2.83055928791520   -1.62424272380627
C        -2.85571583994159    3.24235610502991   -0.55210827834296
C        -1.74621445867941    0.84697286069737   -3.06133548881698
C        -2.58094506159446    1.92090217265546   -2.56005989486669
C        -1.88567486284876   -1.56335030276832   -2.59285157889428
C        -2.50357212350142   -0.36770594346761   -2.99287116715074
C        -1.95256779597956   -3.40322757105718   -1.06039212579330
C        -2.06304834527883   -3.66129304228891    0.36560489982321
C        -2.58301343358552   -2.63760905449638    1.17401770741810
C        -2.62470462163015   -2.33930514228241   -1.63634754442960
C        -4.19147915752646   -0.86859962734327    1.34474700679865
C        -3.63177909538649   -1.86938610423633    0.56348858278272
C        -3.71635533418800   -1.76895927432887   -0.87588889908330
C        -4.74223467147157    1.35218434350411    1.61564558603906
C        -4.35518311812374    2.56166832602055    1.07226618364809
C        -4.16850399609762    2.70477770840841   -0.34451747487525
C        -4.96089760347324    0.21248835499198    0.78310895365649
C        -3.86458288418271    1.39304615387837   -2.34152592899749
C        -3.79047235311736   -0.03735406134507   -2.54310163330079
C        -4.38205725274601   -0.66062004633945   -1.41562761865734
C        -4.61793151475145    1.66136047776896   -1.17456925403063
C        -4.98196954488147    0.37284883283173   -0.59867653733497
