78
C78 Isomer 3900 Symmetry C1
C         5.51763689175375    1.13085170623606    0.04670852526439
C         5.27734149339162    0.50812456362539   -1.25470919614619
C         5.18012516080627   -0.85270851045688   -1.02961374294785
C         5.28996120328449    0.13466225285731    1.08661671309404
C         5.19493845164991   -1.09001407479419    0.44910523264559
C         4.17123402624968    0.54705561832444    1.89393312045272
C         4.56593853731171    2.12317281036594    0.20979210061133
C         3.80738407310806    1.85897126985356    1.41595191060198
C         4.15675935195906    1.15238068643289   -1.88161759071523
C         3.80585034562550    2.25095827943331   -1.01471418801547
C         3.08949770080068    0.41596181936619   -2.45699638638394
C         4.12640542840961   -1.60980659724414   -1.57794407988336
C         3.08358262918193   -1.02732727662353   -2.36238369550624
C         4.15701610812842   -1.98815861033552    0.75353859294696
C         3.74120455906390   -2.51561070705243   -0.52406549099124
C         3.12107380768374   -0.34168911812913    2.23207572183051
C         3.13753114899180   -1.69144212882856    1.71140878477634
C         1.83825818458476    0.22331110486412    2.58098799885149
C         2.51273788372823    2.31384514739195    1.49744151655162
C         1.57595317155749    1.59751849438087    2.31786866521516
C         2.51677826790571    2.72503424965486   -0.94903201568410
C         1.97783512372696    3.04769029475380    0.35881063395836
C         1.81959770360841    1.07867873513015   -2.61247266164954
C         1.58217136265345    2.32497741822293   -1.96575555674336
C         0.66598963193040    0.32436175571637   -3.04618655700612
C         1.82975206244504   -1.74499638195357   -2.47196621875734
C         0.60141072669342   -1.09898912477731   -2.89198498369900
C         2.56119076344302   -3.16096333322664   -0.61234799348427
C         1.69219981341897   -2.92892132151392   -1.72788771840070
C         1.90402025588336   -2.43889078863627    1.63654817315992
C         1.75082219592693   -3.32296318537529    0.55542655220834
C         0.70743809330046   -0.65292457750150    2.80584180868631
C         0.68473184470559   -1.98641046864993    2.28332505722954
C        -0.52416023534565   -0.05519410553380    3.11438154091854
C         0.25054218707820    2.14191885264521    2.41844545938942
C        -0.75718685955672    1.34498345755118    2.94599405275996
C         0.68501123814458    3.48054148977830    0.42254820757140
C        -0.16366770979145    3.18288362055852    1.54053597158111
C         0.27560967327300    2.90305716496459   -1.91291039732775
C        -0.13746171929109    3.59798791813022   -0.74823398148863
C        -0.54393083870393    1.00866955296838   -3.19300418604837
C        -0.74303898699675    2.32820018310967   -2.67717090414550
C        -1.80737384267789    0.35691923767923   -3.21729171397829
C        -0.68645601946905   -1.73022846839275   -2.73054671987226
C        -1.92195299845556   -1.00241813772602   -2.89748093466923
C         0.42152552004467   -3.39423850948269   -1.32804241196117
C         0.46600417147200   -3.65314585388406    0.07675415979813
C        -0.75788636231829   -2.92886900187908   -1.92879486981522
C        -0.58512393564300   -2.61679118017220    2.01283158798967
C        -0.66900355624761   -3.50040424554790    0.87435168509641
C        -1.76803308542975   -0.71038847776428    2.95965029046288
C        -1.82832901296491   -1.99860098605764    2.41774659998338
C        -2.14081238630615    1.54406868927133    2.64076146198481
C        -2.78543221143873    0.28791744912372    2.70762046822640
C        -1.49343979693340    3.30684045098453    1.10778202402278
C        -1.47913544379116    3.58742011884394   -0.32317695499419
C        -2.53735233422076    2.52940949188057    1.68393749252983
C        -2.12570640554597    2.50207044229915   -2.37446556882883
C        -2.80188957041094    1.32220662070676   -2.84126728158998
C        -2.51728596967041    3.11743001869714   -1.15595575746611
C        -3.97809082088030    0.91093762602238   -2.24662918129521
C        -3.18008171601092   -1.43235765384878   -2.28362945033065
C        -4.17936969729250   -0.49204384063600   -1.96249195684641
C        -1.92043170910354   -3.29062041205399   -1.24261880481264
C        -1.86256784336443   -3.64565045164514    0.14783164163130
C        -3.16712055946111   -2.60972178609483   -1.47339144544575
C        -3.07182955524184   -2.33008411429897    1.78760060675468
C        -3.08121065479486   -3.23355630498071    0.72734709158654
C        -3.94125020134723   -2.71629400123215   -0.31095758569765
C        -3.94001430066753    0.00918145708958    1.93753123985497
C        -4.89644854964954   -0.56398134823586   -0.69081990062224
C        -4.10588916048764   -1.32488416693822    1.51316816616246
C        -4.63711634578943   -1.60259111951632    0.20881354417407
C        -3.67415463154960    2.27282123586280    0.91080712604226
C        -3.68740808980289    2.62265870565010   -0.50918981636828
C        -4.47491003085423    1.67279316796499   -1.15291599572660
C        -4.42916657574757    1.06053996476494    1.09153037643154
C        -4.97834106967044    0.73486724786283   -0.16568800769225
