66
C66 Isomer 3149 Symmetry C1
C         4.44703519414678    1.23792863435647   -1.05339010709946
C         3.83357802531723    2.37675031484709   -0.52371473722412
C         3.71368465927599    2.19401166172630    0.90729000247955
C         4.64307119801519    0.26476150196311    0.04009704750438
C         4.15684416650079    0.86774157496769    1.22985987533087
C         4.14136788166964   -0.98304690455610   -0.38965937274241
C         3.83559710012010    0.58137481896408   -2.11827144674895
C         3.72959110418593   -0.81993836539822   -1.75761670908060
C         2.56098327444227    1.00138768710752   -2.61173060034616
C         2.57277577690712    2.83050349189564   -1.02204331921011
C         1.90312652834733    2.14080251586333   -2.07439763694564
C         2.44722386824018    2.64716403421347    1.30381422410191
C         1.79834356755210    3.18500901585236    0.12723549454334
C         1.63998839635887    1.91698633011513    2.22005529188157
C         3.34495569530289    0.10534124332708    2.07550561169294
C         2.13781576599263    0.66556901664678    2.64747245232088
C         3.31874839291571   -1.77986915557033    0.45869781184606
C         3.06492494942224   -1.25905850738428    1.75260352951906
C         2.27885721614196   -2.60142486445187   -0.14424350481335
C         2.49522478032005   -1.29131400213559   -2.18707434916739
C         1.77793601286460   -0.17799979819762   -2.79361930636663
C         1.78933565089529   -2.28117277322822   -1.46641978346056
C         0.39145521157595   -0.16164681136066   -2.84466128304221
C         0.46263154182839    2.17687313435707   -2.10987779932100
C        -0.29378709546918    1.09311821442816   -2.68322650534107
C         0.42781356012040    3.30516388001741    0.07550280968592
C        -0.22349863492787    3.02102432948162   -1.18031613241277
C         0.22470091612594    2.13749559870114    2.23502099613065
C        -0.31788716882180    3.08936054768651    1.30109829674063
C        -0.65448501528159    1.11356198699616    2.73973846137736
C         1.22505797203485   -0.39121370575590    2.91964035432973
C         1.84219895563984   -1.58904012672140    2.43560147154378
C        -0.17682424700363   -0.22576086165177    2.90712131992328
C         1.34529668040854   -3.20767579386545    0.72275741619579
C         1.05773315935740   -2.62132066734656    2.01650943177322
C         0.12204313204284   -3.67337898242497    0.22977924358243
C         0.41424007810846   -2.46991482974662   -1.84774342795126
C        -0.27944063049242   -1.42767440149405   -2.59805852001001
C        -0.36617131706185   -3.32687132556180   -1.04590567449255
C        -1.66654749154495   -1.41276342530639   -2.63101686127120
C        -1.72927581684601    1.08886932050357   -2.61395785694424
C        -2.40378605119321   -0.16391684411009   -2.69918538966191
C        -1.63073004304210    3.07477757820854   -1.19430235977538
C        -2.41451023000533    2.13629536934691   -1.96124635846237
C        -1.70198466948619    3.27088817423791    1.22673790427046
C        -2.33776677282537    3.45832792716078   -0.04341274204699
C        -2.04730674024649    1.26553521550552    2.55873789642048
C        -2.55926523045515    2.43886645551086    1.99016242893304
C        -2.89814182852194    0.16054797758278    2.17331501932646
C        -1.02512506220486   -1.34711412411663    2.55510648013404
C        -0.37547030697204   -2.54902863538345    2.19088522029062
C        -0.93015621484608   -3.35026602787503    1.17336884687027
C        -2.37151353087368   -1.12968535235291    2.03898407672223
C        -1.79310602994904   -3.13790603704086   -0.91531953680651
C        -2.43882668894316   -2.31368154225606   -1.80677693835913
C        -2.11120140534094   -3.01892217934341    0.48773042167026
C        -2.92525784741409   -1.96652382672942    0.98139690588825
C        -3.62581002633424   -0.33819082109373   -2.02323940375754
C        -3.57369973359745   -1.61129055043922   -1.34495912242114
C        -3.80372714607049   -1.37700014484270    0.02744155882975
C        -3.64671216403941    1.92636312471163   -1.24454152557817
C        -3.58018139704919    2.71024594218352   -0.04812591936553
C        -3.72531397791478    2.09538643627730    1.19127294360894
C        -3.93110275403121    0.68801822587543    1.29879644508999
C        -4.16221745683116    0.63215927932438   -1.14367226081325
C        -4.27734968654058   -0.01659917220193    0.15438920048144
