80
C80 Isomer 19938 Symmetry C1
C         5.04658011509321    0.25209286911454    0.60510485287153
C         4.94858961563564   -1.11637717678939    0.56065546444948
C         4.71002871319987   -1.53195247413934   -0.82880692441172
C         4.87520532534426    0.72982972571753   -0.76515511981532
C         4.48836428647660   -0.37452290930046   -1.60395297896261
C         4.07934199060994    1.84548269234032   -0.71313010924476
C         4.20031275395248    1.03425741184171    1.46277492974714
C         3.77851732031101    2.13809463639800    0.68985500730837
C         3.27357527204292    0.43971222318548    2.34868634015583
C         4.02379105627443   -1.77912709986748    1.40337882014008
C         3.28071388041399   -1.01501086770559    2.35571159048534
C         3.76909241534359   -2.57422330487928   -0.76765891791895
C         3.36682814043625   -2.78011103815767    0.60988471045123
C         2.77945690998963   -2.61274958162163   -1.73507553381313
C         3.30223650457345   -0.26970511669326   -2.41734829339415
C         2.57496130836814   -1.46240139440836   -2.58021559584658
C         3.05815933207586    2.06392388621158   -1.69813279162942
C         2.55255418267119    0.96866962695877   -2.48944172505185
C         2.24775180192245    3.13618225277919   -1.40621141636803
C         2.66862358437314    2.89245099086196    1.03512114103470
C         2.17851438510634    3.67031858001251   -0.05113523938480
C         2.05936333253154    1.17417762420255    2.68493281792916
C         1.78523901681311    2.45422481157214    2.08911141695767
C         0.96190911787383    0.47097884006347    3.31434007747790
C         2.12538994224370   -1.65011089687510    2.80258809705089
C         1.06718353112329   -0.92699237639644    3.42502531810357
C         2.06931925800657   -3.22864128937041    0.91374188170434
C         1.56851811706649   -2.79487681388714    2.15483647445304
C         1.50259342598993   -3.17200559341219   -1.43270534654545
C         1.09731175091288   -3.49838031698366   -0.12026872756263
C         1.19248196552259   -1.42991389108992   -2.91414180893287
C         0.57133687117448   -2.56554946157724   -2.31216245830264
C         1.14981023125620    0.99204960920002   -2.83985196066082
C         0.46173495032794   -0.24687940411664   -3.06565158577106
C         0.95121126589414    3.27654720620435   -1.99701941713361
C         0.32864107317334    2.15686763767665   -2.58113308532143
C         0.96218505796501    4.29108218732208    0.08178367644470
C         0.22188594281620    4.14797437847270   -1.16367813735874
C         0.45371055245039    3.03262031963037    2.14386726189032
C         0.09665943407180    3.99997316042536    1.16838580839318
C        -0.36800273501096    1.04024703227774    3.39011107711125
C        -0.62690663641468    2.32158686792188    2.78954478977158
C        -1.46907689088586    0.17403008770984    3.58223680924912
C        -0.07772815381954   -1.77576080097199    3.37257359788770
C         0.18376918817534   -2.85220985071078    2.44728212381255
C        -1.32368948941189   -1.24007570054191    3.47969540627376
C        -0.31228250528690   -3.49966858083471    0.16097223420473
C        -0.77920489936266   -3.23227088233709    1.50701460352331
C        -0.79066690043703   -2.64241493259631   -2.11461305473701
C        -1.23571125809851   -3.29337166429390   -0.91323325670789
C        -0.97808675020701   -0.35636854615169   -3.05106344900442
C        -1.58403240677416   -1.64137099650470   -2.78709620893358
C        -1.11061622847885    2.05167495688514   -2.45016545201016
C        -1.75405466015780    0.82739769186803   -2.84166068372202
C        -1.10756248482890    3.92159290540609   -0.85831446072863
C        -1.22117657986529    4.01756883815596    0.59523514169654
C        -1.82924238636006    2.93775857329023   -1.56691689318618
C        -1.95844807014180    2.60480369421453    2.40665822881771
C        -2.22956713588742    3.35982139116885    1.22528893732225
C        -2.77859264377710    0.43718335692716    3.06731132803665
C        -3.01617859600925    1.64254742504704    2.46924651045588
C        -2.41307754471721   -1.80289012125068    2.72861897524609
C        -2.14323912279299   -2.78452890806125    1.74215567757549
C        -3.35363735859684   -0.76895127599011    2.51051497126583
C        -2.61560584381436   -3.17881897058524   -0.63150063114583
C        -3.07471977783976   -2.84537526494422    0.70487226818531
C        -2.97142954608735   -1.74512707614896   -2.59610892136324
C        -3.47650243783567   -2.60329166210220   -1.55934746220094
C        -3.13736631937678    0.67771963755020   -2.55357257266019
C        -3.75324232494322   -0.57145495500725   -2.57572527465103
C        -3.05429684264542    2.50613927098909   -0.93033482806646
C        -3.25915846266961    2.71210360934249    0.45938485201485
C        -3.81931274933133    1.69452592105400    1.26662401363246
C        -3.74915685368759    1.44103254374265   -1.48162433467674
C        -4.19874589246267   -0.74275643693767    1.37371888352037
C        -4.16107064037965   -1.92472284883003    0.58647462420408
C        -4.47936287015619   -1.86140302599779   -0.80890809704410
C        -4.66130012805741   -0.64401358950410   -1.42640843504457
C        -4.42441871411138    0.54011527885056    0.71899725436671
C        -4.56798207888208    0.57001734498096   -0.69584680590911
