76
C76 Isomer 519 Symmetry C1
C         5.55479300303479    1.42236315280056    0.55256939078121
C         5.84251642065021    0.72103678649761   -0.64488722259125
C         5.52224332409009   -0.63277712559224   -0.41628553182533
C         5.00412134419457    0.49019701846260    1.52228513063895
C         4.97291512522708   -0.80396554936642    0.93001682030871
C         3.77243498182146    1.00840481296217    2.01006169624525
C         4.52378860427071    2.35984022582183    0.27089180871696
C         3.52010125177166    2.24126428586191    1.27671466160457
C         4.88932145949582    1.18181291206936   -1.66897521889674
C         4.09847754573434    2.21982402349672   -1.10500764404989
C         4.72465981453748   -1.07945273211083   -1.53180148273755
C         4.22287505547448    0.07984770683482   -2.25674747782806
C         3.85772430385220   -2.09285375305064   -1.29830463401312
C         3.86447542636082   -1.65532997864380    1.13937694079398
C         3.55606198831375   -2.52475347690367    0.05044644551293
C         2.67258672035343    0.17331561057141    2.27849520100206
C         2.71947842782026   -1.22257311579470    1.94360100547017
C         1.37859319693606    0.80151230042119    2.38229066518170
C         2.22554193489537    2.59232516198984    0.96321397333146
C         1.17837563527311    2.07188520840619    1.79621881764793
C         2.73170347773785    2.30035696880267   -1.41931952335178
C         1.85942219594705    2.82584651427751   -0.40630577826491
C         2.84279450554660    0.14196529811846   -2.60902746505900
C         2.13012072619508    1.33940747075089   -2.31496360559483
C         2.63588107924968   -2.19735408925352   -2.06494480645916
C         2.04734208323529   -1.07151335374665   -2.66653768439196
C         2.32451741584281   -3.16582839991148   -0.01609536524035
C         1.81602113631138   -3.09394001124955   -1.36927570615476
C         1.48978746462240   -1.96104017088813    1.94052508428206
C         1.38575722611480   -3.07495002397780    1.04355382877317
C         0.22382062812020    0.00540535501582    2.65802541054368
C         0.23681117278046   -1.40152547181851    2.41511054289913
C        -1.00960486853342    0.66953145096567    2.74111773638552
C        -0.11597121086455    2.60699786567745    1.59074543296620
C        -1.16822382114308    2.01207631574776    2.28590431441072
C         0.51268127705574    3.02686080299198   -0.71690045921436
C        -0.42245367656037    3.27543905472592    0.35190527670091
C         0.71921907774557    1.37217103364074   -2.50629240240650
C         0.01972914626405    2.48634378243709   -1.94624403753568
C         0.60606821497909   -1.05095093764925   -2.78656409360150
C        -0.04884788550441    0.21619401605054   -2.87470345235531
C         0.45990408873453   -3.21489533894210   -1.64505422937484
C        -0.18955491052020   -2.20616371461057   -2.43218770217814
C         0.15226978573999   -3.63911855334453    0.76331451959900
C        -0.24062475142176   -3.89104789843250   -0.61252377635953
C        -1.03548948815898   -2.06506258714198    2.22309838402035
C        -1.02582718126768   -3.27762211335958    1.48910298614445
C        -2.26531787252547    0.00660922354511    2.61526848848582
C        -2.31004962166675   -1.35220511092894    2.26021759905442
C        -2.54004193388719    2.21371419037033    1.92371204915916
C        -3.23796122434765    0.97276887513994    2.17991843888140
C        -1.76126984741174    3.49532898867409    0.02477010115198
C        -2.85672714238149    3.00217980290566    0.83662442419841
C        -1.33649700973874    2.62616293869304   -2.22183984969985
C        -2.16314254768220    3.33245653888047   -1.32637402037409
C        -1.49524435409110    0.28847131868133   -2.92859847608871
C        -2.10190270416722    1.54543323039706   -2.78122360843336
C        -1.63007831031681   -2.13300328168922   -2.38124378836135
C        -2.30622191507390   -0.89605889727651   -2.70118953326378
C        -1.61608592023247   -3.89386372251654   -0.65688674180121
C        -2.13194173407627   -3.62998426770166    0.68458184840437
C        -2.31784257380388   -3.07246095247468   -1.56470390348662
C        -3.45665724425875   -1.75321375489275    1.45838118109557
C        -3.27303505677658   -2.84809328405452    0.56843237413347
C        -3.51091949640448   -2.67740521307283   -0.85866036342071
C        -4.30229408906555    0.60526299639959    1.38651180294080
C        -4.40259344839397   -0.78854002579598    1.01902308666925
C        -3.93787010687067    2.58531911245137   -0.04531853949242
C        -3.48518097662325    2.77739486469803   -1.37783576430820
C        -3.45953594040195    1.70823213373145   -2.31417192251834
C        -4.66891353616368    1.43063842124197    0.25039980898510
C        -3.65266732621122   -0.72543921468396   -2.30629340619567
C        -4.21821841028167   -1.60068475800815   -1.29897121179237
C        -4.88125869422071   -0.81022037810304   -0.31698409750493
C        -4.21221134569525    0.57291171378910   -2.04229228991774
C        -4.94365808958523    0.52678177198997   -0.81289046097697
