66
C66 Isomer 3862 Symmetry C2
C         3.31637179169896   -2.41799422936989    0.96649863819469
C         4.12234498304378   -1.34388999329766    0.67277659206567
C         3.99308767994086   -0.35985672364341    1.75263135889310
C         2.66413269014006   -2.13137208432266    2.24023293211773
C         2.96044190653678   -0.79006792385785    2.63175190129070
C         1.34872024610341   -2.55166919745321    2.14736131533579
C         2.32106210222197   -2.86176601396902    0.04621716556730
C         1.16162041026576   -3.14188754089483    0.83413256359952
C         2.17233339041672   -2.25623910674395   -1.22515798229490
C         4.03088604531126   -0.69024611963237   -0.58337256969529
C         3.10611489940532   -1.18154250692772   -1.56128308955226
C         3.98077189083322    0.90006164211397    1.14380554916374
C         4.14098105853190    0.72590739275786   -0.29695370024228
C         3.05879854735980    1.83453801164462    1.61480954608036
C         1.88237381363284    0.08864799761974    2.97495272515980
C         2.05159661113921    1.42827828620121    2.54172172863850
C         0.29898504632482   -1.78338992472576    2.72329278246900
C         0.52430741559673   -0.42233029952869    3.10338567191188
C        -0.98157600504307   -2.19203003669513    2.30966485123622
C        -0.09959783295374   -3.23533769744109    0.26648174931168
C        -1.17873848712309   -2.99087484449511    1.15701412485086
C         0.85182994912046   -2.32823965115765   -1.83220289087794
C        -0.24026226667631   -2.96424340364070   -1.13936084933838
C         0.50592249653159   -1.35030048056892   -2.84093732025535
C         2.67987570862641   -0.20802779966529   -2.50143840014445
C         1.35904800314852   -0.26574150952007   -3.07464545403462
C         3.57115342914265    1.64803320406146   -1.15665712425917
C         3.01103356190000    1.14865882103978   -2.35206232842995
C         2.43392770784112    2.75498837237513    0.69051482199098
C         2.66604992209158    2.67698825405940   -0.66151254536559
C         0.89068332826801    2.22881395908809    2.30061624514569
C         1.10133141011878    3.01740059673914    1.14331580470137
C        -0.62442495044019    0.46625493524101    3.09268192307021
C        -0.39458824862000    1.82382100681958    2.70298392629507
C        -2.14518515750780   -1.38934067452425    2.53000020113796
C        -1.98097889359561   -0.04581535562320    2.95300738295257
C        -2.50602940847990   -2.73260876000301    0.68644623975422
C        -3.14154027679616   -1.80388290318915    1.59507010613595
C        -1.58345305669888   -2.77692898554597   -1.58350669753991
C        -2.72246855322443   -2.66668845594796   -0.66882087466986
C        -0.84812231116491   -1.07037361743156   -3.14317930373917
C        -1.85466370402142   -1.92439752335477   -2.65086695865632
C        -1.38750816809106    0.25446141550647   -3.09312533013313
C         0.82037463085471    1.05853736385571   -3.14297618155999
C         1.82125163401138    1.91696972275473   -2.64672683519231
C         1.53771988520712    2.77899817333687   -1.59033252287373
C        -0.53709774632498    1.34114601668546   -2.85919451236068
C         0.03257546626400    3.25375176397965    0.23811015506866
C         0.18945227430661    2.97021367004350   -1.16349523098646
C        -0.89462890329821    2.32811669816057   -1.86328191270476
C        -1.43762658760686    2.58680928094702    2.10808380785165
C        -1.23518044296676    3.16523093822657    0.79186077037083
C        -3.05493368811145    0.82972536270137    2.58945641271189
C        -2.75410080742068    2.16751164747723    2.18945675999648
C        -4.05799845805906   -0.87375119888276    1.10512989801370
C        -4.07742910305963    0.39160789052140    1.70231975775529
C        -3.62176271530047   -1.64228129684803   -1.18373820906585
C        -3.04775863653090   -1.15355918607902   -2.37682137742893
C        -2.71490983953853    0.20185345827325   -2.53475163845681
C        -4.20152173152823   -0.71259806628103   -0.33889965549812
C        -2.22208151162825    2.26145738894960   -1.27110201315701
C        -2.38550860394246    2.87826286367252   -0.00689359007539
C        -3.39154698864521    2.44269091381887    0.90567586651248
C        -4.19403914976034    1.36588976750293    0.61220506329612
C        -3.15188312834653    1.18373300432827   -1.60843948055010
C        -4.08801457343120    0.70091329075870   -0.63692975950896
