74
C74 Isomer 4258 Symmetry C1
C         5.01562899131965   -1.46249772520778    0.65296841195890
C         5.09341325859592   -0.09982066250790    0.19811307925311
C         4.43636219238345    0.00449537028006   -1.04744497462988
C         4.27704604184646   -2.20498331906048   -0.28763437387702
C         3.89805410189364   -1.32169980041193   -1.35420884478298
C         3.22253727059046   -2.89912212556861    0.38327455172775
C         4.24678033668728   -1.46346901757886    1.86342873480871
C         3.19374619223709   -2.41604892677508    1.74086992591342
C         4.61682849490075    0.71844189866190    1.27818469726386
C         3.92421226497486   -0.14073159324967    2.23528126727613
C         4.07177519528061    1.92144367584277    0.95762146023208
C         3.72462521780963    1.19193206486317   -1.38080789058710
C         3.83041910944436    2.24925274430358   -0.43653599491231
C         2.53175063548362    1.09712557602330   -2.18216944866263
C         2.65716285634309   -1.43855292777092   -1.96720380745716
C         2.11030262181716   -0.23401329301985   -2.56811244081072
C         2.02764030524386   -3.14361646650689   -0.30714926548210
C         1.73856320923136   -2.50284026099995   -1.55978016990142
C         0.92730369231902   -3.43354649156260    0.51916495389165
C         1.96666701327349   -2.15656028863674    2.36783441745048
C         0.91755557026222   -2.93943264347009    1.86183195065078
C         2.61777810132864    0.21047662667996    2.71018817843595
C         1.64246456125965   -0.83531192759716    2.89470482300896
C         2.96608617279796    2.43860843009180    1.74006717840538
C         2.15377306560247    1.55955749732021    2.52709997411595
C         2.84007217091294    3.23918856199320   -0.42371562954638
C         2.38003649946998    3.42243745298087    0.94156635073069
C         1.52137659607163    2.12948070352032   -2.14650127764802
C         1.70580706100113    3.19417959835710   -1.23665205628562
C         0.15970505142089    1.89626032709550   -2.58963510247233
C         0.89088912705448   -0.37093205716943   -3.19221044106316
C        -0.01973678174674    0.73011698298262   -3.34551409758364
C         0.39453265430079   -2.51035163300232   -2.02540745505191
C         0.09694207086401   -1.57449589460751   -3.04738167330575
C        -0.40576241891354   -3.43253379393605    0.05745690308985
C        -0.73526061431818   -2.98896810242096   -1.22715766033668
C        -0.41609762342749   -2.70032443596519    2.23574476923915
C        -1.26099455133760   -3.14030618541737    1.17894780790127
C         0.27345104582633   -0.50521567066873    3.13207246165689
C        -0.73534737944096   -1.54915964364775    2.98478456236312
C         0.75353289202869    1.86959040461598    2.65697482319165
C        -0.17556834107799    0.86169704627510    3.08293536823972
C         0.99834507041699    3.62934199161244    0.92408155201925
C         0.56971927120430    3.61919006885014   -0.44251177087099
C         0.21960143183819    2.99260779542560    1.91589800387578
C        -1.00490028245341    2.45289491773581   -1.92752909787316
C        -0.73748412878125    3.26854178590601   -0.77262097412424
C        -2.29895365023637    1.81981560290406   -1.99959948341282
C        -1.30328456552043    0.19044847836652   -3.50749896203757
C        -1.22365921141554   -1.24797088760205   -3.32026698606952
C        -2.41826687051202    0.67954429803325   -2.83285084022487
C        -2.09584013002579   -2.50808663978114   -1.41268339876110
C        -2.31057971193442   -1.65467950366084   -2.51277511060057
C        -3.16145018104712   -0.49561263761053   -2.39575986127842
C        -2.56890511408127   -2.69105228022580    1.04353681159263
C        -3.03512378598277   -2.40138317643116   -0.29841700932750
C        -2.09765535369308   -1.26761887924550    3.01288706684265
C        -3.03756096269276   -1.95846064554760    2.17574844298971
C        -1.60769340948117    1.14645295742620    3.06314505978283
C        -2.55981119699913    0.08825332545649    3.19404264231021
C        -1.14399563983190    3.04943651635903    1.63534501591718
C        -1.63523530904743    3.25271757864788    0.31649489445108
C        -2.08560880747252    2.26181550918326    2.35210949908464
C        -3.27403525063606    1.92922410472204   -0.91633656866179
C        -2.92544570130900    2.65717790374902    0.23582303512961
C        -3.28879167493562    2.23001836084780    1.56443460664471
C        -4.03131320423023   -0.40803630040076   -1.36054480597530
C        -4.09579161595972   -1.47137092711839   -0.39389618715640
C        -4.22679593498651    0.87610303838450   -0.69881427458216
C        -4.15705909628160   -1.10556547119242    2.03713546048945
C        -3.85316229889536    0.17909922988949    2.67014953614470
C        -4.20597983942436    1.20943524762981    1.74670351969926
C        -4.65580123498846   -0.86536935279292    0.77269662732022
C        -4.72453554221924    0.58633791535212    0.57197951025387
