74
C74 Isomer 13290 Symmetry C2
C         4.48346921249926   -0.11805919024016   -0.52044839305960
C         4.13678517329166   -1.17512338447491    0.34400981971748
C         3.80739645635721   -0.57909049880917    1.61050857562034
C         4.36331567502285    1.13540997776910    0.18724702545162
C         3.90511399666706    0.86820150832500    1.48093775568856
C         3.68422649443622    2.04761868331971   -0.66295027421079
C         3.87794554274515    0.03141934250919   -1.78929868896891
C         3.32102601724165    1.37231178072489   -1.88913053587138
C         3.19494037514925   -1.05420287296738   -2.30740210216157
C         3.39869852450839   -2.28731019189847   -0.16912557025777
C         3.00855396726973   -2.24700824292370   -1.53639947846280
C         2.52860579397681   -2.94168545546729    0.72548567631402
C         2.82827363069977   -1.15549036714147    2.43763938534829
C         2.26758656616845   -2.40417699150116    2.02599711431042
C         1.99519472820869   -0.28897921908980    3.19110045060045
C         2.92782075572101    1.72322352708783    2.07369268008907
C         2.01321965391864    1.13714394946973    2.97361234313319
C         2.78438749905981    2.92443095301502   -0.08808313505434
C         2.43851729895948    2.81045714079452    1.30848221446118
C         1.62625261576431    3.31103785279036   -0.82235394062919
C         2.08467443614555    1.59632381960958   -2.50830685523258
C         1.22598228179241    2.66106208613657   -2.00684595016968
C         2.02453879691084   -0.82440536654752   -3.09714098021932
C         1.47251305871778    0.47273906859753   -3.21423323156890
C         1.76981528336763   -2.81687475600369   -1.96341488702271
C         1.19642483922953   -1.97840392062337   -2.96946485140833
C         1.34176675345537   -3.60837747235991    0.28117486598691
C         0.92887329329228   -3.54075124692611   -1.06945225984186
C         0.94842617796845   -2.78081401645640    2.40111090312118
C         0.37870621291835   -3.55186879850395    1.33298382444758
C         0.67310021713508   -0.66134505750875    3.54040145235647
C         0.13647972751583   -1.91881740456154    3.16711721915614
C         0.68651989640069    1.61522074111910    3.12046869102625
C        -0.14234272495532    0.51317479346420    3.51006701874336
C         1.09462284873956    3.27268938694972    1.45216140595599
C         0.65904054982813    3.70364209058587    0.16064332741870
C         0.16335413883656    2.66545816928757    2.33372440081264
C        -0.67412584132315    3.70984730093822   -0.14199998741609
C        -0.18742183392362    2.67397042654366   -2.31824146893846
C        -1.11337795422413    3.28650341962552   -1.43482113563560
C         0.09972693673289    0.52275428173686   -3.50105211836713
C        -0.71964762579486    1.63069517888403   -3.10814982419565
C        -0.20012453040211   -1.90766599735113   -3.16557715621202
C        -0.72589170085997   -0.64451618112427   -3.53506399587263
C        -0.45652491163076   -3.54413179231171   -1.33642903516751
C        -1.01952022807418   -2.76488546536497   -2.40216426406108
C        -1.00661996097017   -3.53567293902017    1.06601928090075
C        -1.42005215497887   -3.59557376400386   -0.28480335717033
C        -1.26062392633966   -1.97689741147831    2.97085490155915
C        -1.84131935259512   -2.80730912890358    1.96217155995328
C        -1.51555568331790    0.47588724567143    3.22295915640082
C        -2.07866830914302   -0.81613660428360    3.10200356061472
C        -1.25008519658841    2.66564334197764    2.02229568181933
C        -1.64470163660263    3.32272096910992    0.83981941016683
C        -2.11793178960819    1.60679929110429    2.52050293800370
C        -2.46123687088197    2.83550707991136   -1.29257794896239
C        -2.80604935388256    2.94831218043915    0.10428059592753
C        -2.05048482190284    1.16371112777487   -2.96285549382086
C        -2.04481596337061   -0.26180642320247   -3.18480341588858
C        -2.95999903560579    1.75489816361870   -2.06109397058035
C        -2.33540085535661   -2.37808229669984   -2.02600551858758
C        -2.60108351774459   -2.91740985611326   -0.72717988390353
C        -2.88535255089960   -1.12338765427337   -2.43387086910308
C        -3.07498925387778   -2.22532611060157    1.53685677569953
C        -3.25102818048301   -1.03334949786174    2.31142640653878
C        -3.46547793762810   -2.25815760486251    0.16947193009236
C        -3.35614697118237    1.39542690497693    1.90065466845374
C        -3.71353653848999    2.07756258324587    0.67646234167495
C        -3.92473344377719    0.05968670418071    1.79668751943123
C        -3.94480454835711    0.90665996258688   -1.47105797900583
C        -3.85942766847371   -0.54105526146240   -1.60498696678796
C        -4.19391411259197   -1.13811427461358   -0.34028269226983
C        -4.40042700747989    1.17378918244305   -0.17639988803056
C        -4.53145143333459   -0.08067749878751    0.52743522712025
