76
C76 Isomer 13501 Symmetry C1
C         4.75663596373931   -0.16157581414765    0.86276728465341
C         4.77443617461906    0.52244150870008   -0.33804577824271
C         4.36671034061520    1.89238443074164   -0.08162595892692
C         4.15193468972791    0.74721861157678    1.86287639430809
C         3.85355214350066    1.98264251801014    1.24843681992404
C         3.17495692233741    0.04585215683019    2.55372035238563
C         4.14517496629712   -1.41880440231045    0.96140831303408
C         3.33997385412003   -1.34526577320653    2.16873946523959
C         3.57159117924887   -2.04997000018045   -0.16940269752959
C         4.00386028173252    0.02480807176179   -1.43383161886470
C         3.43218601559848   -1.25433793280956   -1.37431948515806
C         3.55206561302501    2.27017276004222   -1.15719021970535
C         3.24333302629940    1.12127474130278   -1.97741822082507
C         2.55119885466665    3.17698668786538   -0.88812032866574
C         2.58116038021695    2.57979825531555    1.50283042222099
C         2.12902862223588    3.41322452639380    0.46253396652789
C         1.86115320514191    0.57867776349821    2.78695763780497
C         1.56390698133683    1.89085846771567    2.29148222366170
C         0.79594485015718   -0.35463031449620    3.02746807980841
C         2.31700588685565   -2.20375384859627    2.35376993493659
C         1.08196677809735   -1.74703336691805    2.92015310446411
C         2.61333951609289   -3.10693868726319    0.09182453407030
C         2.05361854728302   -3.24518891037389    1.39237585743646
C         1.82665614132524   -3.56870880749186   -0.96600925729150
C         2.28038796325000   -1.46307717508147   -2.22155413220232
C         1.71121054782610   -2.74867241673506   -2.15356098984479
C         1.94333479858455    0.95726316651526   -2.49108225590353
C         1.46870204216203   -0.37810378747240   -2.69724833801944
C         1.38422815744740    3.19452852552222   -1.70524512834215
C         0.99222803482137    2.04919767320943   -2.42157019849744
C         0.78655841346513    3.86463979488151    0.41769324611697
C         0.41773596202710    3.94351238376000   -0.96594740407202
C         0.18116495118180    2.29929403498153    2.21068161676620
C        -0.15990155487627    3.43718592484917    1.37409237549619
C        -0.57408609135785    0.04409046188496    2.94838484688314
C        -0.88017620589218    1.40961686492710    2.61623342941614
C        -1.59319345327565   -0.99942504916787    2.85974178404984
C         0.12549121032380   -2.69455365491683    2.52836596282543
C         0.71260766411782   -3.62568000893723    1.58239170592151
C        -1.23607627691623   -2.36949337289980    2.51749309042606
C         0.55431575664511   -4.21224206889342   -0.75427498119893
C        -0.06233582453782   -4.17201699915679    0.53028976132737
C         0.45373732003319   -2.97566895090868   -2.70356769323935
C        -0.24655886128339   -3.93927427147544   -1.88913893855825
C         0.05241616224094   -0.58234421981922   -2.94528460686421
C        -0.42034189932461   -1.90389601907199   -2.98922459011487
C        -0.43800575475073    1.80326003148142   -2.57471242485354
C        -0.92907803992181    0.44813818504347   -2.72766941852145
C        -0.89586270089444    3.87998780297793   -1.33689345605304
C        -1.34018578965577    2.79329088932431   -2.17756388761705
C        -1.50659747057015    3.68598846434101    1.01309345365627
C        -1.84084519358474    4.05003126710563   -0.30695962720898
C        -2.26812484306350    1.76026666377448    2.33252822717740
C        -2.57688935499892    2.87045528675996    1.52825497503637
C        -2.91322084807444   -0.63681993367998    2.61535023183944
C        -3.26613435774733    0.74079723124700    2.36797043985998
C        -3.75787846105685   -1.47037347198567    1.79511428576575
C        -2.03878533741418   -3.15782840058383    1.67130357590227
C        -1.45425535378914   -3.94765173445231    0.60557031112642
C        -3.25972033426676   -2.61518818874604    1.19784540127439
C        -1.58268185827182   -3.52308676682042   -1.78658929139472
C        -1.72016577209177   -2.25712137374860   -2.49503986111826
C        -2.22599282293084   -3.66608526505775   -0.56117209640803
C        -3.28266333109981   -2.75783459233861   -0.23053638505991
C        -2.27044675340217    0.10661086476425   -2.33861276625059
C        -2.61869125520007   -1.27848520691180   -2.08848088092242
C        -3.56474655695779   -1.63392313757155   -1.03705611457931
C        -2.68058743668249    2.46446773414024   -1.75123395409395
C        -3.02351617302990    3.31392200551650   -0.67877412498007
C        -3.58203127552433    2.77092527218372    0.49320138155238
C        -3.14512784043480    1.11969751253545   -1.78559161747587
C        -4.33471779550129    0.74322042795863    1.45444758755759
C        -4.51410733892017   -0.61137523073016    0.97517282722420
C        -4.29296109800655   -0.59531192550559   -0.41231234866443
C        -4.30926343957683    1.60062126160423    0.33765210226719
C        -4.13155516351344    0.77939084941899   -0.83435593267617
