80
C80 Isomer 22492 Symmetry C2
C         5.02007744623868   -0.37998716701612   -0.80597509773519
C         4.61034665065260    0.31420550510696   -1.92586436983725
C         4.37648943208853    1.71467470023341   -1.53513619167407
C         5.07888558172385    0.56146107880576    0.31705807633689
C         4.63178928465390    1.84011138649293   -0.14064362807723
C         4.47704749422515   -0.05990286928273    1.40843092796941
C         4.32310115008685   -1.54535994083266   -0.39673248453301
C         4.09387648528964   -1.40816591783751    1.01027417460707
C         3.31890137066276   -2.11723166770889   -1.21827924640603
C         3.51503725261576   -0.14554537817296   -2.68438433444005
C         2.92050642872985   -1.40355347619253   -2.40906827573772
C         3.15339529388067    2.09064424447885   -2.08515385347314
C         2.66344433532142    0.99282860205337   -2.89727009833334
C         2.20048306086926    2.84107535959706   -1.33682466693338
C         3.68331558092834    2.52957712779819    0.62925128079003
C         2.53627054433569    3.10966316634447    0.00433088303161
C         3.61617447994559    0.68537978599657    2.27960269251607
C         3.25290446486138    1.99259829381289    1.89201215340470
C         2.66839445329926   -0.05696283135345    3.01304976619161
C         3.05982928144868   -2.09346095760676    1.65392581654814
C         2.49270386455739   -1.46134683449114    2.78817546379438
C         2.37038690381882   -2.98803386924788   -0.56687836914323
C         2.25881748537899   -3.02255544334248    0.87757582729407
C         1.26331022638957   -3.39346129551886   -1.32481166090338
C         1.61163889602903   -1.59250930803737   -2.95988827549251
C         0.90043805866599   -2.72572414919261   -2.53480559983814
C         1.31963647818878    0.86655309796144   -3.19022851134226
C         0.85032375648771   -0.47184261542111   -3.46601834285100
C         0.81906533867229    2.78042262908182   -1.71420463444339
C         0.39855636873317    1.89588250122908   -2.75448721193106
C        -0.17273835833460    3.22946705468062   -0.76754194494008
C         1.48025030895722    3.14709402943245    0.98487667878507
C         1.91078927421396    2.44807881454345    2.13371429231802
C         0.13770085494088    3.23403254088222    0.63605976596835
C         1.40362650103151    0.48011788684264    3.39886679254982
C         0.96350534819490    1.71562243819170    2.87623397258213
C         1.17848328471687   -1.79640176353306    3.21749262583391
C         0.48463611741362   -0.60027207086657    3.57420749148297
C         1.04661198494074   -3.45398754060332    1.43902026641876
C         0.48627879473921   -2.81048582968778    2.59153517030552
C         0.04187714471078   -3.85463581753916   -0.72590560468720
C        -0.07254884377500   -3.85023098075095    0.64171576381032
C        -0.51750996577513   -2.82798383792397   -2.68245476761928
C        -1.07742557795199   -3.46451588219982   -1.52580796225327
C        -0.51733165839731   -0.62439983465468   -3.67990809205795
C        -1.21028310717732   -1.81859096620293   -3.31505766035149
C        -0.99765288443056    1.69581570043990   -2.99760514097145
C        -1.43692404061012    0.45642700802738   -3.51183164578667
C        -1.51524242466120    3.13932365256079   -1.11574723409917
C        -1.94547866065115    2.43257505931147   -2.25993413080920
C        -2.57121455455453    3.10748936144110   -0.13484167482525
C        -0.85375491087774    2.79060908118815    1.58573546466487
C        -0.43279197161873    1.91323523342872    2.63178658430714
C        -2.23518881253368    2.84783198623835    1.20795047449097
C        -0.88302315020698   -0.44995973253736    3.35919554275234
C        -1.35314804899920    0.88620585551700    3.07442487757233
C        -0.93181060989889   -2.71008077527673    2.44324997480327
C        -1.29435267108357   -3.38601101079263    1.23755083902415
C        -1.64371054783143   -1.57441202029669    2.86053858162017
C        -2.28997729061176   -3.03022637294853   -0.96722574596912
C        -2.40163223142493   -2.98628270685357    0.47698844261348
C        -2.52476655305560   -1.48152917236622   -2.88800158519545
C        -2.70139852791718   -0.07903214702659   -3.12221252837356
C        -3.09160102121272   -2.10681375774751   -1.74974537748345
C        -3.28737295256998    1.97765714432573   -2.01496493084462
C        -3.71792907879127    2.52240316145277   -0.75574753888701
C        -3.64970598925061    0.66758585280585   -2.39365844054854
C        -4.66588649678667    1.83748547347662    0.01880130025947
C        -3.18753524719712    2.10172274254307    1.96123041670474
C        -2.69703597467922    1.00985376678048    2.78079544642192
C        -4.41060421408492    1.72152771025090    1.41407466223040
C        -2.95275457583873   -1.38991812214941    2.30847902863570
C        -3.35073077364402   -2.11169587086676    1.12251473366159
C        -3.54814952575948   -0.13051417960773    2.57562101378576
C        -4.64371364753308    0.32350194414859    1.81418002304005
C        -4.12609127678177   -1.41782943608297   -1.11066438890689
C        -4.51011161077334   -0.07257551282226   -1.51772119101482
C        -5.11230863362032    0.55563869625500   -0.43037731458203
C        -4.35535742148137   -1.54596804855161    0.29722737330320
C        -5.05311322025603   -0.37838256261389    0.69885509090149
