80
C80 Isomer 24574 Symmetry C1
C         4.59064276798702   -1.53827574723949    0.08170535718926
C         4.21166773526116   -2.02026208610455   -1.15578596765570
C         4.12968293688241   -0.88315091060926   -2.07290028397397
C         4.80554822097844   -0.10594362351550   -0.04276341594206
C         4.40175080370235    0.30902940311974   -1.35133365761264
C         4.23786011594891    0.49701057468546    1.07915417802876
C         3.76293115311156   -1.77287736346001    1.21959642208259
C         3.63338405702037   -0.51848044643609    1.90616739872373
C         2.64989689990556   -2.61978496765465    1.13957206972823
C         3.03676670509412   -2.79112986286202   -1.28699286060163
C         2.30607343268089   -3.19216308856271   -0.14793881201913
C         2.95206997950251   -1.02090687997113   -2.79791187559520
C         2.30736513085871   -2.26680444191138   -2.40582049270421
C         2.17563189257247    0.11239789157006   -3.11722897547672
C         3.56083393273189    1.43690901155060   -1.51959815168002
C         2.52644178799233    1.37589248429815   -2.52408091183729
C         3.65963519541002    1.78676170681677    0.95425328836609
C         3.37579619610986    2.30163876694058   -0.36876134409153
C         2.83762317933512    2.15632518536410    2.02726673872773
C         2.50365287449547   -0.21548814631121    2.68346359679179
C         2.23633096889515    1.15578831061059    2.86217416148041
C         1.58614989379955   -2.40415164758082    2.10859497556378
C         1.44199908771275   -1.16602947021194    2.83990750416158
C         0.48263157271050   -3.23222768013642    1.98928573068641
C         0.96651350409867   -3.62932490051914   -0.39879178668411
C         0.21112426324754   -3.93505354504703    0.75538802866311
C         0.94235244884602   -2.44649785040715   -2.54877549839327
C         0.26568317239664   -3.30091498547787   -1.60281709143223
C         0.84368230341415   -0.16355689670549   -3.57718319669853
C         0.23383546124520   -1.45816495766700   -3.33244137577003
C        -0.00144356551282    0.93264471546320   -3.78682741574105
C         1.52849860846721    2.41126675001302   -2.54762859414969
C         0.31565177346160    2.20350360203363   -3.22314595267929
C         2.41390715719953    3.31950154900458   -0.45093314815237
C         1.50829613124648    3.39722062316265   -1.54182951805955
C         1.91256781577209    3.23501880688200    1.92544325274244
C         1.73377311125363    3.84752672257835    0.70398789534524
C         0.94701214063430    1.59665893543718    3.26150077988428
C         0.77047527412300    2.92982698720583    2.75414000652576
C         0.14035394929432   -0.71937053939837    3.26170189207187
C        -0.12088414785029    0.69650928795070    3.40968123879051
C        -0.77281238974761   -2.91000987534879    2.60069402161286
C        -0.98493492432135   -1.61162556139134    3.13462695842776
C        -1.16788718091291   -4.12990789050248    0.68424309516174
C        -1.78194122987011   -3.56018848549521    1.85856316188352
C        -1.17399618875249   -3.31306977631786   -1.60261263658581
C        -1.89590239313499   -3.71530299949899   -0.45162004849516
C        -1.15635925491047   -1.55229767304061   -3.35491111343786
C        -1.85888922789814   -2.42645437348086   -2.45298014992768
C        -1.42517448685776    0.81073795532378   -3.81248848300827
C        -1.99427077856710   -0.42421604135335   -3.60053890892110
C        -0.91098411530985    2.83490652399898   -2.81626942758425
C        -1.98616812188338    1.98303876957788   -3.19359094612873
C         0.27394468573137    3.98569159652457   -1.09257467527414
C         0.41431924556174    4.26040374160304    0.29691796816162
C        -0.97404185667043    3.62190543757003   -1.64482337942553
C        -0.47549082494290    3.37874735418327    2.39371206271161
C        -0.66896661375707    4.07327386329051    1.14629092502795
C        -1.45044582080774    1.22969067366266    3.17099261851054
C        -1.60516884924138    2.52757252527491    2.62024888780633
C        -2.28593245383440   -1.07975313462603    2.95867804416935
C        -2.49137557839812    0.32914485442755    2.90044980482814
C        -2.94283111563368   -2.88280935314318    1.44249807842277
C        -3.05598934880155   -2.98749883214019    0.00434396706608
C        -3.23288367718898   -1.67417361733847    2.06079950687621
C        -3.07808459534553   -1.79872112024469   -2.06493485530211
C        -3.16864985534781   -0.55627530918946   -2.77036056168846
C        -3.59531948538532   -1.93503129315826   -0.74957928007976
C        -3.10047713471727    1.85345468760437   -2.37211790744712
C        -3.70062833329860    0.56066312772541   -2.16263634424728
C        -2.12246709040832    3.47231309278376   -0.76733571946518
C        -1.92936992273297    3.66520596637536    0.62035212099933
C        -2.54166919821713    2.78465818852778    1.57970406063418
C        -3.15005050868724    2.56938350752165   -1.14101453383732
C        -3.49540988220706    0.60524205676123    1.92306577103521
C        -3.87690928175164   -0.63446822162100    1.32367586814506
C        -4.08760681714497   -0.73795205561120   -0.07276662596528
C        -4.12951065123930    0.48075936910012   -0.78882169286720
C        -3.46781226056150    1.80116409099806    1.18367061895964
C        -3.81461840484238    1.73092695376915   -0.18304443935503
