80
C80 Isomer 19073 Symmetry C1
C         5.14448821520063   -0.70305838130790    0.54808085679107
C         5.10705235327851   -0.55398401275154   -0.84059721645945
C         4.39468459724202   -1.68127960780684   -1.38679226468543
C         4.48668138666032   -1.94485738158817    0.89439078479589
C         4.03314611660073   -2.56016704685890   -0.30315939738618
C         3.53328852904679   -1.65239982722465    1.88372350802842
C         4.62456450929218    0.31992955296767    1.40192771054604
C         3.58370915561182   -0.24686588321588    2.21975703429984
C         4.40381656797096    1.57111753085221    0.85417583520661
C         4.56978610269954    0.63949424013372   -1.42057349484736
C         4.38902918544052    1.73702024300138   -0.59846832273707
C         3.38489192597444   -1.16891565167908   -2.22194746187691
C         3.47192454869590    0.26738725108213   -2.27674621149146
C         2.13844042481656   -1.80684550553545   -2.31879007448907
C         2.79329329701793   -3.17737038154658   -0.32613327489064
C         1.99902318676302   -3.01290146331481   -1.52983397143878
C         2.31371475811398   -2.33810888460109    1.92017018921572
C         2.03769287747410   -3.29990301723291    0.89696011727272
C         1.21301650304598   -1.68891033337313    2.58096951591591
C         2.40923296415576    0.46046018677357    2.54585601488289
C         1.17830929516435   -0.25932436859141    2.77687955272115
C         3.36725536165125    2.37402579456284    1.39507036999304
C         2.34070993266472    1.85888882121102    2.22194083988286
C         3.35077108473883    2.64863815368854   -0.91609849039055
C         2.98529330211918    3.26131953870409    0.33187016589787
C         2.30333517400792    1.03512696362081   -2.40790037109499
C         2.30538872504347    2.34968527651647   -1.82021977829337
C         0.97872625396061   -1.06103133101781   -2.69082665265708
C         1.03568685377088    0.38788166498827   -2.68626855781993
C        -0.28496129981770   -1.74615168564905   -2.69648381758430
C         0.79717488634653   -3.65751818723483   -1.57685101892134
C        -0.28815662079158   -3.11769781357801   -2.33555711791045
C         0.76186462180307   -3.92993900130762    0.84990247543161
C         0.26120711396484   -4.35065815736541   -0.41611686366206
C         0.02106210527770   -2.39929281724205    2.60611788485343
C        -0.18784592430015   -3.59910943430387    1.83481140754952
C        -1.21944571216729   -1.74943210841957    2.81077036732747
C        -0.08545575042287    0.42152397382572    2.80920278547958
C        -1.31207032585155   -0.34355059087150    2.80802192261335
C         1.07184506856639    2.54970699777270    2.28191770346361
C        -0.15825718971987    1.84880469872920    2.55472576699092
C         1.85551987886026    3.97369889161093    0.42788263599989
C         1.00166698974682    3.78543996194348    1.58226480800666
C         1.07830258893568    3.09433435890727   -1.73439447135564
C         1.01782758141811    4.12125852077590   -0.74361819738505
C        -0.17542440449990    1.13629488913829   -2.63816580751498
C        -0.15196075417384    2.53592593090272   -2.22074653832108
C        -1.51788757920877   -1.02819115163575   -2.63301646013559
C        -1.44503325362068    0.42013731257008   -2.69529477104893
C        -2.69544268966591   -1.67440641206593   -2.10407334827508
C        -1.44811061683509   -3.73021218123521   -1.83507581034214
C        -1.10702503548319   -4.47989437261767   -0.62346434275220
C        -2.61023052610247   -3.00747722053897   -1.62228251286432
C        -1.59250879076657   -3.73192267588660    1.61576322707581
C        -2.22675731083874   -2.61565850530636    2.26695183987904
C        -2.06571291258660   -4.15328540135691    0.36347268781596
C        -3.09569566510852   -3.37189126931142   -0.29182311867561
C        -3.35644432042967   -2.04158609391450    1.73804430546952
C        -3.78926475326916   -2.42665710038027    0.41369341447393
C        -2.57025963457357    0.23230273609642    2.38391345796802
C        -3.56193971448855   -0.63597528069925    1.87889067502286
C        -1.43229777410317    2.43869503239671    2.19353653079092
C        -2.62413639205878    1.62741288503093    2.01916115932717
C        -0.22498392894172    4.31410906309211    1.20565046399807
C        -0.20364728875775    4.55909892142592   -0.24402674665952
C        -1.43210628026029    3.68943436682110    1.51667896657785
C        -1.38897014694564    3.18441590720758   -1.85644434291302
C        -1.41087387310709    4.13604718303412   -0.78656041579018
C        -2.27183978909123    3.88693133846142    0.35273937962950
C        -2.63060940046435    1.11998466358237   -2.46931618187103
C        -2.60374308205260    2.49041456520628   -2.03148752380530
C        -3.74681140017017   -0.88442631373887   -1.52781431795224
C        -4.25762542923558   -1.24665949014909   -0.25166688481875
C        -4.35663148107409   -0.23674383107001    0.74969627948127
C        -3.77762564155618    0.47729960574803   -1.86725528298865
C        -3.64185110737334    2.05524826660081    1.13487530813826
C        -3.38080074975765    3.12017420937732    0.19421443968361
C        -3.66813361156828    2.66043501778400   -1.12151417500606
C        -4.41315294471471    1.09400131310415    0.39616847351647
C        -4.35669291718745    1.40915434427659   -0.98743525290258
