76
C76 Isomer 12034 Symmetry C1
C         4.87082844525465   -0.67557875925083    0.60518178099934
C         4.35015299666023   -0.76248754064213    1.88826731485441
C         3.45911762539270   -1.92147455642470    1.93818541332749
C         4.31285120818258   -1.77670440302654   -0.16309633438235
C         3.39500798541611   -2.51584328578329    0.66068618805181
C         3.89000532615527   -1.27210781356240   -1.39187131418637
C         4.70825195407725    0.51786949543352   -0.16438000859954
C         4.13797520661641    0.15773133803174   -1.43871420238903
C         4.20978898784344    1.65056518511702    0.46571307412256
C         3.66665966441347    0.33632741533369    2.47675526032903
C         3.69516700270382    1.56117146302254    1.81649169734434
C         2.27713041278557   -1.52389413859184    2.57661790620013
C         2.38926831474713   -0.13501758789124    2.95574017433006
C         1.04429188584023   -2.06398716618913    2.17399073816570
C         2.15167555717340   -2.94283590687886    0.14363281861059
C         0.99793601004459   -2.89857684516554    1.01010328196362
C         2.76235447016372   -1.85631640268458   -2.02260808880717
C         1.95352810126845   -2.80286416534046   -1.28085097879057
C         2.14860208995261   -1.05737373984838   -2.99571832032797
C         3.24212902663831    1.00195732503867   -2.11730544951384
C         2.33722044576821    0.36378692262428   -3.00445301631397
C         3.35886628552930    2.55329136002930   -0.26243055022026
C         2.84026774283117    2.26998372308457   -1.54067596987240
C         2.55926059378037    2.42277477008717    1.92072168677694
C         2.51888050478010    3.18538427329320    0.70717106994152
C         1.24615947529850    0.66452880339098    2.97095542765126
C         1.34683647009083    2.03611097699371    2.52369406282944
C        -0.13225498092593   -1.37362249029817    2.61731196235309
C        -0.03434291462130    0.00280720920562    2.98339394539990
C        -1.40076005819973   -1.97892384054882    2.33162580201664
C        -0.29621052816244   -3.22259275507367    0.49077913552611
C        -1.49015014716840   -2.92507145481568    1.24578461789764
C         0.66884080963498   -3.06263477005725   -1.76259150928666
C        -0.39751062849229   -3.42157952303786   -0.89546872956666
C         0.81235082604499   -1.30715320997270   -3.42850036029629
C         0.09725368577296   -2.34517460209552   -2.87623358834494
C         1.11014439018992    0.96067635225099   -3.38939064637304
C         0.14948691566467   -0.06997720483661   -3.66370165354778
C         1.58119538623125    2.88371893616920   -1.94151823004999
C         0.71236118231944    2.22081238999285   -2.89321713420009
C         1.36352340162805    3.79684563382251    0.32285166909378
C         0.95011698282558    3.76743098394519   -1.04784628632016
C         0.14285419517425    2.75686988819420    2.18092148968354
C         0.21169705574232    3.73479113272330    1.16961716346248
C        -1.21716739432529    0.81613512818691    2.96475502736071
C        -1.14446063890702    2.18979670777587    2.49190665609260
C        -2.54429766914866   -1.26363699455304    2.74137720880263
C        -2.44577235873794    0.15456013201678    2.96099386320962
C        -3.80712733466147   -1.51666747548120    2.13332603423373
C        -2.73653141871296   -3.03425526688256    0.57204702716255
C        -3.87278060075041   -2.34419897649623    1.02548937589067
C        -1.61833890490879   -3.08005211661413   -1.57207613082327
C        -1.31356594360064   -2.23405793404612   -2.69051671128418
C        -2.76074370244993   -2.89828987622266   -0.86868315378273
C        -1.22481276899833    0.08057406624160   -3.38841807921559
C        -2.00905296952167   -1.02191058472465   -2.87407069095742
C        -0.68051199222257    2.44715928171457   -2.88199049515461
C        -1.63369008684656    1.38702541919974   -3.07347024905632
C        -0.46682196027304    3.99131566987301   -1.04042362312419
C        -0.90718501744745    4.03049804071079    0.33368425459633
C        -1.27629944584971    3.37159533826408   -1.97223867344371
C        -2.27648711050899    2.72385528201641    1.84585173489980
C        -2.14617703231580    3.55407014482358    0.68638810077353
C        -3.61164188087345    0.75458751230303    2.34827789586760
C        -4.40511475666856   -0.24733018371238    1.77170539205730
C        -3.45645116657781    1.93632789310229    1.64528443206241
C        -4.42685481821238   -1.55595483827051   -0.08937213484735
C        -3.65478716443370   -1.81438611948009   -1.22704526879868
C        -3.19756943074292   -0.76876871346986   -2.07754710280997
C        -4.66505023092571   -0.23950792022165    0.36357005925746
C        -2.78612953521209    1.62570046675250   -2.27105366562859
C        -2.57885671252862    2.87837761832810   -1.60674833730327
C        -3.04408859676323    3.03642152120375   -0.31522893964113
C        -3.85709234849954    2.02082972958511    0.26981081297026
C        -3.56054507686694    0.57969072267992   -1.70850342039465
C        -4.23480329457458    0.85285290962895   -0.44570250851389
