78
C78 Isomer 20676 Symmetry C1
C        -4.66162730050484   -0.37805142884731   -0.47896532150946
C        -4.63430805358354   -0.12028141088010    0.87256127885380
C        -4.03700419643608   -1.28460396364491    1.53484770551333
C        -4.10396710490588   -1.70784816491451   -0.70188900155303
C        -3.67524383482931   -2.24365271626480    0.55438310985545
C        -3.19165059341031   -1.58974941948428   -1.75150729725556
C        -4.06823021075391    0.54145721116542   -1.40457632106853
C        -3.21459919720394   -0.22950789628025   -2.24797462409614
C        -3.67361653921988    1.82604439006744   -0.96054722390036
C        -4.00683260717107    1.06030169826139    1.36759442481134
C        -3.65095251399747    2.09955872977414    0.46468662790277
C        -3.07106726060541   -0.80857758915667    2.41611647921797
C        -3.09727622310688    0.64292413199939    2.38664305410036
C        -1.85664413392054   -1.49576713948317    2.60676345593181
C        -2.43948145285334   -2.88962799536858    0.64474300539956
C        -1.61331301877336   -2.66632662684116    1.80942843488967
C        -1.99804195029844   -2.33629883879304   -1.76359309611449
C        -1.75456215911308   -3.16769336338620   -0.60644089697996
C        -0.89833871365928   -1.87887032781529   -2.57811593655217
C        -2.06305801580157    0.30294997112268   -2.84023407959177
C        -0.90120337920947   -0.52856632484854   -3.07379405047937
C        -2.67686688278020    2.43690626567022   -1.76272807245752
C        -1.92285866208694    1.69966709628277   -2.70551210428314
C        -1.80648168152159    3.46783756105640   -1.26444294557666
C        -2.64884386332282    2.96517563660511    0.95013154025064
C        -1.79720558910754    3.73895972891497    0.08112189361286
C        -1.94627002675176    1.37806447592836    2.70560526804815
C        -1.86214621412328    2.63628587912494    2.07973126954288
C        -0.75188249105004   -0.73858229863767    3.15421775131456
C        -0.74520981663995    0.70730531905636    3.15574878397572
C         0.47095673710010   -1.40808629779038    3.22391036467439
C        -0.31635891969948   -3.27938148352569    1.84123689091469
C         0.68810710996777   -2.68943529770385    2.62861741377152
C        -0.53923442936497   -3.82465676740208   -0.52807137743535
C         0.11678127319623   -4.04811216843038    0.72930092449687
C         0.33181555116787   -2.61741233242710   -2.50368457587869
C         0.45083743754541   -3.67731703765949   -1.56108899541020
C         1.53120806110349   -1.98783617214372   -2.88045255403638
C         0.34415471004218    0.12634732274328   -3.37243123219550
C         1.52610442501021   -0.62761661083672   -3.29271768131124
C        -0.63619958224326    2.32398877622570   -2.86036978668601
C        -0.55313202928492    3.42761239159184   -1.98119561848824
C         0.48288245247587    1.56663545202669   -3.22722138654166
C         0.66895383796797    3.81148231054918   -1.38858564477166
C        -0.54394473518207    3.99299829229804    0.73905846765737
C        -0.59444377052385    3.29294999359540    1.97065271550776
C         0.67060892043770    4.13228147590923    0.02619301940794
C         0.49651120800676    1.42929782889774    3.16040756969387
C         0.54784991156674    2.75893479454420    2.58132590429150
C         1.70080263176296   -0.70019265907967    3.23408933659486
C         1.73393685755859    0.69606175810577    3.23283052683265
C         2.07079119726637   -2.74129032645191    2.25255417733408
C         2.67509994256145   -1.49309056218500    2.54903495763456
C         1.49322563198371   -4.18483996793963    0.44386810758618
C         1.68779537074396   -3.98237095970437   -0.97580758352621
C         2.47316671024138   -3.43229550317185    1.11254978517069
C         2.76412568447450   -2.22186673015368   -2.17310912585664
C         2.82581847872510   -3.15830091360975   -1.16040036783227
C         3.32918600048438   -2.76224918625176    0.13050841769661
C         2.76903666929949   -0.04450679561012   -2.87262891932261
C         3.44497313577321   -0.97730530445336   -2.01659846514295
C         1.72344591327651    2.13470831565864   -2.85913223547693
C         1.82119655240178    3.21703103319552   -1.94653812028346
C         2.86971744573280    1.29940224416078   -2.63982355280715
C         3.02809473483020    3.03132453723066   -1.17275499416539
C         3.63480091702564    1.78312119628929   -1.53892894847872
C         1.83622727092999    3.91009525648482    0.77764586289652
C         1.76532679968926    3.28242261581317    2.06769176809490
C         3.06202335418636    3.45479666435146    0.14345941890945
C         2.94273029974363    1.23920153011657    2.72029808651983
C         2.95946496641604    2.55748845020703    2.25037456727386
C         3.76911093282369    2.64219315696714    1.06095214596972
C         3.60888100011569   -0.88989376332275    1.66389281698654
C         3.82944231895888   -1.47466529470778    0.34638703305874
C         3.98609511284795   -0.56564292645778   -0.78719445637216
C         4.14428711231004    0.86215031107062   -0.57536266013424
C         3.79406643613340    0.47541571271037    1.84812991730900
C         4.20545603915506    1.34499104989257    0.75112497406678
