56
C56 Isomer 397 Symmetry C1
C         3.75649600640957   -1.53362261080163    1.14912573368851
C         2.88791850268231   -2.56902499184461    0.64187916384788
C         2.85829649812054   -2.47167114479501   -0.75413953488981
C         4.07084832013660   -0.64978091602045    0.05102505229820
C         3.56082803264678   -1.22840980817483   -1.12064430424073
C         3.61017260011148    0.66879525476604    0.35651917269236
C         2.97377437646405   -0.77554669570436    2.04210688172229
C         2.97135606584196    0.59452343836008    1.65461033445346
C         1.62483391091683   -2.52072510638715    1.32980749799711
C         1.68566533745558   -1.39357106316316    2.22321320132951
C         0.41707984954693   -2.77718482999215    0.64891481309753
C         1.64075250047800   -2.51962657596298   -1.45193893874289
C         0.41833465858432   -2.83676697429090   -0.78692250440121
C         2.73382493443745   -0.50994047018214   -2.01983805696406
C         1.64668709513551   -1.40738488928685   -2.37160023764142
C         2.99934320307234    1.47703644255342   -0.64075023245331
C         2.47654785144659    0.87193721075414   -1.85712324858995
C         2.32654361600439    2.60315446761973   -0.12015665624484
C         1.87335881551626    1.41276202546150    1.98782465029616
C         1.80750579804538    2.60728121955278    1.23087449510289
C         0.54708448542775   -0.61384598533555    2.49301430946301
C         0.65119521217455    0.82480589463158    2.49121532175549
C        -0.78949643891058   -2.37605717328721    1.34689328161447
C        -0.71805606462841   -1.28609783344850    2.28813473551046
C        -2.01330165924993   -2.63004235184823    0.69015643484716
C        -0.80706236355098   -2.49931924983519   -1.47111973928841
C        -2.02635800189581   -2.61415645278178   -0.75069773290452
C         0.45742706218389   -0.90339658018115   -2.83235272756264
C        -0.77979008085099   -1.55980081416664   -2.51842714294610
C         1.22662237989622    1.40186832104954   -2.40315994523104
C         0.24690727046996    0.50564557225348   -2.88602794009388
C         1.40434860618069    3.34135524573188   -0.91877336037742
C         0.70981927254827    2.63576048165157   -1.95197203441683
C         0.63396641643689    3.40994504636539    1.22948452300833
C         0.46266582227562    3.99874739120020   -0.08145147385888
C        -0.56538034517532    1.57799455249834    2.32650319875211
C        -0.57585495540338    2.83103997988741    1.64956023228730
C        -1.88747626273718   -0.51836720764405    2.49973919128140
C        -1.78861260369449    0.89644064669943    2.32099630257290
C        -3.23342341865138   -2.01050574287284    1.12943966570627
C        -3.14926283821698   -0.92908513697077    1.99786055270834
C        -3.18526957692162   -1.89173886210943   -1.16877612072586
C        -3.99660190607759   -1.59773858319676   -0.03635090869908
C        -1.80321080459800   -0.55370773213753   -2.60680187886418
C        -1.16661568254337    0.71811509010212   -2.69959662516532
C        -3.00160035303202   -0.69254285762399   -1.92613387106454
C        -0.70673842782203    2.82715908410077   -1.71306401870300
C        -0.82159600770373    3.62498322622088   -0.52289648412058
C        -1.54176934322814    3.03678689613314    0.56849773883089
C        -1.65351289559057    1.81593544123595   -1.95466738497706
C        -2.88629929739288    1.29394811287360    1.45209795495987
C        -3.76305145959086    0.22778304551784    1.32029372553746
C        -4.16175441668823   -0.18863099972657    0.02362612346829
C        -3.51302804821415    0.41273191087393   -1.13177942950949
C        -2.57021942145234    2.13483467789047    0.32755483042458
C        -2.75886182682573    1.58991896378722   -1.01180658657719
