80
C80 Isomer 26397 Symmetry C1
C         3.54654651280939   -3.23628170365766    0.48222770885794
C         2.40079018312456   -3.97301616934124    0.64574830638037
C         1.76929547836328   -4.10656453629610   -0.67311824198777
C         3.61874089458127   -2.82511160584117   -0.94011847605977
C         2.40912580886292   -3.20666687753769   -1.57443496532911
C         4.07488493781163   -1.52610164349599   -0.98630790427735
C         3.79058550790820   -2.10570299564361    1.28494256271489
C         4.43274441781023   -1.17516267572619    0.38528625624841
C         2.80184617182060   -1.61342169843721    2.18649032551270
C         1.41048258668150   -3.55753465070654    1.57379878143968
C         1.57009507717749   -2.35227059982706    2.30944258232945
C         0.40865565000102   -4.03842663816129   -0.47749785090071
C         0.14999363865926   -3.83396925752652    0.93282293547821
C        -0.40259151468038   -3.32943393231478   -1.38405673811006
C         1.63670446047253   -2.21346113345759   -2.24589323620816
C         0.21041985561942   -2.38710812575538   -2.26506489424830
C         3.43525030231788   -0.53522275605827   -1.79430815289639
C         2.18167837749788   -0.87955731380900   -2.40488254704809
C         3.78828613944402    0.83488280379256   -1.48817295857258
C         4.55133206264723    0.11151567829898    0.74678409514729
C         4.47839683490214    1.14149956442809   -0.26790855443707
C         2.80094328134569   -0.19473093207683    2.47588194092633
C         3.87471702386161    0.57052583753376    1.94441822723052
C         1.59129367097046    0.50434675128454    2.81706980503284
C         0.37157583741991   -1.66083531607262    2.70777504999461
C         0.38217620735749   -0.25920974020040    2.99201289010919
C        -1.01698712751431   -3.25273321299541    1.35103370220139
C        -0.89891940118752   -2.29848802413634    2.42751613715510
C        -1.76129262379257   -3.20370516452077   -0.96448221660937
C        -2.12382476153935   -3.19087220705313    0.41820810343091
C        -2.59517211690407   -2.55637599025572   -1.88430420940892
C        -0.64018667727382   -1.33889060720318   -2.78100811921133
C        -2.01253369817697   -1.55187862733841   -2.74325239073438
C         1.27985441980579    0.19563042422836   -2.77955383420777
C        -0.13646873427077    0.00022964501857   -2.94826661014473
C         2.97184894602215    1.85205903016564   -1.99947479172514
C         1.73654559284789    1.51384042540704   -2.64860195605691
C         2.79024524128950    3.11456572205266   -1.33957247070810
C         4.19766903726125    2.31754122057417    0.42718354770833
C         3.75823774292358    1.94694399690075    1.78175547853583
C         3.32676548155008    3.30289945170950   -0.05866514281367
C         1.47031640699337    1.92968396210803    2.60902316238809
C         2.58136594345239    2.63896364239457    2.07806276286075
C         2.42127911617093    3.63129279168377    1.02956183145544
C         0.17024248856723    2.53480334226323    2.41630695498920
C        -0.87032023970761    0.44276120128729    3.14862468671150
C        -1.02619901413874    1.80917606767356    2.72922591254645
C        -2.06892632072567   -1.67495906583846    2.79483207571477
C        -2.04090602406729   -0.32859097585239    3.26316794654527
C        -3.34178585276564   -2.57230929704857    0.83547914528580
C        -3.32427966545164   -1.90898656202678    2.09685210744554
C        -3.86316011643672   -2.12884098856164   -1.49866168146488
C        -4.24634731329409   -2.05970080014249   -0.14320497211948
C        -2.95554390293522   -0.46604230984260   -2.82261051584473
C        -4.12605576543148   -0.85767832052922   -2.14192254326173
C        -1.05706681277310    1.09793512752855   -2.86391194239968
C        -2.47994102503637    0.86119410889036   -2.73919237054762
C         0.82126975253979    2.59149932914140   -2.46982491564120
C         1.46108968113682    3.56326895884203   -1.62021978174735
C        -0.55937059896276    2.39110500572308   -2.48107933167926
C         1.16692641980796    4.07511787126561    0.74231759058309
C         0.06111283634920    3.63715716456602    1.54673732995238
C         0.70771065818887    4.16312209811956   -0.62425873249810
C        -1.35485081713272    3.23106524332257   -1.61387180146398
C        -1.10606897712370    3.78561087415060    0.74812737249213
C        -0.69799379932465    3.97390169031247   -0.61092080672194
C        -2.29456833605277    2.26283925844968    2.21575182894666
C        -2.29967956191127    3.15143166447247    1.08733558109576
C        -3.31109376635101    0.21297035678573    2.98317048235820
C        -4.11748607284106   -0.77793307911437    2.30059798492432
C        -3.44328529978951    1.44376445379360    2.34479515362718
C        -4.92631993065915   -0.78736900682517    0.03185936436615
C        -4.77268691012584   -0.03287971723155   -1.20596061605928
C        -4.81104109010496   -0.12778933627809    1.24373443597822
C        -4.42765518938696    1.27884412286334    1.28524717966865
C        -3.29154690377027    1.75024452511503   -1.98647442155658
C        -2.66050909283308    2.84000370416798   -1.30137599409079
C        -3.18766629565252    2.91946857103264    0.01277980668365
C        -4.37621411749921    1.30135579191379   -1.16991383077218
C        -4.25349521674964    1.96675211547582    0.10636138651131
