78
C78 Isomer 11669 Symmetry C1
C         4.73375081348866    2.01315987458523   -0.78795845319755
C         4.96401729196514    0.69515166201532   -1.04321922271968
C         4.95637470423709   -0.04438756975068    0.23721239512030
C         4.61448681915995    2.14183282137233    0.68343468138624
C         4.50500499130050    0.82916902807483    1.25766082634677
C         3.62557204720679    3.05837922708459    0.90675253972201
C         3.60802722098936    2.66780911802625   -1.40544571532549
C         3.08375039901231    3.50032303998682   -0.39022810950260
C         2.69217819084703    1.93390047540050   -2.22662819722871
C         4.16801250186161   -0.03085611102029   -1.97054575880144
C         3.01267272852957    0.55575403478041   -2.55481834632167
C         4.37439223581423   -1.27447449401575    0.01500568979641
C         4.07663469191988   -1.34894686836184   -1.41093325602312
C         3.43236065404704   -1.80497071455338    0.93706448564244
C         3.34961603449839    0.44956064998404    2.01065552952563
C         2.88275343802835   -0.91421899079124    1.92069262133040
C         2.53166745517098    2.76306659778766    1.76206689817668
C         2.36900290011935    1.47533109308127    2.32363379393811
C         1.72125884401496    3.67625749174223   -0.23035429806272
C         1.39490367938748    3.40210695736910    1.14703646942218
C         1.29772844417785    2.31707773362059   -2.20404832178987
C         0.81211429482495    3.22190294955430   -1.21029035065884
C         0.29113459141416    1.49338310925204   -2.82623228819627
C         1.94107236763279   -0.34078315127172   -2.92750029475383
C         0.60588493102602    0.14008875180121   -3.12903555752053
C         3.10203699865543   -2.19659421979011   -1.82961452017977
C         2.07605007585978   -1.72256885013355   -2.69829833491407
C         2.68525879748530   -2.94631096758234    0.46989251921066
C         2.55491149344682   -3.17239263622003   -0.92303932536945
C         1.62444299419387   -3.40360751974884    1.27867077195918
C         1.59463732049463   -1.25514888535340    2.50189007794098
C         1.08071546584910   -2.53584228683403    2.29542172816473
C         1.02888791563924    1.12441174712155    2.72527357897012
C         0.66336663122354   -0.23095865000227    2.93318622956401
C         0.11712705374440    3.09223395542544    1.50393421471475
C        -0.02802965617236    2.09614245000914    2.53490282168843
C        -0.56897449594636    3.26695093531215   -0.82990621051999
C        -0.93180115032050    3.32057402510426    0.54268484747312
C        -1.08146016153717    1.93408304378056   -2.80703063798414
C        -1.53527473711997    2.87408963672978   -1.80453540178266
C        -2.04852934769142    1.04487713634573   -3.32771464799586
C        -0.47173372750943   -0.81903891138587   -3.17185150982250
C        -1.76144023705515   -0.34829622658602   -3.29989659050797
C         0.96207896045956   -2.60960189256701   -2.49991538889413
C         1.30849084489034   -3.56579538927914   -1.48419841598450
C        -0.33766917485735   -2.16093483881964   -2.66310481430775
C         0.56057349814148   -4.13036861639288    0.71462185417715
C         0.30389150211467   -4.07833026354191   -0.67263593394055
C        -0.34206683366770   -2.79691893457029    2.35640075729438
C        -0.65913132829294   -3.75927727215650    1.38992186545908
C        -0.73113509872164   -0.56152267848029    3.13850243955737
C        -1.27752746948947   -1.80519554267492    2.65900650849446
C        -1.32179495910340    1.79732782620594    2.89284644731018
C        -1.65645563983268    0.47788805581493    3.29380364294037
C        -2.27274557319342    3.06249204946682    0.95707789423561
C        -2.46630721682220    2.39275769371893    2.20574442676697
C        -2.89230272012519    2.91807858405969   -1.41663348099469
C        -3.26372266594048    2.93324571383967   -0.02520886538827
C        -3.42799651438975    1.17138864492327   -3.00057810929641
C        -3.84779872882929    2.10767098052094   -2.08659226345177
C        -2.89293336144168   -1.02809309378753   -2.67578305086085
C        -3.92892857109756   -0.12596782370206   -2.54576662100896
C        -1.39983389284387   -2.72656072233900   -1.84927765307168
C        -1.05749244490328   -3.65055281728560   -0.86280719768986
C        -1.66809803094466   -3.49960618574346    0.43403582950198
C        -2.64075066325338   -2.01791300463990   -1.68423422892812
C        -2.54171413737882   -1.83937731424166    1.95539890739133
C        -2.64348634146826   -2.53020367997274    0.69919360121393
C        -3.30464784244437   -1.90893638812377   -0.42776270445294
C        -3.02236472387904    0.29613889433562    2.95425513692531
C        -3.53566167012755    1.51513669927331    2.35798836968304
C        -3.42192421429520   -0.75947725856559    2.14226334034498
C        -4.37920945855432    2.01262224453755    0.15984273083305
C        -4.68431870390893    1.44341236542497   -1.08231047669066
C        -4.59533431061482    0.04356921413164   -1.28964001507095
C        -4.24212591455396   -0.81845858636003   -0.20202744326103
C        -4.38904282709992    1.17057036939809    1.27793224856380
C        -4.28907727744506   -0.25342752435340    1.08869329168567
