70
C70 Isomer 6129 Symmetry C1
C         4.41325228975257   -1.69974407267713    0.28909330922957
C         4.77603067893807   -0.68184885210838   -0.55503718938031
C         4.79451040375388    0.55375648277208    0.24950489411020
C         4.07844240783723   -1.12104623484567    1.60610447417312
C         4.16221705284208    0.27680189900045    1.52991616923910
C         2.93930620197836   -1.76596903930330    2.08398296172185
C         3.40329711293890   -2.62059507256372   -0.06165156038998
C         2.69084065524062   -2.86324323983068    1.16942848176610
C         2.63075808491766   -2.44294012491921   -1.24079195163743
C         3.99079935532520   -0.43483927114553   -1.73033794172437
C         2.86229936559649   -1.24230726737930   -2.03192822515438
C         4.33798367517136    1.56066089739369   -0.55911751759966
C         3.86579969857338    0.98363571963707   -1.82029766751294
C         3.36284582834681    2.46808010998800   -0.07367035548451
C         3.06091885540400    1.05259639453150    1.97940600927388
C         2.84058654311620    2.28985642316838    1.24488825607592
C         1.84265563204775   -1.03080999785453    2.61739442924835
C         1.90822274333084    0.39948469179111    2.58688777997313
C         0.55990177028752   -1.70295011957993    2.68305761208924
C         1.45645969461800   -3.41274861767618    1.14882635076207
C         0.46128061751203   -2.96892015435492    2.07834032208241
C         1.32961466994674   -3.08445842851698   -1.25208676131672
C         0.81361633550812   -3.72121452449253   -0.09674643595213
C         0.34866257795451   -2.59990792901170   -2.13520570701394
C         1.70618361003326   -0.57388084829177   -2.61149702128362
C         0.53799753804107   -1.32311010963959   -2.75950814411555
C         2.65209970324439    1.60424088728884   -2.10024465150150
C         2.42657951813785    2.65553166582403   -1.13534715319082
C         1.53208776165277    0.87056485860669   -2.56726323971467
C         1.15451571652259    3.17311987094938   -0.91730447763787
C         1.66086433794019    2.97019189367040    1.47461164748327
C         0.95225322842855    3.63975785963327    0.41303136745132
C         0.66062980247695    1.12927629714484    2.77696656455465
C         0.68052999791274    2.49495520923988    2.42310658188851
C        -0.67231844959415   -0.96049663408680    2.88019851063636
C        -0.63720970356987    0.48635827280771    2.87766083236937
C        -1.89140910865830   -1.61721231998612    2.65453827179763
C        -0.76987874405849   -3.46683721120857    1.55687598941311
C        -0.58238519367821   -3.82642308307884    0.16953350827408
C        -1.94123344005635   -2.89701105623971    1.98694036415381
C        -1.04820138792305   -2.79154154228356   -1.93970844118065
C        -1.55697055499479   -3.43263112227121   -0.78220505823052
C        -0.73500183507661   -0.72968212838644   -2.93042861191807
C        -1.72921911354415   -1.66121315889939   -2.49399892920567
C         0.24077812738961    1.48338782650200   -2.47527524276863
C         0.03848090806725    2.69275657900901   -1.69030445300499
C        -0.91369515942934    0.67142174232097   -2.80300425261094
C        -1.28373046192675    3.04455027204289   -1.25023970482767
C        -0.34729147723025    3.85438625708334    0.86115840043899
C        -0.51089372269434    3.17419541940726    2.13907329027323
C        -1.46803924312850    3.60064554103137    0.06174443472372
C        -1.85577278806764    1.19893424875905    2.54950991314899
C        -1.75363632843919    2.54970007031007    2.13691204384224
C        -2.45768135876249    3.02719122582643    0.95657142965100
C        -3.07724620089470   -0.90194712956729    2.23918334222879
C        -3.05076359093188    0.50675706631625    2.09370278018495
C        -3.03721692641270   -2.89238663746176    1.08568569422784
C        -2.82959469173451   -3.00427232311447   -0.30072468155913
C        -3.80249678952461   -1.70469006441475    1.33996729009188
C        -2.99103977552798   -1.22607309894663   -2.02831463893335
C        -3.56933750459814   -1.92469141127712   -0.93826302908175
C        -4.24298881938166   -1.18605373975976    0.09754812060906
C        -2.20617094637942    1.10605878214482   -2.50883540595888
C        -2.39181225110083    2.31097077950279   -1.74813321153091
C        -3.25833403682730    0.17077026943486   -2.16317729360009
C        -3.48752128927510    2.29210057113363    0.44334325276793
C        -3.87141483408461    1.04710610088640    1.07257996693431
C        -4.37856139126590    0.19786580076465    0.01575043572131
C        -3.54872674546462    2.13083636915110   -0.96949558812094
C        -4.08150863654910    0.81919221009927   -1.22688053946870
