74
C74 Isomer 9224 Symmetry C1
C         4.84097726266760   -0.57253773704806    0.79133419786077
C         4.45614696132882   -1.88195529137159    0.62341158550749
C         3.57993470740695   -2.23642375046191    1.74131721072584
C         4.18666579779854   -0.07549091199708    2.00344385696872
C         3.27956233896596   -1.06201708126334    2.48673576445265
C         3.72474240787077    1.20204498662297    1.72843549169711
C         4.64069560920157    0.39378333894505   -0.24818164183119
C         4.08549228324045    1.56197940000220    0.36919971051223
C         4.09119671652027   -0.03305206378693   -1.46552277885997
C         3.81102695140121   -2.31065125958265   -0.58639696089655
C         3.64202268942594   -1.39316597210712   -1.62269026984343
C         2.53462763166119   -2.98862760456047    1.22630903179299
C         2.68111606568058   -3.09968797608849   -0.21136981939581
C         1.24830207744204   -2.86606789310650    1.81088978253905
C         1.91860598996106   -0.71603261184480    2.79721433780187
C         0.89661135158265   -1.70269316020262    2.58529852135077
C         2.48926087893106    1.63142464431629    2.28463532048027
C         1.54381896041870    0.67078576873367    2.80883582325774
C         2.03134243243006    2.83122337529601    1.74308238297510
C         3.28859952657434    2.47020954484030   -0.34284251091393
C         2.44610621630121    3.28017280840435    0.44793317381813
C         3.14660806482054    0.81879842092632   -2.13525966572038
C         2.83037486147112    2.10676933266603   -1.66646642072911
C         2.38301559936534   -1.35330050077291   -2.33459561760000
C         2.12321797239192   -0.00486376498615   -2.70166364735343
C         1.52151551790960   -3.16608238638570   -1.00534328919913
C         1.31022257388302   -2.21634477970001   -2.07461228752995
C         0.26321095031690   -3.51131118927568    1.07110215146801
C         0.39435230075255   -3.66087512191330   -0.33890933085643
C        -1.11395226564309   -3.35698693692506    1.37872547160217
C        -0.49370470544486   -1.35346030360970    2.68939562094070
C        -1.49814979805379   -2.30224088689008    2.23274902779067
C         0.15795860739485    1.04110255707613    2.89256482092217
C        -0.85439217463263    0.02179993914815    2.89557940667219
C         0.71223134624351    3.29117356664519    1.99627449142448
C        -0.21429700390054    2.42741175457912    2.62770211271869
C         1.34584417325423    3.99796845354558   -0.10695919254842
C         0.34623734868138    4.16262411392504    0.91755714659635
C         1.60417185572442    2.65532581277246   -2.11288260359188
C         0.93309714518578    3.69040034571151   -1.39961822783794
C         0.80762195835699    0.45001755323158   -2.89653863083647
C         0.60299502820888    1.83857906197702   -2.72796241816479
C        -0.04389024713098   -1.80536405178680   -2.39354854463424
C        -0.30249133600329   -0.44261216470326   -2.76983716131058
C        -0.91016542966063   -3.55519560275793   -0.89403664800031
C        -1.85037218331027   -3.67867340834004    0.18862886209262
C        -1.13598088830564   -2.61530534316089   -1.92603073903251
C        -3.15094002254337   -3.23239693454476    0.04011881795038
C        -2.86128338094082   -1.91164769244790    2.08416117559434
C        -3.69915625200846   -2.47865380702790    1.11411714410751
C        -2.24046313504536    0.40962083429827    2.67107622464190
C        -3.20463910246341   -0.51835050244866    2.23541937268577
C        -1.56951466741496    2.77171643365238    2.41504514077877
C        -2.56864035428736    1.74343846517797    2.37787199095265
C        -0.98984477715780    4.29974369420261    0.57820943840121
C        -1.92909227699568    3.75182142769332    1.46359292744836
C        -0.48418845246419    3.57853403292027   -1.68690946268784
C        -0.68120030763761    2.38291887638544   -2.45981827421204
C        -1.43104261444128    3.95243567921665   -0.76976324793581
C        -1.61668053802288    0.14240690898652   -2.58626810421897
C        -1.80370002412374    1.55381146830476   -2.30070884485943
C        -2.46751575168749   -2.10597924150478   -2.01456290583726
C        -3.48524948822895   -2.55558721193884   -1.17452101501026
C        -2.68325817494159   -0.69431151288359   -2.27613210468977
C        -4.47394410877709   -1.37697503383610    0.53853468325141
C        -4.18721256583063   -0.18738031897734    1.24759197199255
C        -4.31181260518677   -1.39324685389317   -0.83449250103494
C        -3.80737167747624   -0.24597344960696   -1.51236424153014
C        -3.48945565577654    2.04564459057640    1.31978191552907
C        -3.02682889453700    3.20634437143615    0.68859832853243
C        -2.64955390236573    3.17907946697555   -0.66932648692385
C        -2.86092750592375    1.98815103206358   -1.41972584222739
C        -4.07441131378719    1.03185665674212    0.53998971611228
C        -3.77620657862037    1.01440359574211   -0.87360271409324
