76
C76 Isomer 14251 Symmetry C1
C        -4.08430070696803   -1.28057470654617   -1.95365391786567
C        -4.58523750630395   -1.26348937164411   -0.65952668805348
C        -4.82803557146947    0.12506231743065   -0.30255208552607
C        -3.94618188442020    0.10730465462754   -2.40180620578453
C        -4.35031406813555    0.96870158428529   -1.35106319853318
C        -2.68535960531636    0.23637712283043   -2.99466563515741
C        -2.89329221067436   -1.96770617681712   -2.24497109164554
C        -2.06628418038854   -1.06102576553404   -3.02646478650737
C        -2.27536586846438   -2.77338066211470   -1.27426978332886
C        -3.85043249827409   -1.87849397299303    0.38730595735872
C        -2.74561627830920   -2.69925344100793    0.09009432680504
C        -4.36988915532795    0.29549749026793    1.01318211745710
C        -3.75389989061109   -0.93953941979358    1.47485743684846
C        -3.79030379498875    1.51521138646647    1.33266041087983
C        -3.54912541694922    2.10794025613052   -1.05719084839613
C        -3.47515575967817    2.46288075195427    0.31745546734191
C        -1.88680488930053    1.39289220908394   -2.80293457164467
C        -2.39094832747130    2.38439102085817   -1.88758317986599
C        -0.48656743590343    1.27250409145353   -3.10697391607908
C        -0.69840428587636   -1.20147874674284   -3.10940398719624
C         0.10009421166265   -0.01774604155249   -3.34183509046494
C        -0.91011381549547   -3.14063997964492   -1.55085888555338
C        -0.13849573985844   -2.41484138502107   -2.54230022094597
C        -0.23835989913558   -3.84545031670454   -0.55597957747639
C        -1.80457269707972   -2.90900090623046    1.15665131903891
C        -0.68648495458929   -3.71214375439866    0.82621526546821
C        -2.65513139243430   -0.91417298729794    2.33621263754915
C        -1.71172564527941   -2.00861561517479    2.26557009030942
C        -2.77809004899919    1.56901866687144    2.35630477918034
C        -2.24107038728905    0.37191311890856    2.87694878541818
C        -2.38462973684207    3.23566562100789    0.83878599924513
C        -1.96184888981784    2.70614573841200    2.11398407751403
C        -1.44223008500191    3.30694211387867   -1.38831069086846
C        -1.44499752396625    3.73917003626766   -0.01418155230582
C         0.38969349178703    2.35942077229473   -2.73005368672585
C        -0.10737705281978    3.32475109501280   -1.81973125128070
C         1.77778165011638    2.21151227735183   -2.78450313676031
C         1.52561296789448   -0.17168697835350   -3.34481151172307
C         2.35516226403074    0.96647211169895   -3.18081271568382
C         1.24605657028624   -2.51544110840355   -2.51530329603211
C         2.07472944342206   -1.41076353440874   -2.92315199597584
C         1.19101841877447   -3.92344894407059   -0.53657285089169
C         1.92936417350497   -3.23526865764405   -1.48268286605158
C         0.44360242079675   -3.72818662038760    1.63801046771356
C         1.62529598163780   -3.83282478814411    0.81051198772822
C        -0.44006116942265   -1.87709911075150    2.94136489959329
C         0.64851359753516   -2.71168821785959    2.59462183729841
C        -0.94853189573472    0.49766724978730    3.41288475124335
C        -0.05866410397668   -0.62768464514383    3.45933607113071
C        -0.61309728569670    2.77302081768960    2.51384517730946
C        -0.17787406619789    1.67920230510655    3.29275548915899
C        -0.08391145680823    3.92905267159570    0.41403327159313
C         0.72839372814033    3.81092532088108   -0.73464774217581
C         0.35579810552873    3.46098101300964    1.67695189723039
C         2.64962440872635    2.82540641160247   -1.79001266545726
C         2.09018898944334    3.47458416402964   -0.65445808049947
C         3.60358272061608    0.85916212873049   -2.52085378672343
C         3.75135554519467    1.98707321433868   -1.63418164893924
C         3.23438324046249   -1.45622837380954   -2.10262028789647
C         3.06523873863094   -2.45528073941741   -1.08600597449130
C         3.93916375531193   -0.29897080854018   -1.80445795050804
C         2.53722309641335   -2.85584380961037    1.22003616069296
C         1.97123398124772   -2.19694023507720    2.38364102564185
C         3.30186508880651   -2.12528812763999    0.26769652718402
C         1.27758278038564   -0.15291283895353    3.36911615266220
C         1.20059818098900    1.27113087646789    3.29340158039231
C         2.28458783649038   -0.86666206477783    2.66660077734716
C         1.71651481165974    3.08279019350706    1.74983130235804
C         2.59059480205560    3.13901887246664    0.62875048865360
C         2.12506204816973    1.95644531367284    2.55156155307263
C         4.12304534344862    1.48221344629358   -0.34721532116589
C         4.20951092657629    0.04741218699871   -0.41814754752045
C         3.74674955003554   -0.78037202931054    0.61808785255290
C         3.23381377326614   -0.15265542780513    1.82696249498030
C         3.55627604423056    2.07062384483276    0.76584385812582
C         3.18447449399774    1.25131584122327    1.87467593562382
