74
C74 Isomer 10947 Symmetry C1
C         3.68525256998955   -2.72855706586496   -0.01320545669963
C         3.67141032624727   -2.28610980180975   -1.32273254019349
C         4.25770466369102   -0.95485543296301   -1.35850249627408
C         4.11757515087229   -1.62123244096991    0.82533661169152
C         4.44835010099491   -0.51629102478841   -0.01850382191907
C         3.16841018038475   -1.49452331496736    1.84631904418511
C         2.51278772032820   -3.30198895578393    0.53868979355740
C         2.26896666477001   -2.63037285456670    1.77347731058574
C         1.40967237917875   -3.59292605761972   -0.30466872240737
C         2.44917384814799   -2.26840606084861   -2.07170062748365
C         1.31526142553853   -2.94646257602146   -1.59758626074092
C         3.47135588456253   -0.19136429775402   -2.23388371629849
C         2.32012739863579   -0.96685192073105   -2.65361654971208
C         3.29910702135583    1.14938454066904   -1.94695864747598
C         4.04478237406015    0.77858208728268    0.37534540954241
C         3.72602740807251    1.66985476715463   -0.68226374278722
C         2.67525688354056   -0.22640075590376    2.25651281238942
C         3.27759098187652    0.92741929710087    1.61238289196600
C         1.36095939351219   -0.15277292526434    2.84063511657372
C         0.99452232624230   -2.57593010132051    2.33245331954328
C         0.54573497207937   -1.34546578287769    2.93871139860010
C         0.22082790966974   -3.83661322584127    0.39217569986526
C         0.04410990018467   -3.44246194805544    1.74284499884011
C        -1.04895028764466   -3.79936918596468   -0.26456308152374
C         0.02883968007354   -2.48069306852218   -2.05142492353759
C        -1.14428885464741   -3.11710631884435   -1.49699194436982
C         1.06882457317356   -0.36114328792414   -2.82861411517773
C        -0.09403282585019   -1.19214426319237   -2.66144296706252
C         2.09038971037956    1.81366246967978   -2.31740931775478
C         0.96083793169535    1.08917815338226   -2.73543537518992
C         2.96607821880528    2.85133565415308   -0.45661888133239
C         1.97144899496497    2.97503657208750   -1.48170731853591
C         2.67594934300221    2.15927608416771    1.85378718207655
C         2.64739987196164    3.20480177884284    0.84914589023485
C         0.70512026858359    1.12006249219972    2.95898071915314
C         1.45726561687352    2.25916858780898    2.60804376828012
C        -0.73787187545253    1.24756297349763    2.93116390148248
C        -0.83480005544151   -1.20341305251090    3.11965564617843
C        -1.47828816335926    0.06746782773204    3.03749864416047
C        -1.36215425714071   -3.27935965267783    1.95407959344596
C        -2.05452447862735   -3.64624476188953    0.74615874346206
C        -1.79224202984594   -2.18583937149879    2.67471170242266
C        -3.26653314480857   -3.04870161928428    0.43668948591786
C        -2.40996359619228   -2.58530271286443   -1.82458237262317
C        -3.49086020617854   -2.70644728226221   -0.91466106849073
C        -1.38491252753098   -0.55484469255566   -2.79148461440813
C        -2.52105312131882   -1.32429843017892   -2.50385254409740
C        -0.32398358050205    1.72296963666518   -2.60990467988398
C        -1.49302016101807    0.89895453373134   -2.79513230441377
C         0.72432646481051    3.56413177372596   -1.24990506487385
C        -0.41049292526265    3.00464276564849   -1.94477273071701
C         1.48200532122221    3.96365708558768    1.04267493528603
C         0.77428832143753    3.42157475199247    2.19957794436626
C         0.54293108301278    4.18183175096343    0.02882654283091
C        -1.42204625607271    2.36407654043319    2.33083419879898
C        -0.60016416172924    3.46114070436331    1.96715233484380
C        -0.75478231369809    4.09593819739549    0.67299126183886
C        -2.67175484935976    2.17195555861550    1.62967626959505
C        -2.78484220602081   -0.08692304164334    2.49175316493972
C        -3.00045522405988   -1.49464838620548    2.29250722024339
C        -3.76712578760374   -1.94551116653738    1.23807287568251
C        -3.35978045886605    0.89971974045951    1.66476167892531
C        -4.25158286423185   -1.49043527957168   -0.95569877382563
C        -3.73694646385041   -0.70918237713653   -2.01864273287873
C        -4.35398458491820   -0.96186658237919    0.35391718941474
C        -4.18718905089494    0.43261999096675    0.56464061070522
C        -2.75135150105527    1.45749239472040   -2.46422664203616
C        -3.80206562951505    0.65000486087273   -1.89113422351928
C        -4.19491569473571    1.22359594210733   -0.62160231391700
C        -1.67819160653016    3.41671020802474   -1.46603744150166
C        -1.84259379577604    3.80262955603206   -0.06954476538653
C        -2.91409301070990    3.00568137905362    0.50095489477564
C        -2.80695281458574    2.68753539275280   -1.79034779437479
C        -3.62588251889664    2.49740502772500   -0.58878023297687
