68
C68 Isomer 4226 Symmetry C1
C         4.85293431548375   -0.79208304006489   -0.59905465387060
C         4.73320039998919    0.58563833114475   -0.77173944592377
C         4.47649247397077    1.17369563498752    0.55551958698893
C         4.55743230767571   -1.11664408551359    0.81622596763566
C         4.30301923691257    0.10585891255715    1.48643853935262
C         3.60955521699997   -2.15984363900437    0.83989489578861
C         4.09007406898666   -1.62960680469747   -1.40653606138054
C         3.41842740758968   -2.57758543218044   -0.52038074588918
C         3.11800140881606   -1.11216693866823   -2.30486553747800
C         3.79949740177116    1.12451890494011   -1.68422416983545
C         2.92389940290971    0.28529932157930   -2.45363176626023
C         3.52463807314632    2.18048059219235    0.42476482213697
C         3.21926775620190    2.25576180530131   -0.99508776821593
C         2.45197140860137    2.32832764379955    1.36713073566966
C         3.19164695780476    0.18009717361779    2.34586644794560
C         2.35385491167418    1.33961338501504    2.35795142171168
C         2.45313891711106   -2.08701435855736    1.68519580798875
C         2.34114678004526   -0.95996965256705    2.51899031827814
C         1.20936156496525   -2.68024310400609    1.24262137865605
C         2.14832090576062   -2.79886433493073   -1.00746604491695
C         1.95033581798744   -1.94875956963989   -2.17551148313288
C         1.06213571848910   -3.02987271579161   -0.12439117334167
C         0.67787265410764   -1.53427568802133   -2.50998990922146
C         1.57246317066025    0.74089964952062   -2.74614276360797
C         0.46473177588817   -0.15738332333331   -2.90091802578088
C         2.00764110385308    2.73004236779909   -1.37196041480237
C         1.21459751092619    2.05805654270856   -2.37811572197766
C         1.22785902338057    2.98109419930354    0.95506512026324
C         1.10870560346594    3.30535485373994   -0.40740573845333
C        -0.00616133555139    2.78775497860737    1.69141264593227
C         1.04557113502469    0.93240241159931    2.82506384454463
C         1.04289009367777   -0.47173809779277    2.91318781707755
C        -0.13268175638660    1.65101798059164    2.57526575519655
C        -0.00949586916888   -2.41241846743364    1.96585241595140
C        -0.13475745536225   -1.21235224138583    2.74858035483061
C        -1.18742691880994   -2.97045918670826    1.45474808137172
C        -0.21980112174097   -3.07549460260800   -0.75879418776167
C        -0.41289309981806   -2.34372143269471   -1.99486046921615
C        -1.31657141339144   -3.31859115495992    0.06195525444960
C        -1.69456863834688   -1.98671275593067   -2.36064195277040
C        -0.88789882498725    0.32353745120790   -2.92701879556643
C        -1.92859783992059   -0.64157817972906   -2.86513502114157
C        -0.12167330714913    2.47698730908068   -2.21243910525784
C        -0.15861367246726    3.34717415147587   -1.05658085781427
C        -1.22784187307348    1.66619334167309   -2.52679879518548
C        -1.19511258075457    3.26176457880442    1.10878613182303
C        -1.29608226739647    3.46604671551656   -0.31431783207636
C        -2.43938822063071    2.72527021220404    1.49714058391660
C        -1.37804490561512    0.93903436685581    2.74746083047513
C        -1.37950767319419   -0.49609464133017    2.84267722011758
C        -2.56376385120441    1.56485850053535    2.26335491542194
C        -2.43870026536163   -2.45841583717390    1.86507397080352
C        -2.55639817678806   -1.20318735656356    2.46175310852553
C        -2.66278366243224   -3.03235984726340   -0.36514001934151
C        -2.85418722585836   -2.39701564181708   -1.60149039692521
C        -3.37880445440958   -2.54881109694701    0.75366963049565
C        -3.21516144706844   -0.27857454218197   -2.47246850736641
C        -3.79929148392586   -1.35294970086405   -1.67920585321327
C        -2.50477920255371    1.97339647794743   -1.89733313334758
C        -2.52774567378115    2.89321551405370   -0.80577629330894
C        -3.30278063156053    2.61004659624744    0.32887766186649
C        -3.49886883757019    0.96556824124194   -1.85941521584685
C        -3.67934102246594    0.81079160901094    1.71474846582172
C        -3.69258537741411   -0.54825262313956    1.82465526584432
C        -4.15385477617466   -1.37396426129078    0.71508382379371
C        -4.39172793272370   -0.77474694991669   -0.53910865231842
C        -4.07990510145002    1.44304316862444    0.45826759483407
C        -4.27988662736902    0.67090838122280   -0.67733390296230
