62
C62 Isomer 1774 Symmetry C1
C         4.44687242875242   -0.16873779854891   -0.50674849481462
C         4.20747024626992   -0.75535630193132    0.74231058209251
C         3.57735190302540   -2.03517333931379    0.49430428135990
C         3.75755027893392   -0.99336102893713   -1.53564783515224
C         3.21045968043592   -2.11660925296087   -0.88462828953564
C         2.93946011899265   -0.13825660185558   -2.29828900004817
C         4.10690279573129    1.15455793522890   -0.71835309853835
C         3.27997192809897    1.19952049165508   -1.92321225636288
C         3.44615747935440    1.91487198199366    0.29169140098342
C         3.44929736981696   -0.07157997851361    1.73725743399735
C         3.09205533501084    1.29558843035676    1.53803989981352
C         2.59935055969324   -2.22298896006726    1.48285231974570
C         2.46126740955452   -1.00626049691060    2.23982289156153
C         1.46313066116227   -2.94225119352089    1.14427328086918
C         1.91548583621477   -2.58024537674135   -1.25565602474884
C         1.19273925917108   -3.24939985501875   -0.24469294796625
C         1.56955773311050   -0.47594424876265   -2.58830963398930
C         1.14392531359594   -1.80363121053982   -2.21516006670720
C         0.59646767800847    0.57592732953228   -2.70545373896535
C         2.28315463225877    2.13259097287364   -1.72250517636482
C         2.45063420964902    2.68661277350117   -0.38840225830909
C         0.97731157060523    1.91236254537072   -2.26500137988524
C         1.34068990563262    3.22486907419020    0.26966144247721
C         1.86299173026235    1.70624043525599    2.11890567123911
C         1.08764487379566    2.78571032099727    1.59606407161218
C         1.17212733166672   -0.61036287929529    2.65617097822445
C         0.94279841077513    0.77933293752606    2.70873821555303
C         0.22585926599420   -2.68721432860247    1.78930543458579
C         0.00936710721668   -1.46878427060909    2.48237073263689
C        -0.20682440840110   -3.47425343163389   -0.35170653948032
C        -0.79494224915159   -3.25063337793781    0.94741239638403
C        -0.22776870194497   -2.07989996481153   -2.31767390393919
C        -0.89730164357666   -3.02333296275589   -1.46410228300360
C        -0.81386858913184    0.26750917248595   -2.76271149054115
C        -1.18545312801258   -1.08806250023013   -2.67937570022217
C        -1.83207043449913    1.25331151844055   -2.42025257726647
C         0.01274626568935    2.79838800025038   -1.80910637845534
C         0.21826658361403    3.52563194092593   -0.55730532848256
C        -1.38831092816346    2.52272761046903   -1.94829570369167
C        -1.03494477458029    3.68393271814164    0.02201951923992
C        -2.04345772939463    3.17921782556881   -0.88972462030228
C        -0.26680209780554    2.61306213876895    2.03940868802096
C        -0.37880001725656    1.31771438398757    2.64341285421798
C        -1.32367719780522    3.11591246453242    1.29678280414130
C        -1.32561843878694   -0.91657673686453    2.48060585520041
C        -1.52902957579061    0.51622084664596    2.50672469654799
C        -2.08724816203043   -2.83817527222011    1.06055831048741
C        -2.38124978155511   -1.71427768322288    1.93376656862753
C        -2.28538763635441   -2.66937592216910   -1.36825997497591
C        -2.48427275241458   -1.51428293180037   -2.20506898161944
C        -2.92779089106267   -2.74132305542097   -0.12038808492169
C        -3.10028868281410    0.83298796574542   -1.96251595842049
C        -3.45040503925977   -0.56732609319508   -1.88374346865772
C        -3.03369641331561    2.51626270861854   -0.15149434685132
C        -2.55149768669533    2.36361159679499    1.20908017187307
C        -2.70047444196151    1.12128587881622    1.86357326488622
C        -3.69054596099043    1.46775441914434   -0.79779839149018
C        -3.56511005585212   -1.14081167068846    1.46511667388215
C        -3.91701066207254   -1.78358020357052    0.18728452923548
C        -4.23854233414576   -0.77428444572007   -0.70813507043035
C        -3.71208637452145    0.26213073074578    1.33296931999647
C        -4.24358911274628    0.47950622580652    0.02723471464719
