74
C74 Isomer 10699 Symmetry C1
C         4.08085786638039   -2.35123670451019   -0.02486623188780
C         4.10521655720834   -1.83320154195411    1.25017642382669
C         4.55161815648499   -0.44598864966531    1.16584741258844
C         4.38790120264788   -1.25548396602802   -0.95553435006068
C         4.60153790090120   -0.06486805309307   -0.20499135764196
C         3.45206784157449   -1.31062234880637   -1.98469930169390
C         2.94713010270212   -3.05911345776316   -0.48412326603446
C         2.71978739170364   -2.55096475352360   -1.81199821738810
C         1.83359813321746   -3.29357901813248    0.36525130246254
C         2.93550077274049   -1.89023421170464    2.06203488145094
C         1.80172331867211   -2.63172451149349    1.65168976309448
C         3.78763231499617    0.28688027729977    2.07952094898786
C         2.78003191500903   -0.59437813722351    2.65522979511870
C         3.44294179906000    1.58475083151775    1.72957866610316
C         3.98051407354975    1.13675106204600   -0.64175269499236
C         3.61248424401843    2.04192653868482    0.38920477451556
C         2.76716700922875   -0.14364143528746   -2.44772440850200
C         3.13418183503371    1.10337919563413   -1.82665256191482
C         1.45365448763014   -0.30357438533578   -3.02887709876474
C         1.48390194172949   -2.67804617843637   -2.35852015858731
C         0.86432054319189   -1.58752087943467   -3.05963827559156
C         0.57860073657184   -3.60673117014823   -0.27209073969215
C         0.48167215897897   -3.41748092011100   -1.66140605880729
C        -0.64215851088635   -3.63391602993889    0.49629608747652
C         0.53168571938667   -2.25674324116592    2.22069913971485
C        -0.65672867785574   -2.96420587341675    1.77834384911910
C         1.52630233760782   -0.10631783491520    3.00004330658421
C         0.40872862077124   -1.01613879648503    2.92191751188494
C         2.23794604779370    2.15501703897589    2.25492251362886
C         1.31518180032837    1.33303852547635    2.93452097007172
C         2.61555770098862    3.05275548838040    0.19083197973594
C         1.79134283847719    3.17321988921101    1.36211414590554
C         2.24422745415993    2.17620031656205   -2.02783329343221
C         2.02887423227809    3.19688482217280   -1.04411379195216
C         0.52705012157675    0.78972140464875   -3.13749820895241
C         1.01843049681705    2.04505424411438   -2.74844508935195
C        -0.91495606559980    0.57018776471802   -3.12770818764052
C        -0.53644818700456   -1.80173405040731   -3.00531544961841
C        -0.75236943042087   -3.01236682791302   -2.25390904956512
C        -1.47037008569095   -0.75052546722432   -2.94131092745264
C        -1.86078204427452   -3.73256446646497   -0.23129435757791
C        -1.91293858382385   -3.22832583184451   -1.58537966286900
C        -3.08770068186580   -3.33984385396796    0.34143970937638
C        -1.90020527455603   -2.54430516858803    2.29877054490301
C        -3.11685012876138   -2.80058225842501    1.61004932126896
C        -0.90286912378013   -0.46197290625139    3.14200853149016
C        -2.02913006437103   -1.23061391041128    2.86410151571257
C         0.00501994821089    1.83074175418956    2.96224171099196
C        -1.10470355863983    0.94012384811690    3.13078225342268
C         0.44041011357284    3.56355689148062    1.27266959689416
C        -0.41336223507446    2.96314198910416    2.22241725316586
C         0.68347484517948    3.70380300251318   -1.15603130326516
C         0.13314047564568    3.09005230551615   -2.32154232435978
C        -0.11626229045433    3.94591218672596   -0.01403963167038
C        -1.76455893459334    1.63617415193022   -2.82434869056876
C        -1.23438388496716    2.92381732621436   -2.44770544019727
C        -2.97068714305281    1.41866732984477   -2.06333723343523
C        -2.71769714797648   -0.96817992184919   -2.25007176134083
C        -2.97579531409800   -2.25241915033743   -1.69203202072615
C        -3.77091972713598   -2.39302227726744   -0.55681944601173
C        -3.38996054071966    0.14521769607385   -1.63229309627495
C        -3.88795398810331   -1.56247296681941    1.55543499078422
C        -3.22786688563454   -0.61713141960285    2.34282062765199
C        -4.19050951056131   -1.26683005452943    0.19992302688947
C        -3.98292721798179    0.04062854088295   -0.31333517346187
C        -2.24922975928255    1.53666548326757    2.54998785182402
C        -1.82208147939335    2.78395026827770    1.97333717087426
C        -3.25863407642189    0.74555677200210    1.96067217182932
C        -3.74541276333001    1.09649238564388    0.64983754556135
C        -1.52854718742270    3.84251728167295   -0.19502937707997
C        -2.05242105691585    3.45886913730134   -1.43322941669803
C        -3.15265795917830    2.52987448250297   -1.22204094610940
C        -2.38590570934195    3.21919496395054    0.80778598254538
C        -3.35942982685499    2.36487743382296    0.15003532371517
