80
C80 Isomer 28919 Symmetry C2
C        -4.73028487594577   -1.15616255784100   -0.42030771288497
C        -3.95247562810270   -1.68828767899702   -1.47401050378566
C        -3.47835038061178   -0.56280864903273   -2.23454680713852
C        -4.86423647085707    0.25764962564178   -0.59213330981571
C        -4.05171252796576    0.63630236606492   -1.68693730759478
C        -4.62399726002938    0.85417275969376    0.67618051733343
C        -4.33503951629642   -1.40292647139346    0.92786667448992
C        -4.11004213890022   -0.14313864342544    1.58776703701955
C        -3.48291729251703   -2.45529632479186    1.17532786102058
C        -3.12932200335031   -2.81327744560072   -1.23380098671029
C        -2.98052394415488   -3.29119540880267    0.09674161268985
C        -1.99843551180608   -2.92347916711307   -2.05980694407679
C        -2.17631980798016   -0.52705052342461   -2.76451555046050
C        -1.54226404925015   -1.78261250214664   -2.82638622263114
C        -1.36425754925554    0.67656823011430   -2.75295782492598
C        -3.31454657263415    1.83481707873494   -1.67541340026737
C        -1.97437402126836    1.88467410456248   -2.24068357461270
C        -4.07690425840803    2.09820798040230    0.68074195879342
C        -3.64633421161695    2.68788533582708   -0.57336157200022
C        -3.10128592341938    2.44594535210293    1.68942934459535
C        -2.91690927861296    0.10433788708253    2.30829083524457
C        -2.34517458978758    1.43897457786440    2.34112300827803
C        -2.45460696636293   -2.29030014913730    2.13949137750096
C        -2.06038312136068   -1.01037799138497    2.60978298517726
C        -1.75811789927543   -3.85868998901849    0.52841230478531
C        -1.49560719458479   -3.30533988004038    1.83612252076629
C        -0.86178639777276   -3.66731024948006   -1.67305037740058
C        -0.66372194882133   -4.10541705606249   -0.34163452660870
C        -0.15088820586322   -1.87773798881638   -3.00688821594784
C         0.24601847511529   -3.11738619146331   -2.41059273149596
C         0.06855231600389    0.56194597406998   -2.88677564471303
C         0.68764540411017   -0.74276174205696   -3.01969434362157
C         0.92880623920653    1.68616137321310   -2.60043420033087
C        -1.11646629924106    2.98063656456803   -1.90946314925093
C         0.30431415565147    2.90088406525107   -2.14312953453586
C        -2.76541900078237    3.70293050215230   -0.23184986819918
C        -2.45859095320205    3.59001946889593    1.20462035454436
C        -1.57531808388850    3.91232245886824   -0.91976539641708
C        -1.10984029445941    3.81943673188875    1.39435292796824
C        -0.65078918958794    4.32443284091411    0.11285427709697
C        -0.91751879586877    1.65118561983381    2.52702090511205
C        -0.29607121693384    2.87326461321528    2.08546220816823
C        -0.67041394385846   -0.78220740824114    2.91594964556870
C        -0.05461674292747    0.52571053211135    2.79934776908089
C        -0.22260033709832   -3.14759245949818    2.27776904792470
C         0.17081244152744   -1.91466087085514    2.88919165225776
C         0.68954453805800   -4.10696516920854    0.19671063126715
C         0.88648031252746   -3.68524176182455    1.53336105504333
C         1.51918799135666   -3.27706184174688   -1.97106077556932
C         1.78353582719726   -3.84647454670150   -0.67023835923527
C         2.07809507366646   -0.97108853522643   -2.71656380495081
C         2.47562988518044   -2.25571265390728   -2.26163204898186
C         2.35687586101171    1.47526373018958   -2.41761713975581
C         2.93191831743061    0.14189031703960   -2.40148088583935
C         3.11065536998772    2.47563904957435   -1.75274121733596
C         1.11588373035635    3.84010822232693   -1.43982187957583
C         0.65569845701081    4.32768072657680   -0.15196506920336
C         2.46517175481145    3.61180606376705   -1.25320827241127
C         1.12463074286263    2.95960367345284    1.85303485760257
C         1.58117641690104    3.90505185112164    0.87525813997790
C         2.77200255406171    3.70752196136435    0.18467325353339
C         1.37797629983665    0.64570289815343    2.66719141173032
C         1.98501463682861    1.86158949837874    2.17010953137326
C         1.56241757701917   -1.81353454355392    2.70995355549553
C         2.02146243274648   -2.94312093968131    1.92942477331379
C         2.19304315099351   -0.55580412191134    2.66393414110860
C         3.00402010581849   -3.28143594188939   -0.23172879034354
C         3.50409099711912   -2.42992236524689   -1.29984557276255
C         3.15197792452765   -2.81969037482578    1.10473590726953
C         4.12560407451098   -0.11152191252803   -1.68370612946963
C         4.35346172898250   -1.37863069755924   -1.03911295673876
C         4.08707324922056    2.11768440541023   -0.74863108716986
C         3.65537273060595    2.69071181953468    0.51325940136044
C         3.32549284774840    1.82224044461045    1.60410815056789
C         4.63738186664962    0.87526690587760   -0.75977233877433
C         3.49508456421914   -0.58161951669263    2.13272462978117
C         3.97185125807161   -1.69557178537712    1.35878809051175
C         4.74958628550549   -1.14788287512961    0.31170955559753
C         4.06553008240101    0.62589641662358    1.60020228721852
C         4.88038672781990    0.26317290455932    0.50123983537465
