80
C80 Isomer 22924 Symmetry C1
C        -4.54022190517901    2.09122579858111    0.11031064663791
C        -4.17495181615651    2.21459213456166   -1.22064466048819
C        -4.47901759714043    0.96811308951012   -1.90800356771793
C        -5.09964578808226    0.74544976191171    0.30023204116628
C        -5.06560416701145    0.07423000024789   -0.95708537336431
C        -4.49795306952809    0.18941889390770    1.43446324298431
C        -3.61448046586646    2.37170493701540    1.14301657701634
C        -3.71129386447509    1.24784315636679    2.04265531020054
C        -2.33619207407355    2.91728499338080    0.85263990549360
C        -2.85156090753895    2.60421783115273   -1.53894168595121
C        -1.96841834829870    3.04535169122425   -0.53557664160954
C        -3.33571550090199    0.59815861532318   -2.63403077581624
C        -2.36610960770671    1.65922755810071   -2.50454988553935
C        -2.87962035241903   -0.74890266065386   -2.68669890540949
C        -4.64782293207018   -1.24537683387311   -0.97303001024589
C        -3.69450063951556   -1.68111207816094   -1.98059140833773
C        -4.01937350143382   -1.16369860846822    1.44433189885393
C        -4.29231015482042   -1.90160543341984    0.26819145811651
C        -2.81582733782510   -1.49115174114482    2.20209673309066
C        -2.63564611005579    0.90977612748903    2.80724824183946
C        -2.23230592099615   -0.46184422071872    2.95555218976607
C        -1.26491813276119    2.67952783025334    1.79209329277589
C        -1.45930052335799    1.72834300842507    2.80216992592513
C         0.09298664320964    3.00052685268071    1.46482828202224
C        -0.58773883578361    3.05521816059688   -0.89176046530631
C         0.36955878042009    3.39081553864890    0.11857067667219
C        -1.01350174091950    1.42559830818763   -2.66467786050872
C        -0.11796856875980    2.35008059654391   -2.03068536913854
C        -1.46336097407995   -0.99827491118127   -2.85558603504841
C        -0.54738617140769    0.09851924563288   -2.98652594963501
C        -0.89766846891440   -2.23655066284530   -2.38059063698985
C        -3.08153605700159   -2.83388837219881   -1.46723387983307
C        -3.41818577625241   -2.96290624383976   -0.07119764663322
C        -1.71688151656088   -3.10073643188263   -1.63232280265226
C        -1.89643718987115   -2.53943843855815    1.79121749199994
C        -2.24711220822301   -3.26591957690678    0.62815721034744
C        -1.22645457790669   -3.55464843473505   -0.36299703230028
C        -0.50379999896551   -2.52248592215714    2.13931709086915
C        -0.84769114273646   -0.43651556901339    3.26815569188398
C        -0.37640515258998    0.90825895190323    3.22945504093324
C         0.03375644946112   -1.47044458155490    2.94410062692714
C         1.17892680433248    2.44393775783099    2.23340930602839
C         0.95793003606296    1.23217196205832    2.97164167051704
C         2.49681085796048    2.68453271976966    1.80978247433311
C         1.69443690294119    3.53314748218488   -0.30496459347840
C         2.73431197914145    3.39578197373081    0.62439278244423
C         1.27782017046981    2.20826714588956   -2.29865391680179
C         2.16110761942131    3.00069818245803   -1.56333851728277
C         0.85915455520467   -0.11849043694516   -3.05863237366142
C         1.76088229515670    1.00617460261391   -2.94485750060182
C         0.50724563086722   -2.38718660227743   -2.19351130689278
C         1.37155894159769   -1.44048233984628   -2.82518235120969
C         0.10811497246751   -3.50485626643591   -0.06469414648286
C         0.45292446604832   -3.21807941099469    1.30732698435801
C         1.03041100033216   -3.16675553680830   -1.11907408058838
C         1.79703284877515   -3.12084691711147    1.59644745168154
C         1.44130812152573   -1.16762941344974    3.01327765148357
C         1.93444522192364    0.17928880501718    3.00478336894575
C         2.29909708643161   -2.18560423100698    2.55154510083183
C         3.53360297518457    1.69190176976202    1.91862743607169
C         3.26965480698637    0.45186505203199    2.49851108933437
C         3.89706506491270    2.84105583201751   -0.03342524105378
C         3.54775557443283    2.63166252007465   -1.39895365978566
C         4.40212953147932    1.80035015495311    0.74951071692150
C         3.14582296381001    0.76513275458318   -2.90081539149057
C         4.03552041801507    1.51730681401143   -2.04233497261020
C         2.75304047226739   -1.64403296129403   -2.69977457606488
C         3.62449288280427   -0.56313978284371   -2.88387585506536
C         2.42784078115066   -3.16309137130727   -0.81591105052303
C         2.81136232850150   -3.28289206910621    0.55654747444239
C         3.31481912877917   -2.50530621023497   -1.68083039674542
C         3.63828371106353   -1.92169929599617    2.20622954323764
C         4.11054600724252   -0.62241183960696    2.06263847335541
C         3.97515013117186   -2.66581862263567    1.00399131707457
C         4.96412371907189    0.64963339161051    0.11435901274374
C         4.87921778935396    0.58233404467800   -1.31911351264161
C         4.69940230714959   -0.67330952285235   -1.93322872404407
C         4.52371327504882   -1.87378542749082   -1.20215183375982
C         4.89930315514805   -0.55583044440597    0.83785652411234
C         4.76725068986204   -1.82997662295853    0.17537263987074
