72
C72 Isomer 10453 Symmetry C2
C         3.94677646451276   -0.72505189102043    1.74668959982430
C         4.16730543592366   -1.17735605600537    0.42727927067457
C         3.43986790383269   -2.43148474850751    0.29958950784456
C         2.98354083902563   -1.58328991759096    2.37393049565674
C         2.61702370537644   -2.60228955837439    1.47027041342600
C         2.02268790812293   -0.78326186045448    3.03286878085014
C         3.58558113440204    0.61062135537447    2.04870577797945
C         2.37357137802726    0.59413844886987    2.85664566048503
C         3.70525560098079    1.55132312120570    1.04298742285187
C         4.15397840058105   -0.22599778971586   -0.63916941945721
C         3.95356719409734    1.13225259797162   -0.30961717560639
C         3.60097933150180   -0.63956262520723   -1.88724845919330
C         2.90914398529220   -2.79536057573856   -0.91909258835483
C         3.14952568875706   -1.95570549688869   -2.04396882319431
C         1.54302179096322   -3.27310063997596   -1.00320754726341
C         1.26464610562447   -2.98927699609360    1.40111443299120
C         0.71736960745518   -3.38500318426365    0.11568276482950
C         0.69249452406255   -1.19982401708691    3.07091527620880
C         0.37330409085416   -2.42863170351346    2.37595651389369
C        -0.30566676255144   -0.16697836008753    3.24062517723627
C         1.38184829235786    1.57556151107472    2.72947288528358
C        -0.00058006173926    1.20417119757265    2.97000203158334
C         2.81269799577456    2.66928655756590    1.03822065442174
C         1.70666758440115    2.72976031578797    1.91387738709844
C         3.18313769877236    2.00806649711690   -1.15180864316399
C         2.65734207461604    3.04753215815870   -0.33622731349835
C         2.68828550128584    0.21369259451170   -2.63051053776918
C         2.40527664478904    1.52482513955010   -2.23850891399916
C         1.94826296214814   -1.93297274021444   -2.84053831604473
C         0.98472667713583   -2.74419998871577   -2.22932541446048
C         1.65015817640622   -0.59480454114002   -3.17913653456362
C        -0.37341751821988   -2.42850629315066   -2.37630435549637
C        -0.71750518289082   -3.38498239303229   -0.11607760574162
C        -1.26477480931475   -2.98917880332406   -1.40149065574388
C        -0.98484850796870   -2.74428779289786    2.22896325242028
C        -1.54315568740144   -3.27311373706028    1.00281849491653
C        -1.65023032820789   -0.59492020364476    3.17888369007264
C        -1.94836479193977   -1.93306511697994    2.84021516779423
C        -2.68833931061794    0.21363213585309    2.63029965925265
C        -1.07274312585683    2.06776060605173    2.50295036279643
C        -2.40529986892411    1.52477906277449    2.23836334886996
C         0.64339553172628    3.57739770903462    1.52094038323338
C        -0.72796974282572    3.25452173702913    1.84308738635510
C         1.53407720098095    3.73933711845941   -0.74912759023879
C         0.66879919478658    4.21155942827041    0.26362914354027
C         1.07273539600856    2.06785381762544   -2.50307130401045
C         0.72799113274571    3.25459193255558   -1.84315099892684
C         0.30560574760498   -0.16682756146961   -3.24085969799433
C        -0.69258242994366   -1.19965575317687   -3.07120015124910
C         0.00055098206267    1.20431561189726   -2.97016760735343
C        -2.02276476201948   -0.78306264864221   -3.03313295968649
C        -2.61714238600565   -2.60215445236817   -1.47062507917172
C        -2.98363547443377   -1.58309943663986   -2.37423165085598
C        -2.90926779347896   -2.79533695967533    0.91872846611078
C        -3.14962881464629   -1.95572908617083    2.04364713412923
C        -3.60105203824017   -0.63956730363018    1.88699296299711
C        -3.43998344989299   -2.43138805529290   -0.29993448176517
C        -3.94684931360737   -0.72486894493473   -1.74694821241786
C        -4.15404043977118   -0.22592643233262    0.63893290610711
C        -4.16739097246225   -1.17723327481720   -0.42756160345357
C        -3.18314768055380    2.00809143332209    1.15168374620077
C        -3.95359741582744    1.13233636519340    0.30944850326957
C        -1.53404322893876    3.73933960705068    0.74908753109469
C        -0.66875305548581    4.21158882791415   -0.26364642394328
C        -0.64336580261873    3.57748717921284   -1.52098868238887
C        -2.65732604718779    3.04758375270103    0.33615282855129
C        -1.38186810016005    1.57572883660885   -2.72962019967998
C        -2.37361503937898    0.59433737300392   -2.85684269949616
C        -3.58562372921757    0.61081048071033   -2.04890032845349
C        -3.70527594345511    1.55146724499784   -1.04313559620915
C        -1.70665939594116    2.72989605562228   -1.91396784271568
C        -2.81269087127046    2.66940912918628   -1.03831360729007
