80
C80 Isomer 11531 Symmetry C1
C         4.55225042920523   -2.48547560552362   -0.69976595740979
C         4.62484714211290   -1.19720043746890   -1.24778135263268
C         4.79639927846519   -0.23444918583226   -0.20240398668370
C         4.37409139811821   -2.30970454903399    0.72095240086843
C         4.59801949557721   -0.93162213670639    1.03878452935420
C         3.13652519773534   -2.85742511318653    1.08758710840935
C         3.36305325903857   -3.09149518128132   -1.22430158277279
C         2.55593483849845   -3.43698904469861   -0.12962292223869
C         3.54451118617024   -1.01214466678599   -2.19268482191087
C         2.76190775207830   -2.22285325979556   -2.19538065786984
C         2.91658053925295    0.22186582092131   -2.31599605326284
C         4.30720627821354    1.06627153991399   -0.39219152108177
C         3.43396271130773    1.34174529566762   -1.53128998582294
C         4.13964593096794    1.80803785358502    0.79422436315615
C         3.85719929893332   -0.31516981903767    2.06793612808368
C         3.92693247886480    1.09878424617069    2.02883434648308
C         2.27184706530921   -2.21328609058218    2.02358988889924
C         2.66117462736488   -0.94667439680694    2.58638730725043
C         0.90546225860728   -2.61217250722052    2.03450096833188
C         1.18049212600101   -3.48172926838810   -0.28424300681458
C         0.42779100537972   -3.43324687722797    0.94128401703773
C         1.36882609676759   -2.16991626024343   -2.32166701390846
C         0.56972888137461   -3.01809621558093   -1.48832494429931
C         1.54676859937383    0.22519824215666   -2.80442674758595
C         0.75618114399470   -0.96314600321064   -2.80165839020657
C         0.86876843236515    1.48272693254175   -2.83804080068171
C         2.66732113998847    2.49905220773046   -1.46837471652310
C         1.40682135183187    2.58576765285254   -2.14356428181966
C         3.32518420146450    2.99435724697172    0.82989252975349
C         2.58878483298363    3.33932305583981   -0.30121292217425
C         3.01905785777599    1.85232227646370    2.79545577734062
C         2.67828837629087    3.07091508408030    2.07863537452037
C         1.61976037915166   -0.13175415581983    3.14395983305329
C         1.84616775027284    1.27045868398109    3.26832579751850
C        -0.09088803332403   -1.87867829309621    2.75405633866251
C         0.25814977620607   -0.55980656002849    3.18450077268509
C        -1.47995843769202   -2.27085600928754    2.67518814642634
C        -0.90182426322862   -3.71313970740875    0.79960458881677
C        -1.86369223341256   -3.30696123743473    1.78211880486854
C        -0.85413790977162   -2.95397076856608   -1.54308786350889
C        -1.52198813443258   -3.63547066997012   -0.50788834390187
C        -0.69453449061613   -0.90896433714027   -2.86292605833774
C        -1.54068487861785   -1.92242328725436   -2.26576592291124
C        -0.50905046723424    1.51751951145565   -3.05605533615676
C        -1.28342677387241    0.32248934281308   -3.14661463477628
C        -1.34136244644710    2.52935109439205   -2.49001216811382
C         0.55789463489650    3.43036810604824   -1.39293630274831
C         1.23953986261928    3.77871190414679   -0.17342507241565
C        -0.83551548484402    3.34514160562799   -1.45629449700579
C         1.29473359569806    3.27272500994398    2.17294428173683
C         0.78100150159763    2.21850174991738    3.00547124121959
C         0.52810505166340    3.67364968097929    1.04481729837415
C        -0.79677918291315    0.43096194951019    3.25005917544732
C        -0.52308542945826    1.81095503224851    2.90521004215299
C        -2.48878357109181   -1.32761711481068    2.96827998239634
C        -2.11790433309604    0.03581226657527    3.16850588401434
C        -3.77270234004541   -1.32158360191471    2.33074703458084
C        -3.11373417876392   -3.28312970311715    1.14346092425548
C        -2.87999891287747   -3.40773324790205   -0.28913271504345
C        -4.05421601219661   -2.26108476177476    1.34011517501287
C        -2.92588948730693   -1.63357583704475   -1.96570459672918
C        -3.58575180365013   -2.41029645593413   -0.96929466571845
C        -4.46761208886423   -1.79863510347386    0.01557377307028
C        -2.64092081347517    0.63473296061184   -2.80789629889216
C        -2.66683121571812    2.02134083442002   -2.44232217545568
C        -3.47792981136952   -0.31513786631512   -2.20325377881863
C        -3.51650795243860    2.46197245380736   -1.43782704521677
C        -1.59918959826274    3.46263393454758   -0.22756671062065
C        -0.87823020271828    3.36799456838973    1.02879199700449
C        -1.43401755224101    2.55840509742743    2.06142090424523
C        -2.93652619869174    3.09134232056916   -0.26468248069753
C        -3.14417471011659    0.89809457597249    2.63184493243303
C        -4.17437748031491    0.05238124192249    2.13678024248008
C        -2.78935513449663    2.10850981238731    1.98999970916047
C        -3.58491241602654    2.51595528564659    0.88763202011151
C        -4.89388895509662   -0.51511516247185   -0.14857438687483
C        -4.50421985739602    0.20568205265260   -1.34762942474075
C        -4.51234779721973    1.56849238270465   -1.00926119223500
C        -4.86904962237855    0.41163821699774    0.97554754987592
C        -4.62791755180075    1.68454136878492    0.43706214752745
