76
C76 Isomer 11248 Symmetry C1
C         5.22287308664005   -0.49093706989022    0.40590374334513
C         4.63841025054670   -1.64612571699451    0.91867024926149
C         3.96417188376341   -1.27809953997942    2.16239904932171
C         4.79949810196477    0.65159192701223    1.25411288797618
C         3.96153777550794    0.15207679085854    2.26226289779669
C         4.33782515099998    1.68932451170843    0.41182092518854
C         4.97367860162053   -0.14516711950611   -0.91803621273161
C         4.56480161889945    1.25323830311991   -0.92746678777667
C         4.02900600781680   -0.86913858135020   -1.70303383461788
C         3.73352541992379   -2.41751308489271    0.14290298307437
C         3.36309053747233   -2.00675634385388   -1.17412575938904
C         2.77500047567400   -1.99455772534959    2.24551784328810
C         2.67833811939226   -2.79359786110961    1.05190392270786
C         1.60369793999256   -1.41707731265795    2.80127887410230
C         2.74999014752286    0.81798132531984    2.59809259034230
C         1.67270243122714   -0.00567572911385    3.08911579403589
C         3.15390337418823    2.41178331808579    0.72763955793907
C         2.42934558651366    2.05234653746180    1.92731764530715
C         2.41786442043415    2.97128522169551   -0.37837870194328
C         3.56476816481053    1.41294269394521   -1.88940149031552
C         3.23223672562599    0.10515659350929   -2.39635936730319
C         2.57410175881971    2.39745703546991   -1.69768325032544
C         1.92299111549206   -0.16375048533848   -2.82031988141178
C         2.00733894712255   -2.28311095373983   -1.61238233378304
C         1.29830004952790   -1.41912087272039   -2.50230958650957
C         1.44748401418937   -3.21612381977760    0.61885167914702
C         1.21275785715733   -3.16859797119695   -0.80633498232074
C         0.35624756078091   -2.05286778393525    2.53661973436217
C         0.33304663117962   -3.08805040334261    1.53565296640106
C        -0.89383644156840   -1.40308870132830    2.86949371056686
C         0.44788269341487    0.60554934576185    3.33819914246168
C        -0.79202878912151   -0.09196425667432    3.33303362958747
C         1.12350832112469    2.61857058374243    2.13937980581513
C         0.20277030075631    1.95161387359338    2.96315009798527
C         1.17837115354182    3.57484817550373   -0.10705862708709
C         0.56410442285178    3.48106990556857    1.16041669063438
C         0.11132259652997    3.64172554944697   -1.07479788612113
C         1.43361663104514    2.23337985854552   -2.51015903107056
C         1.10005030008152    0.95857886064132   -3.03542762989916
C         0.20675369559063    2.90731423572712   -2.22965875916837
C        -0.33899015141142    0.85310704115840   -3.08124176056331
C        -0.89611265328881    2.07784740690326   -2.64006271088367
C        -0.14005577823903   -1.52338431891412   -2.67884728047609
C        -0.99216544999069   -0.36401555050230   -2.89981764799206
C        -0.07172383545323   -3.46528719758536   -1.22809622821199
C        -0.76105276661044   -2.66156147249140   -2.18199803694315
C        -0.90627167882809   -3.53335785200350    1.08842317928591
C        -1.04177797191160   -3.90121934423125   -0.27982061989873
C        -2.17857523576089   -1.82444837880245    2.33707468003013
C        -2.15731685008515   -2.96178295311329    1.52009631962068
C        -3.29772545400590   -0.88963546945848    2.22250121815097
C        -1.83896650103133    0.86836825737265    3.11112072442921
C        -1.22197364153695    2.11454306424728    2.85249303234303
C        -3.10032858739513    0.50157405984860    2.58564058001348
C        -0.86045348945879    3.62099824551890    1.00222471878575
C        -1.14440607187167    3.67591405204844   -0.39206742523367
C        -1.76659981448379    2.98976903622544    1.88526894569724
C        -2.15797222637464    2.13950199309786   -2.04137648042015
C        -2.29740053834491    3.06531800003215   -0.93306327777740
C        -2.38260286793645   -0.31663606132380   -2.49229973486984
C        -2.97875583491170    0.95155927014466   -2.14500190618399
C        -2.17205022480256   -2.68177409151744   -1.85768295916435
C        -2.33042720298561   -3.53738694917485   -0.73093225106756
C        -3.06692353926739   -3.08949743719352    0.40440531864390
C        -2.97826667555540   -1.54053829719049   -2.00014914936126
C        -4.27603058234676   -1.16115622943306    1.22958070993857
C        -4.01463392116521   -2.13102560705353    0.20379575014027
C        -4.09001781383452   -1.45963916972373   -1.09563368500205
C        -4.19031904442498    0.96290517232452   -1.38474824124913
C        -4.95211065752782   -0.10340150438879    0.56286011361470
C        -4.72886022289837   -0.25416696813495   -0.88763084575404
C        -3.78239126901373    1.54375938732080    1.89544235680178
C        -3.04581724219071    2.67947380838035    1.40350353230341
C        -3.33305700770495    2.81652839101849   -0.00413495262153
C        -4.72178055461998    1.21052040032401    0.88292811583592
C        -4.34613528178479    1.91471395230491   -0.34155640083475
