56
C56 Isomer 529 Symmetry C1
C         4.01762443866925   -0.46395324640286    0.89400754379023
C         3.79393806274022    0.87546973781762    0.51969529674426
C         2.87781098262688    1.47769311745803    1.44620205878539
C         3.11003351107371   -0.77997782443553    1.94926771514018
C         2.42407184992176    0.42483420066638    2.31767906315367
C         2.34796221135822   -1.92683732368877    1.60233173712465
C         3.65809138715193   -1.30011299637741   -0.22266108062835
C         2.78104776250104   -2.31851922872410    0.26802882068297
C         3.44318397974684    0.87925048846256   -0.88341664894508
C         3.27134733675011   -0.49903844186191   -1.32639657682469
C         2.56756003769215    1.82532792805507   -1.32932589251914
C         1.98649798207047    2.47862669547589    0.99598420523648
C         1.98995414552434    2.78137763871575   -0.40471317208873
C         0.73642752028552    2.56639315481172    1.67053715895597
C         1.08286164640241    0.34532213995282    2.73336996929874
C         0.31581794209942    1.52600671271926    2.55220122736179
C         0.98833431459494   -2.05162093561465    1.98459903079757
C         0.40044712433489   -0.94217915579398    2.71139906044139
C         0.14364478319911   -2.91886846095328    1.17547781097804
C         1.86928489481195   -2.83441269733911   -0.61520913836774
C         0.59970483200099   -3.31424219055185   -0.11227831425259
C         2.14789839184338   -0.87455818379542   -2.12386133123530
C         1.64491074208017   -2.17585926609952   -1.87941717331251
C         1.53745399763317    1.47880681474597   -2.31451498213751
C         1.20519034266223    0.13481295543578   -2.60592615080335
C         0.80373065370336    3.22830848658470   -1.00446939916654
C         0.53667975345543    2.44784486516882   -2.19354719751506
C        -0.44970168165544    3.10207758031457    1.04106747795531
C        -0.42035285560753    3.40210047596144   -0.32167457803885
C        -1.12401614524822    1.49502768443052    2.55940737554686
C        -1.60878128269158    2.46338312973536    1.60483995707746
C        -1.00275924777727   -0.91806664363030    2.84266377665945
C        -1.77977236340482    0.30505377083951    2.76089237436007
C        -1.27029113856354   -2.82685452896700    1.31630780889403
C        -1.79098867195182   -1.92339543415966    2.25117204396959
C        -2.19212579911635   -2.82479383679310    0.18705969009789
C        -0.29569670175983   -3.28070540395795   -1.19652147610252
C         0.30901173460145   -2.46657919659185   -2.22347468872106
C        -1.65791483612054   -2.92666413715265   -1.08486786566548
C        -0.20780405831189   -0.16023397257233   -2.81873902640217
C        -0.62127476667749   -1.51026420424150   -2.65638205934191
C        -1.90394969462098   -1.87790906039351   -2.07081856684049
C        -0.84218875944970    2.16135419241112   -2.26085962598866
C        -1.47345622602700    2.88243461231765   -1.17717181916962
C        -1.23853516110573    0.84861925118730   -2.62314647590213
C        -2.71937228486894    2.16976720196541    0.82695087743709
C        -2.62707477067099    2.37679880651930   -0.60802816735324
C        -3.01614229695878    0.03462291859348    2.03750073400996
C        -3.02804026410109   -1.34251547538373    1.74518987590859
C        -3.23283446872736   -1.84760818006145    0.44299079092622
C        -3.45317695305724    0.93976613676266    1.05221855801960
C        -2.84192259802126   -0.92005873366316   -1.81239483289047
C        -2.53300289640189    0.45919182985856   -2.15699271152607
C        -3.22983317316194    1.25796920843158   -1.23794111866850
C        -3.60021439200375   -0.94083749995373   -0.56926180690698
C        -3.81129887347234    0.40742452376152   -0.21503016203872
