60
C60 Isomer 1695 Symmetry C1
C         3.58144779438288   -1.66126817444198   -0.50108492030939
C         3.95884560954959   -0.63882345475984    0.36050218004248
C         3.92917838104508    0.60457927263160   -0.38575783383580
C         3.15653797964837   -1.04383286784657   -1.75679431547285
C         3.27755244708927    0.35997564652569   -1.63157122231272
C         1.95365042758435   -1.65415260669880   -2.14557992683088
C         2.62842365636128   -2.62693978872422   -0.11972249249395
C         1.77599377706783   -2.79435002094139   -1.27553098474268
C         2.04796225450761   -2.58139647844527    1.18722042192943
C         3.26502871669991   -0.43868032809816    1.58798724478007
C         2.31052977549326   -1.40709077239442    2.01223357691705
C         3.45397924030249    1.60536208995502    0.47354137425812
C         3.01115843342767    0.97923526367380    1.70632359879401
C         2.69761813804890    2.62576538415773   -0.10498136566111
C         2.19542530859936    1.18802855091251   -2.07004235305472
C         2.08133086909866    2.42850066247340   -1.40878677133515
C         0.82985099385400   -0.89176575517025   -2.57500729639192
C         0.98886305368361    0.54423081138307   -2.60475098743015
C        -0.49398936295804   -1.49087655480544   -2.44119084471872
C         0.52368629472913   -3.33607219038809   -1.13478434692053
C        -0.60916082355720   -2.74544660486190   -1.80159858056413
C         0.78311696752183   -3.22082926542856    1.30285952958278
C         0.13836357425306   -3.74536639986608    0.16618030338497
C        -0.28459938898348   -2.70111540074190    2.13748388964175
C         1.22684710579636   -0.89141768686142    2.77035861075012
C        -0.06211733462958   -1.53649912265990    2.81496817999695
C         1.85255925097755    1.46684812196380    2.35486406425614
C         0.98761000307446    0.49964851333624    2.91446823786029
C         1.75810879110703    3.28610333282998    0.71139469598398
C         1.25269937064274    2.67889170967674    1.87640362243035
C         0.82316094680983    3.13438046858693   -1.38137867835405
C         0.63655611123330    3.70793708322120   -0.10291895139778
C        -0.19416473546774    1.31126056923019   -2.63625525160076
C        -0.28581875345771    2.59769592784146   -2.02145756019960
C        -1.68520423133193   -0.65956153508770   -2.49198717117130
C        -1.50937511715691    0.73219951548448   -2.61444630680456
C        -2.89266715278415   -1.08236485994962   -1.84598034237554
C        -1.75315891491589   -3.03789923533134   -0.96188971087620
C        -1.28541007306142   -3.54559743800344    0.27837996232306
C        -1.57381702133577   -2.88206373739890    1.48243040247520
C        -2.83725797296002   -2.19877132943801   -0.91942378514112
C        -2.60599722456981   -1.90420207358434    1.53468843553464
C        -3.38647418517769   -1.78658634995449    0.34523063123012
C        -1.09958645909673   -0.53594349344863    2.91843280976256
C        -0.44118669539572    0.71495411269256    2.98167079548010
C        -2.37861697770092   -0.70016252355985    2.32849738484577
C        -0.18068394473698    2.84758684622410    1.85146893638622
C        -0.55227782290793    3.49020567745519    0.60844430654971
C        -1.03435372670372    1.88061368106486    2.42385127409309
C        -1.59895247805220    2.74075590388467   -1.45092119034424
C        -2.40001018935186    1.67636906348039   -1.98925661637500
C        -1.73425575507309    3.11576166359354   -0.08618343831140
C        -3.79752641228501   -0.15826176338164   -1.31276789053498
C        -4.08284365523633   -0.58255683767508    0.06501975221921
C        -3.52786019811265    1.23371335119676   -1.30025429019369
C        -3.04699502610909    0.50993779915385    1.97651358642103
C        -2.34577417692386    1.75005390030403    1.91591615298567
C        -2.72670078754940    2.43963878551539    0.68400632150304
C        -3.97508823292665    0.51877966121337    0.88672214752393
C        -3.71116044207995    1.68488128028468    0.05524299581305
