78
C78 Isomer 10555 Symmetry C1
C         5.40071376079218   -0.67028546910822    0.26139418515647
C         5.19080701984534   -0.51506040692712   -1.08278568430438
C         4.93220351848091    0.90193695328645   -1.37395167376675
C         5.25902635364140    0.67836300501369    0.85556515850078
C         4.80369424457381    1.60448206901797   -0.15411144504622
C         4.54059747604481    0.53464118408911    2.00661305452167
C         4.59855174050848   -1.59885832407710    1.02136129190833
C         4.22490417153839   -0.89244091513352    2.19184889400367
C         3.63069884050103   -2.41373502763858    0.38363875998450
C         4.22656284184712   -1.30022064472484   -1.78022420525033
C         3.53316028338907   -2.32248578195289   -1.07007455910017
C         3.93959157482184    0.92632626048253   -2.36450442614708
C         3.51151458973968   -0.42954334686695   -2.66269243067212
C         2.96218492393783    1.89884131583984   -2.27128408254814
C         3.63701169169986    2.39888290818001    0.08336399549045
C         2.84575836856236    2.67121671111973   -1.06548574834381
C         3.35720748057421    1.29458616946561    2.27242199844703
C         2.89788274781149    2.26624834346733    1.33154318073421
C         2.93834920684841   -0.95986704889663    2.69506954598934
C         2.43517235649252    0.39299998023752    2.86309995164258
C         2.41375191251533   -2.72417683534777    1.11209549372741
C         2.04122572942978   -1.95054248724966    2.25715565179723
C         1.33636333654389   -3.39659599371827    0.43329368487570
C         2.33859290133094   -2.71451963831673   -1.68410303983887
C         1.31716719290121   -3.41625476954916   -0.97267909584031
C         2.17866983281268   -0.68328869453824   -3.05035561834937
C         1.69755275777628   -1.95454794618780   -2.70007125629974
C         1.64571729455590    1.65513052313809   -2.78904224265913
C         1.19530003319172    0.37062189205451   -3.16891603764092
C         1.48430386900520    3.04930585104602   -0.95832732240375
C         0.76975572214779    2.50884292763258   -2.09789007332295
C         1.50682791988375    2.58418908962050    1.40801892599397
C         0.81660860230799    3.12064377389832    0.26136093675784
C         1.06772041190921    0.64560110473952    2.89923730827339
C         0.66289316118971    1.90098211543051    2.35090415355333
C         0.66248605508257   -1.74803055649620    2.63865238152412
C         0.14240966453931   -0.44771903176265    2.99465636349776
C         0.07466224290895   -3.49823217498793    1.05149217773451
C        -0.26238204744016   -2.67795854209654    2.19556428309424
C        -1.11498454413865   -3.68550307653035    0.31533144918414
C         0.09785641442728   -3.25541124991995   -1.67924534530236
C         0.30022613129042   -2.23717648972209   -2.66907785454215
C        -1.14686550056985   -3.40533188298561   -1.07423356407130
C        -0.21520116013144    0.09533465482182   -3.08304462194755
C        -0.67829540295236   -1.26543095769498   -2.89800349855001
C        -0.59698853203315    2.30331010472930   -2.09286755194434
C        -1.12945893591749    1.12818503147470   -2.71513270427969
C        -0.61675150221853    3.22071988353620    0.20142196975954
C        -1.31496010849623    2.97313044103268   -1.04354971132655
C        -0.71042141422292    2.12914587220961    2.34531076102511
C        -1.34098781702957    2.97546592154232    1.36782171469845
C        -1.26466199207921   -0.19007131547961    2.92195402634928
C        -1.65791590287589    1.15465982856314    2.73104948934501
C        -1.66415554597118   -2.44077666342105    2.21107395950886
C        -2.19890644438166   -3.20834700585216    1.13123599302261
C        -2.22741166269817   -1.19487154357053    2.54621394083056
C        -3.37810600553177   -2.84614633416566    0.56534327267402
C        -2.26005767715674   -2.69272909109115   -1.64306059753845
C        -2.03477220752180   -1.55446741715433   -2.48711329066637
C        -3.46198212715937   -2.73612779601676   -0.88869029033045
C        -2.53630769227632    0.86203868387871   -2.57932013577692
C        -3.02670291277958   -0.50616609355071   -2.57038222525153
C        -2.68383089299934    2.81411396325094   -1.05427958642570
C        -3.31002799729955    1.87537403625922   -1.96560175478105
C        -2.72384960445643    2.67002224238701    1.36355464916529
C        -2.94033990090378    1.50456598872563    2.17075238270471
C        -3.44468673672518    2.81894122930908    0.17477262697597
C        -3.54385846130920   -0.85465137558018    2.01815702352288
C        -4.15867144824768   -1.79364611469680    1.15543286468490
C        -3.92894815605368    0.54871278188374    1.85485053948790
C        -4.49081550578774   -1.86397979959330   -1.16812699987592
C        -4.32408194602372   -0.75618121915896   -2.04357823966338
C        -5.03601904232865   -1.36817343334749    0.10997915681211
C        -4.57493698433949    1.56822902803907   -1.39879956561952
C        -4.58297910649319    2.03688860980408   -0.00065242285439
C        -4.87477866499881    0.93198357342225    0.83598834447321
C        -5.09021041346643    0.29993425803136   -1.44729828631936
C        -5.41037238038573   -0.06704581555217   -0.05003835283204
