76
C76 Isomer 13458 Symmetry C1
C         4.44267360608555   -1.98224827365728   -0.39144384078778
C         4.64669451139698   -0.78001297375494   -1.03460076222403
C         4.83183400799220    0.24468168633933   -0.01765935633017
C         4.36649203419854   -1.70084516227817    1.05347978650418
C         4.48884080653564   -0.30220283546960    1.25467601046982
C         3.30297207055244   -2.41666562476339    1.57562610000614
C         3.37022424936784   -2.81771816461043   -0.74636126546324
C         2.81964384187323   -3.29095901712990    0.50971010529382
C         2.47185229469488   -2.44535157289610   -1.77821136535798
C         3.68093896675479   -0.30295739876361   -1.97077036502913
C         2.59226252666144   -1.11377106239000   -2.35015585149474
C         4.20164247869115    1.40076953382186   -0.48395139946479
C         3.47344886512340    1.09452363904570   -1.70614589117869
C         3.60107186367644    2.21614550811454    0.46552365410430
C         3.52248526044328    0.35203267903135    2.08173033839083
C         3.25852989312731    1.69976424135293    1.75118258087496
C         2.35660827145384   -1.81429765885245    2.46255031440116
C         2.44980575523813   -0.39749470612495    2.69885830761582
C         1.09800572640416   -2.49890726559790    2.59422500074062
C         1.56004985713352   -3.78788527029369    0.55811574996082
C         0.71312395468856   -3.52040452985117    1.68547540924300
C         1.17855085258977   -3.08277697347129   -1.75175299476538
C         0.75161075040797   -3.83573854856888   -0.63000602264902
C         0.14051002827608   -2.52199743188695   -2.50299188217362
C         1.40860525190322   -0.40839969955053   -2.79952688378140
C         0.25744655907638   -1.18345133510298   -3.03114335495182
C         2.27605845615900    1.75278600659690   -1.99195337684619
C         1.21936032970455    1.00312002010333   -2.63270101264651
C         2.58930040087354    3.12699401571607    0.03941291723221
C         1.96549912204561    2.94111178442993   -1.21466831345696
C         2.06414334196393    2.38778619946971    2.15586874113738
C         1.79882845160741    3.42212550598497    1.19714672688989
C         1.25200028907613    0.32009138900901    3.10448108739312
C         1.01721611635876    1.71761994185656    2.79059324912777
C         0.02595524338575   -1.81953132544487    3.18163960196578
C         0.11570322008270   -0.41831249467626    3.43284216366217
C        -1.33359502658167   -2.15157190262120    2.91169153624612
C        -0.61805329943698   -3.65679778636295    1.23329172576600
C        -0.59744620473808   -3.84928480080191   -0.20202811724380
C        -1.70214301234266   -2.99438179791582    1.84162646077507
C        -1.22404688599222   -2.76847647785242   -2.21270824842346
C        -1.64645927794775   -3.34559662236049   -0.98919339111496
C        -1.03630017880110   -0.63548747081309   -3.14638723396008
C        -1.95969023178374   -1.66579798153445   -2.76098784189576
C        -0.12461107620696    1.54943733064393   -2.66542388015869
C        -1.29307234300852    0.72082659741206   -2.86963743933698
C         0.67443168858458    3.49520288349715   -1.34851938013818
C        -0.36242050696567    2.80255730342158   -2.08682012967584
C         0.52401092968274    3.91891034671177    1.05103044279584
C         0.06715926502801    4.15661746527800   -0.27410721846583
C        -0.34141047088232    2.23284572039555    2.62055746328561
C        -0.55534658418409    3.34275153086178    1.79754038624426
C        -1.21736861705452    0.12438185840515    3.38808512578497
C        -2.10300657810051   -0.97826744378065    3.18557389868557
C        -1.48995528005799    1.38974956479345    2.86364427090593
C        -3.32245788091286   -0.81286096904788    2.59214903587981
C        -2.91303877023375   -2.73609802375047    1.08203498141873
C        -2.88051019020608   -2.90698766147644   -0.36010121041765
C        -3.80651166173456   -1.78283229968417    1.63369661827933
C        -3.19150912217930   -1.36645290691697   -2.27623204098962
C        -3.73743301143202   -2.10283070633662   -1.15357981071152
C        -2.58250549469575    1.05919881253694   -2.32286097908818
C        -3.55898353163694    0.03215614678367   -2.16005834411006
C        -1.61592486387204    3.08504839528250   -1.45893631488438
C        -1.34343697843277    3.86715501057249   -0.31082630846777
C        -1.73248924625698    3.38973150887133    0.94557851415143
C        -2.68427418450073    2.17684202422887   -1.42953406638776
C        -2.74656396025530    1.57258838623799    2.16145327176916
C        -3.69090553396533    0.51561655918641    2.16380364758994
C        -2.78348294568141    2.46106203860312    1.03626252854574
C        -3.43912544507198    2.07849005753627   -0.19600458283581
C        -4.70713585524658   -1.06597600911060    0.80935205310710
C        -4.66634304971593   -1.21980816729453   -0.56158595353712
C        -4.52877159933253    0.11547387400212   -1.16742566994764
C        -4.59301866868673    0.36545928029455    1.10225987875954
C        -4.41424357076509    1.06578350636716   -0.11576758461138
