74
C74 Isomer 4749 Symmetry C1
C         4.10878477708404   -2.48139342792803    0.84383447505462
C         4.59911389081970   -1.15715420363920    1.09644502916602
C         3.71440880386913   -0.53685167259253    2.00294945318090
C         2.90102976475000   -2.68460536585205    1.59489682797585
C         2.64021691081562   -1.49118653650010    2.30239783191533
C         1.88567466923865   -3.13583885029763    0.69933771551661
C         3.75301964828881   -2.52128105204856   -0.52041210221909
C         2.40724112515825   -2.97491342875224   -0.63706154027198
C         4.83600507785935   -0.51653984257484   -0.16655337423182
C         4.16551448081503   -1.30928033159215   -1.17745349692625
C         4.71139976060559    0.86206294464527   -0.19911360463787
C         3.41036082491268    0.84145778059463    1.90052139661876
C         4.10002476651761    1.57501731845350    0.90252250431261
C         2.10029142944838    1.28794809374889    2.36218141459400
C         1.31418638259679   -1.05813287333669    2.50175803102567
C         1.04943165474169    0.34205053041883    2.67896343772118
C         0.55013775006055   -2.83449860044682    0.97754496845808
C         0.25313709031668   -1.90326366288610    2.01982930971563
C        -0.38101509680485   -2.92851799070559   -0.10547325533720
C         1.55765788925501   -2.42749946456565   -1.60708801837688
C         0.15773654882097   -2.69778044706083   -1.40576348628113
C         3.28109509553001   -0.69936517075160   -2.09944799319894
C         1.97807360478069   -1.27164501442380   -2.35431411405947
C         4.21512914102694    1.44368815907041   -1.39705766138036
C         3.39702224455702    0.71299387914796   -2.26699921385360
C         3.47732206621281    2.75270973827100    0.34216462828165
C         3.53078855031824    2.67730292061074   -1.06929330889068
C         1.68359690315559    2.57169709535018    1.99803147137278
C         2.32241009807230    3.26298221092398    0.89602290070368
C         0.31493107867424    2.95002041773862    2.01231410113809
C        -0.31765445125113    0.75524967034763    2.77625403718419
C        -0.69937716126947    2.10899645665799    2.47198572577089
C        -1.09402534761827   -1.52281163560795    2.19777634450590
C        -1.35685002368924   -0.23583392251115    2.76385522712194
C        -1.76469827796723   -2.73927262094788    0.16502902701016
C        -2.11885077437532   -2.21091784854600    1.44743178259977
C        -2.69023588877758   -2.56899759855546   -0.93873450502782
C        -0.71636107534468   -2.14973355568753   -2.33933591139376
C        -2.12776001309984   -2.14053567608071   -2.14923769158745
C         0.94514565760268   -0.43093739791808   -2.88920639048339
C        -0.33371849897372   -0.96516023526202   -3.01053006297521
C         2.25535594266110    1.55766117601290   -2.58961410296588
C         2.36223043476526    2.78536835865342   -1.84018761156436
C         1.01464748061166    1.01659300725698   -2.87570794720005
C         1.28423369611606    3.76824963873881    0.05737529211050
C         0.09150864299397    3.76327652271434    0.84727370312546
C         1.20242383566594    3.38385566582753   -1.30515709157320
C        -1.12971089507063    3.76953915781803    0.23315722874083
C        -2.05644310635739    2.42569295648221    2.05987835629940
C        -2.26285226500349    3.23929445756631    0.91812804474694
C        -2.70504075667311    0.19734603949798    2.79588742722875
C        -3.06950392098988    1.51266907771649    2.34087078061166
C        -3.47452440871505   -1.84311204676541    1.67955404568552
C        -3.74268402045218   -0.67089959526687    2.44543688091991
C        -4.03001103083991   -2.13749833085083   -0.67587691470476
C        -4.44411379037290   -1.92192820296780    0.65637995985329
C        -4.61712347877563   -1.12015062503621   -1.48337406769674
C        -2.63027100522993   -0.96952960489518   -2.82580202689286
C        -1.51937163798206   -0.16226229062712   -3.16135613867894
C        -3.83179936048298   -0.40624284749046   -2.39414783756629
C        -0.19387182052928    1.81191629075211   -2.66198419714547
C        -0.08036890109982    2.99259986365551   -1.85171620722837
C        -1.23160378945261    3.41911010902743   -1.15780349813484
C        -1.48469153612196    1.21734379375032   -2.84977162472564
C        -3.20771836195817    2.83612353311392   -0.06628378107810
C        -3.84538658545859    0.99098841983121   -2.03659814701920
C        -2.50440582226598    2.82855890089470   -1.32186691184076
C        -2.68915488748159    1.76678235415942   -2.23717116574952
C        -4.27705870746968    1.40688181408565    1.55065322550272
C        -4.77554326519062    0.09930997610102    1.76550117224424
C        -5.23668847708465   -0.67643669072306    0.69767291779094
C        -5.25195397575256   -0.14453457665299   -0.59451256187585
C        -4.26322049478701    1.94810688386585    0.22384458351666
C        -4.69762480795008    1.13109802484541   -0.86465369454738
