76
C76 Isomer 8685 Symmetry C1
C         5.34804192535768    0.11961164967033    0.18702760021906
C         5.14979127905712   -0.47782614588665   -1.03350500024425
C         4.42475298729196    0.48215598921954   -1.91300338867169
C         4.93682602386090    1.53485825279799    0.03574660519923
C         4.19795456265463    1.67150584176403   -1.19996889565167
C         4.36275135367796    1.91613937121942    1.21386049497156
C         4.70466502668773   -0.40524140842992    1.37154314165155
C         4.25106888461176    0.73048457275642    2.07975742117298
C         3.82491855540755   -1.53680516398570    1.29163830886064
C         4.47967812390576   -1.71047300024141   -1.09819693419063
C         3.81035294232024   -2.23582930423663    0.04628962107598
C         3.36390971356547   -0.21533059676237   -2.51987283841468
C         3.49505673043683   -1.58585568458384   -2.14437480892121
C         2.06429649026338    0.36492161320885   -2.58986754922421
C         2.89629115407108    2.25695375276510   -1.19542011399742
C         1.86491417785914    1.66861564629630   -2.02951013049244
C         3.12305405123253    2.61090011149359    1.23805084737905
C         2.43857940779237    2.87741859447906    0.02029957579602
C         2.99587273804513    0.79126362792374    2.67580454384211
C         2.36231915807495    2.03148428747685    2.29193541705522
C         2.58376696444041   -1.52325991395983    2.05896581731186
C         2.16420613867184   -0.34694031028579    2.76794330429691
C         1.52743330148393   -2.43850006240343    1.71113863178569
C         2.56046517727637   -2.77393139030707   -0.43521808313420
C         2.35022224554111   -2.30116078394344   -1.77433004562280
C         1.46349906659141   -2.97487544203466    0.37970526113914
C         0.92977995431694   -0.51052073509789   -2.64715958930137
C         1.08107315549561   -1.85701384755625   -2.15908472400872
C        -0.37793326105436    0.02799726377880   -2.72121493191193
C         0.52903714982975    2.16482862792357   -1.95956866946440
C        -0.56830163433336    1.42401270854131   -2.52502183279690
C         1.07610121239082    3.24551165918773    0.15391396188096
C         0.22116088928123    3.17284498776187   -0.99176326462543
C         0.98444263423454    2.21760283514778    2.37087174007667
C         0.44674786846173    3.15661949824585    1.43971705355463
C         0.77699115621107   -0.08447798525817    3.08122611685058
C         0.15349502939286    1.20184972059328    2.92586764456968
C         0.30167056992407   -2.34539396341475    2.37566738656880
C        -0.08431945808869   -1.17510275099216    3.07490551441379
C        -0.89642487767229   -2.96811680552439    1.88489457436793
C         0.18373105040186   -3.12600612401471   -0.26955981804812
C        -0.01554064521731   -2.50870207252253   -1.52870844219970
C        -0.96991483993346   -3.37787032730865    0.53855089948609
C        -1.50167470819542   -0.89592934909481   -2.67204395832889
C        -1.32763519930899   -2.17248919117388   -2.00022348213585
C        -2.78575606006700   -0.39117727188158   -2.80406099500693
C        -1.91946658499629    1.93374720387219   -2.44350574370783
C        -3.00311177665148    1.04474448063115   -2.69021467281497
C        -1.11083526346176    3.60072154704687   -0.84395259845648
C        -2.19154474175758    3.05020957674570   -1.63267395478409
C        -0.91936407307319    3.39723164320110    1.54936982661722
C        -1.61025603565914    3.90067123975013    0.43015754471637
C        -1.28507522668956    1.31485309742421    2.78899679644733
C        -1.79115202035946    2.48991385361863    2.22566534569850
C        -1.51714949230203   -1.06379037056983    3.02377034632075
C        -2.00973306229760   -2.28192992097797    2.46009000718998
C        -2.15718437745050    0.15383899018689    2.79549834267670
C        -3.24917079841824   -2.29472364635430    1.84624093291211
C        -2.23851007199608   -3.37880505149116   -0.08285348184252
C        -2.41369246306021   -2.81191197771505   -1.40996791319682
C        -3.38590168566582   -3.04147382285536    0.65153492792650
C        -3.92169137267436   -1.07206405959351   -2.22756176084761
C        -3.73304114298563   -2.24677992699729   -1.49444308676297
C        -4.31685795721640   -2.34056740268171   -0.20640768423472
C        -4.23246865102268    1.22172296360435   -2.04339905422122
C        -4.75979689306513   -0.07783066461164   -1.67592048459127
C        -3.38174328924020    3.08488298410482   -0.82201462268370
C        -2.97575295347095    3.44311101357231    0.49079177043823
C        -3.07937176420554    2.51968568852495    1.53904751412655
C        -4.33360033750415    2.08339735078116   -0.92364819658431
C        -3.45305366405782    0.15555687319323    2.10884774818617
C        -4.00388357546633   -1.07023499102981    1.71128854476773
C        -4.76111023600884   -1.18208935881763    0.47207682266059
C        -5.03003385692850   -0.04380604619645   -0.28866126882333
C        -3.88756268039663    1.35750126728405    1.40296313234419
C        -4.65930211816675    1.26046648499906    0.22224093339027
