78
C78 Isomer 20574 Symmetry C1
C         4.54433394741857   -0.40136739663201    1.05673854160559
C         4.54461338974403   -1.09027653263520   -0.12940027941084
C         3.88218810322485   -2.37604159173496    0.10017337674818
C         3.76836342746017   -1.17820329716959    2.03140625110204
C         3.33657361490231   -2.37850758621752    1.42521203376829
C         2.83431995479369   -0.30740102382385    2.58855123844869
C         4.10200990769971    0.94477033326138    1.08272665350535
C         3.12752886030153    1.03331512666550    2.11933808184408
C         3.87677753119542    1.63765760432520   -0.13797119916531
C         3.98970251285313   -0.49784549810279   -1.31630617729024
C         3.67030822742485    0.87238611390651   -1.35844168963525
C         3.04844743325702   -2.60750068839471   -0.98178354234091
C         3.10753268492293   -1.46122062218671   -1.87730742992474
C         1.86384654273875   -3.34996639767310   -0.80142970579575
C         2.01770297079878   -2.81821648921424    1.62834729541277
C         1.45497909101071   -3.60152039771484    0.55241678938201
C         1.49324689921587   -0.70747341729114    2.82442860923254
C         1.11710012064983   -2.04260183965808    2.45025625218597
C         0.50523771962541    0.33479842204223    2.97782002514154
C         2.12433422725670    2.00560280186696    2.10481992989991
C         0.81647812045131    1.68923515223376    2.61684559243640
C         3.13964748904783    2.81942794629132    0.03388202647014
C         2.28832165612501    3.03305238320325    1.15753753972121
C         2.50180587227971    3.40635474572385   -1.09038253151141
C         2.60887270685903    1.26190197899359   -2.27189842482906
C         2.12832441993804    2.59449644043245   -2.16843844180182
C         1.97505989590804   -1.11128952288242   -2.62149522108082
C         1.74288934962655    0.28795268692346   -2.87614682086283
C         0.89563369920756   -3.27009041590465   -1.85161533257688
C         0.93274567073834   -2.11128217601721   -2.72600395295314
C        -0.33354698718617   -3.92286504473831   -1.63387501568361
C         0.16578544879940   -4.09404506109715    0.75288029618314
C        -0.62102347193327   -4.44218071951506   -0.35206079956521
C        -0.27813425789328   -2.40945256862479    2.48587275440425
C        -0.69079749516873   -3.54863449085469    1.78247841415406
C        -0.86766961383795   -0.06778922039768    3.14877016367265
C        -1.27277955879738   -1.43774098537965    2.88852181844405
C        -1.84356469043742    0.93175369871553    3.16755890502595
C        -0.23946258345486    2.62200513705637    2.31862624799248
C        -1.52837555815266    2.26878621734342    2.73745096207705
C         1.15147275031969    3.80544346822317    0.71090744224104
C         1.33578142994398    4.11256883839428   -0.64320019012730
C        -0.13395771029317    3.58491659402247    1.24186197595299
C         0.76918359972383    2.95378565642434   -2.52362559719904
C         0.27529972617497    3.87813971096146   -1.55508629216407
C         0.43020636055415    0.68532238595132   -3.34979613963046
C        -0.07914683641093    2.02057640168188   -3.11521093045440
C        -0.27612770764323   -1.69299209845348   -3.28009092918104
C        -0.51621580245880   -0.31802161930674   -3.56711710313521
C        -1.57899801423671   -3.39169985550701   -2.12207597702004
C        -1.53731115255981   -2.29006348627850   -2.92379844986903
C        -2.00518347875757   -4.16926470932197   -0.03124153971908
C        -2.03881743590890   -3.67738325138030    1.29362893515686
C        -2.59121489938657   -3.45048812801297   -1.08378748595032
C        -2.60838194416638   -1.66953576494975    2.51894173485214
C        -2.95310140152143   -2.68432809576319    1.57069332706697
C        -3.19795096017318    0.66543053535019    2.75147680374560
C        -3.51723511608603   -0.59030184497921    2.28247315383859
C        -2.64867455137621    2.80038668842587    2.07010484753479
C        -3.66759001471125    1.76739828559970    2.01244743711725
C        -1.26048559741442    3.82409041725997    0.36527045859363
C        -1.04345432267439    3.82273175776598   -1.06723191701766
C        -2.52889663522044    3.40601686975728    0.81526588126549
C        -1.46528509593259    2.23540586006772   -2.89588091949315
C        -1.94268735973182    3.10056672308919   -1.88481619646830
C        -1.92713549525348   -0.09441718552052   -3.36028181638187
C        -2.53134031830340   -1.25785476703904   -2.81265889666865
C        -2.39065544158236    1.14026699389072   -2.98331192291218
C        -3.44288959833431   -2.33021883163055   -0.82506694622659
C        -3.72969466997705   -2.07485580298839    0.53054377788029
C        -4.10308732019551   -0.76297829373475    0.98865493634894
C        -3.43910994233320   -1.19574174349263   -1.73315747270701
C        -4.09842965115122    1.62770792011261    0.68706825517709
C        -3.47811456754674    2.72056036776693   -0.04409420207278
C        -3.15281466711334    2.51766201601047   -1.35207693076529
C        -3.39633665547856    1.24446816668324   -1.98493162767945
C        -4.24420187438035    0.32695086420158    0.10546450783771
C        -3.86477490701659    0.11576515159417   -1.27936722619695
