60
C60 Isomer 1364 Symmetry C1
C         3.95117125967065    0.48864934555462    0.49628608712942
C         3.87085164854614   -0.64919258726870   -0.25649868276840
C         3.43127274570056   -0.28471118138387   -1.61676878897320
C         3.63511019584710    1.61717791804356   -0.41561892533811
C         3.11032453408321    1.08341592995045   -1.65238276214448
C         2.93857692342620    2.53654325829568    0.31046405106379
C         3.15309295519570    0.61978021514191    1.67257329332950
C         2.68287120691728    1.97960774127573    1.64439532641252
C         2.26894100918533   -0.41879814958147    2.06373764047632
C         3.10861013729138   -1.76430673743385    0.16753650652819
C         2.30515881588282   -1.68338500800284    1.33658180463633
C         2.55793184158879   -1.27059855250104   -2.06072362048103
C         2.54891931233667   -2.31326540135063   -1.04054264964094
C         1.34620411409441   -0.88472051939594   -2.71320061674503
C         1.82761021508056    1.49908724672045   -2.12883069496042
C         0.95020835113809    0.50631392545565   -2.71813783535015
C         1.73605682599041    3.10341284287165   -0.19634602101439
C         1.23834873049177    2.65836812628620   -1.46511562219467
C         1.38717145909181    2.32273621455857    1.96542990458875
C         0.84136906758203    3.16787262555805    0.90704574570486
C         1.01451990626557   -0.00532698943506    2.70145177892676
C         0.54442915698911    1.37554324845752    2.61824585500361
C         0.03645552401624   -0.97463691778894    2.92461062410596
C         1.17001833115476   -2.59236152946536    1.39165613902287
C         0.11750131040223   -2.28807960443859    2.30806640721561
C         1.48805644135788   -3.17457246768602   -0.97451038274310
C         0.81613657381079   -3.39754628235672    0.28661363841596
C         0.35404033995601   -1.89799086880703   -2.74187184756001
C         0.51242864377118   -3.07777235568021   -1.99477396984115
C        -1.05415915536017   -1.58152623346831   -2.73033763887770
C        -0.46643277901534    0.80267794699745   -2.89411789018711
C        -1.47790369080705   -0.26322991826284   -2.86911032860443
C        -0.11445788775980    2.91263826804656   -1.67783229468036
C        -0.90598013288959    2.08785924305136   -2.53708360445892
C        -0.54029968034348    3.29880266696247    0.72673885635831
C        -0.98185024475284    3.42282274616430   -0.62579702833547
C        -0.82627871451133    1.67005339741834    2.56707618613789
C        -1.38857031224113    2.63958610154062    1.64761501635135
C        -1.36106907095185   -0.63581518323197    3.01698381103523
C        -1.80412172396217    0.64737422838135    2.74959767402218
C        -1.18416611499567   -2.75727334022376    2.09644920086216
C        -2.10766900555591   -1.71106277031772    2.46489776862224
C        -0.57788364304372   -3.66716565165984   -0.03642528520433
C        -0.76332831043344   -3.42747980988830   -1.41333452579801
C        -1.73622818764882   -2.51935549828060   -1.87213048969953
C        -1.59563564384694   -3.27078488682017    0.83923426802918
C        -3.01772846951127   -1.50568536867789    1.42387770927630
C        -2.75784863183227   -2.06973897858579   -0.97888532602240
C        -2.69615367316519   -2.47752250908584    0.37674284038587
C        -2.78887374274645   -0.01184212262986   -2.33967391858704
C        -3.31399617283370   -0.81454742803975   -1.28466411202783
C        -2.27454517374067    2.33557544559014   -2.17599711764586
C        -2.30451841778358    3.11851378692393   -0.94906315253637
C        -3.19360592112511    1.31968944565032   -2.07147008535126
C        -2.68646876578284    2.18291931642041    1.26224458381560
C        -2.91366592940510    0.88590114819000    1.86660359380550
C        -3.46657513460630   -0.18641777302112    1.12420697520160
C        -3.81027254563653    0.08325684930902   -0.24192842237276
C        -3.17169934665584    2.45647887370224   -0.02608973995222
C        -3.79740135392058    1.38205452225150   -0.73969990636720
