80
C80 Isomer 22365 Symmetry C1
C         3.15019141197399   -2.88451135250859    1.82472019925958
C         3.95159124481680   -1.76948952354041    1.90348886386188
C         4.58653234300092   -1.57768059160337    0.59871431939509
C         3.18051241815061   -3.36427816339108    0.43919266603860
C         3.98461598417525   -2.46715039996557   -0.33040495971775
C         1.87766131285475   -3.66757630658634    0.07530023751670
C         1.80519233113620   -2.81038431029102    2.25174131118656
C         1.04812730233519   -3.50652503317151    1.25901163166981
C         1.25474740892239   -1.61556839572632    2.77554454962572
C         3.41771795886158   -0.52532459339470    2.34342592344060
C         2.07099934449659   -0.42432061143838    2.79161316637374
C         4.63145011799527   -0.19925085456490    0.36766732285475
C         3.96501715870683    0.47458995023194    1.47284472916849
C         4.38797954687549    0.24609501401359   -0.92892259731466
C         3.46524044515831   -1.97374235100264   -1.56656464080028
C         3.83785583671374   -0.64757916639938   -1.90219052525109
C         1.33887385534545   -3.28748276176404   -1.19161130175967
C         2.16777680203927   -2.45559802569785   -2.02931106831600
C        -0.08213086450315   -3.29768270577938   -1.30621350392457
C        -0.30538144734480   -3.35236562208281    1.16669005368239
C        -0.88725118476424   -3.56602151281985   -0.13565167295720
C        -0.17167188185202   -1.50123826619958    2.75631807756396
C        -0.96796876654390   -2.50525720861444    2.11963516930298
C        -0.76628121833726   -0.22148106612594    3.01673364343181
C         1.44148714635358    0.86895930484102    2.72549403010436
C         0.01833641273742    0.98141683899048    2.92408576487637
C         3.33028608673756    1.69460902860859    1.29755509605956
C         2.16743152202787    1.95306132814806    2.12231622645055
C         3.82324461107470    1.54609288711778   -1.11113928885208
C         3.44840816259034    2.33012413624609   -0.00262840416743
C         3.01894938653891    0.17819640362849   -2.74571786810045
C         3.00154441147128    1.53085708282835   -2.27651405641400
C         1.46578927309947   -1.66504435845285   -2.96123406216058
C         1.87139706038869   -0.32946219846396   -3.28965477140352
C        -0.74708335097015   -2.55635716746068   -2.33523611642764
C         0.05670845978237   -1.69979849043928   -3.08608041922433
C        -2.15994735459415   -2.28142692018067   -2.32804089231653
C        -2.25334187871035   -3.48220208138109   -0.22049879849958
C        -2.92254430684291   -3.03425598804841   -1.40952396297097
C        -2.38156338438648   -2.38535964705965    2.00160346760362
C        -3.04651877434162   -3.06588914883761    0.93080567176542
C        -2.17024508395233   -0.14066355054386    2.93076615890595
C        -2.99672010289687   -1.23218089298904    2.51150433388254
C        -2.83558335606009    1.06464669024344    2.57437811385806
C        -0.66998481489199    2.22024226087691    2.62677670205858
C        -2.09372120185436    2.22835061343033    2.33319187028330
C         1.48192388058333    3.15555867904542    1.87633332077941
C         0.07951669039945    3.29599131652920    2.13773982158190
C         2.57373439839609    3.38381590350570   -0.30393823263705
C         1.79752078567163    3.92813981016042    0.73430388554752
C         1.84359186720806    2.34644823690365   -2.40121696837301
C         1.76092036384131    3.39761384380172   -1.48576622786826
C         0.69543253924682    0.48920030393287   -3.43836607637945
C        -0.41813387992276   -0.37961764799396   -3.40481395299558
C         0.61309563927695    1.79974651114166   -2.95102293614569
C        -2.65016452305321   -0.97873590423584   -2.72693479195579
C        -1.69332809669013    0.05731176083263   -3.05216868579936
C        -3.90674183346754   -0.55547002509256   -2.25223705991915
C        -4.20789608313504   -2.61431088157737   -1.00578180289573
C        -4.27834759784267   -2.62157985176151    0.46186568443468
C        -4.71296004637558   -1.40983185690209   -1.45033404857033
C        -4.19657106260685   -0.69474194189463    1.92593210360200
C        -4.03306867394153    0.72576439847992    1.85817293979455
C        -4.84421071985923   -1.37971728253986    0.88923160395594
C        -5.18593900327920   -0.65175831119577   -0.29475083902287
C        -4.03383127633408    0.76712274283240   -1.71533655405078
C        -4.32838688754463    1.42175318636778    0.66070352644663
C        -4.77448676624551    0.67113728419186   -0.46750134564487
C        -2.59684405990397    3.06358693743728    1.30834195878040
C        -3.54207077940980    2.54337575922604    0.37515034510352
C        -0.46141823708130    4.16035996230480    1.10489769845142
C         0.56725186601187    4.43051194318825    0.17934740070118
C         0.48289662818362    3.98318611625200   -1.15557867752214
C        -1.70458785815236    3.89882592196334    0.58037048458462
C        -0.68508913079979    2.28405665344704   -2.54165942285456
C        -1.83787293748374    1.42871099612520   -2.64337699555576
C        -3.03983481260512    1.74125771348690   -1.90120264470145
C        -2.99336718771546    2.76338978173150   -0.93168603818589
C        -0.72919843831890    3.43103964757662   -1.65519433593107
C        -1.85526115056491    3.60176602004951   -0.81850352639759
