78
C78 Isomer 11152 Symmetry C1
C         4.99320357413283   -1.00275838108121    0.24116434524076
C         4.52103449433303   -1.06141713213649    1.52446205407381
C         3.73519001539387   -2.29170534736878    1.67831134280288
C         4.48554461377888   -2.20621760730431   -0.46069079902656
C         3.58224358442518   -2.90817338198317    0.40638589455060
C         4.05020752082706   -1.77919353935122   -1.68823405385327
C         4.71050526355882    0.15903299214982   -0.55035749017270
C         4.27204163912124   -0.33301695980256   -1.80795849903236
C         4.01725833961469    1.26280783122061    0.01112913575706
C         3.77682072935595    0.01300865627007    2.10349155213340
C         3.55100538900285    1.20172071172188    1.38561142508923
C         2.63747514915533   -1.98311653906272    2.46407918699447
C         2.67983343002455   -0.57630813474627    2.80428908921550
C         1.39852314399703   -2.61138175654738    2.21124174696195
C         2.27006144586404   -3.23890743668317   -0.02837513951759
C         1.22450474650311   -3.28867712534652    0.96811015015750
C         2.73094613603860   -2.06754599353416   -2.14696951695339
C         1.86120402219166   -2.85100688451381   -1.36275419580396
C         3.15725898784165    0.19769523875659   -2.45057348470557
C         2.22437135475249   -0.86744450541806   -2.73513704557487
C         3.21992340204185    2.04174070263572   -0.90129970293170
C         2.66432189917827    1.46399220507639   -2.09400054237377
C         2.51056396924985    3.11416095328429   -0.33716322418891
C         2.41560303300299    1.99940731827949    1.82477586752361
C         2.09409242841423    3.10437001009238    1.03880660319274
C         1.49951886707510    0.11114844601544    3.10024654024861
C         1.39467933913759    1.48637831457795    2.71389468920588
C         0.28313430733928   -2.06217955473654    2.91000157369657
C         0.34092307705973   -0.69811495003907    3.38042470580545
C        -0.95989979428939   -2.63519145232246    2.64164439463315
C        -0.10920797167527   -3.57958844383751    0.54598487082439
C        -1.14648687100365   -3.45471743170053    1.48775795700293
C         0.47218220934104   -2.74386674826288   -1.68797731504592
C        -0.46183162938543   -3.42328631531533   -0.84113235399972
C         0.85997645551591   -0.61371758661723   -2.84606093535707
C        -0.01732689906467   -1.69975201597368   -2.52933013391870
C         1.32300590091504    1.78245111068203   -2.51991429737779
C         0.38679436885080    0.74494895703356   -2.85944811900738
C         1.49092105048094    3.72479164563475   -1.07428239170109
C         0.80917431683763    3.01742436974588   -2.08943955707162
C         0.81373066615494    3.77104263173297    1.12721922765120
C         0.49710921494074    4.24402038047908   -0.15992955810117
C         0.10712919764654    2.12809806775870    2.79783128246227
C        -0.20613938304903    3.27734421590048    1.97417520923405
C        -0.86374415629054   -0.02556985556613    3.57009932305957
C        -0.97445538896413    1.36599239865907    3.28434330135751
C        -2.18887715006408   -1.94321925854027    2.87234459010085
C        -2.13742426161887   -0.64279072007519    3.31808067309583
C        -2.52040648323357   -3.35270314374232    1.10390832208684
C        -3.16215113588336   -2.33540517824124    1.90190002102680
C        -1.80192039037078   -3.40051575637598   -1.21541454304201
C        -2.86465163076599   -3.49227455794068   -0.23174992791144
C        -1.41500749754822   -1.50122306296537   -2.72463374755521
C        -2.26176216463648   -2.53784124090066   -2.26704693378415
C        -1.02396365553093    0.97141600404829   -2.76906425540188
C        -1.92217476172066   -0.15219497006247   -2.86127117314366
C        -0.59792884803919    3.22509482770362   -1.91216937047217
C        -0.77720349889518    4.03815672007335   -0.72318860477465
C        -1.51371096340748    2.22511451813595   -2.23466210911429
C        -1.53785530847569    3.45481100971262    1.52320309410778
C        -1.81477311892393    3.75901420302445    0.15116380861793
C        -2.32928440287964    1.58080468958127    2.85076707305080
C        -3.03028193264113    0.32732833399740    2.77475351363501
C        -2.59055632047277    2.57540515358459    1.94004212320417
C        -4.06343844007921   -1.39682469123671    1.34466633018080
C        -3.92428488445188    0.00570010119653    1.73054751064366
C        -3.98474463901581   -2.78700835671775   -0.70346720766855
C        -3.63617835611034   -2.28719907978839   -2.02624996825837
C        -4.55809583074995   -1.71462078379542    0.03675132807512
C        -3.28750622942553    0.06647329882028   -2.53245780111571
C        -4.13931561775150   -1.00431702169871   -2.15570054299818
C        -4.78735714433292   -0.66133347288846   -0.89830810040580
C        -2.77549227291404    2.24547651695044   -1.51879302423503
C        -2.89274269804591    2.93854159549822   -0.29469105230276
C        -3.45896253621950    2.27313989927318    0.84422205254209
C        -4.13429524328462    1.04464867116549    0.73999495654967
C        -3.63560116984431    1.16608545851602   -1.68231140883458
C        -4.43797660203976    0.65653821523198   -0.59461873905886
