76
C76 Isomer 13833 Symmetry C1
C         4.44825352654179   -1.57984226866771    1.17212365628247
C         4.90651365688636   -0.68757939099538    0.22747168087593
C         4.77773174312393    0.66109452647016    0.76938815634516
C         3.86723371086665   -0.79125370054265    2.26320952529875
C         4.00408139749065    0.59430454753349    1.95828284758634
C         2.61902572070401   -1.31940848479932    2.53855886105731
C         3.53645707488081   -2.60356802044498    0.80957630774360
C         2.49771750253101   -2.56080878965873    1.78698229622667
C         3.18828167089831   -2.80644788749882   -0.55621092660750
C         4.37792135676686   -0.69936657892261   -1.10614156724388
C         3.55411682116582   -1.77577284683460   -1.51904684244410
C         4.36223942220939    1.47662076226714   -0.29162415032238
C         4.05906122449759    0.65718119540048   -1.44955646103692
C         3.52205478907752    2.52586414971748    0.01115973805031
C         2.88247311329119    1.45225496485086    2.14719959935408
C         2.85588834964297    2.56485180889911    1.28045145048108
C         1.46179033470460   -0.49725655599398    2.74736314243552
C         1.59808874537093    0.92202065685512    2.59206742098052
C         0.18480242765136   -1.13440405819215    2.68022721590029
C         1.25463454429225   -3.11649876877273    1.56258836654590
C         0.11015274704665   -2.50596613607665    2.20499692950842
C         1.98004937474678   -3.50812874028041   -0.74484281149642
C         1.10753470453572   -3.80955129860998    0.33358766174951
C         1.12858214012200   -3.29556135422846   -1.89154835964451
C         2.59301487349403   -1.44572859172877   -2.50979727941690
C         1.40400515112911   -2.22369978468545   -2.70722961017926
C         2.93849852006685    0.98538135122822   -2.24513151387110
C         2.26587997652527   -0.10385249298517   -2.82893257825082
C         2.59008602578949    3.01252170817585   -0.96270971789688
C         2.17969541150598    2.20127660630306   -2.03236257019298
C         1.67746118494217    3.34321571895409    1.12683162508195
C         1.63316234363252    3.78303347863492   -0.23939853769192
C         0.39799915579294    1.70599539888368    2.44647009816171
C         0.49166213944919    3.01575127445790    1.80976582946022
C        -1.00829881936996   -0.34284346683229    2.72330808016965
C        -0.88764112427838    1.08916774383350    2.58852935315417
C        -2.29376301843592   -0.99176633816106    2.54717085119077
C        -1.12481457918312   -3.02340465643449    1.84799666652300
C        -2.33733257639319   -2.32215864907373    2.08354869886582
C        -0.20824432812262   -4.00410422521884   -0.18976685206175
C        -0.23195505157968   -3.58066359098011   -1.56061326630359
C        -1.28637689315922   -3.76795457350627    0.61978836953203
C        -1.31251703763436   -2.80772559910430   -2.02283573409554
C         0.33187819102780   -1.36207658129059   -3.09822642655590
C         0.86381973026235   -0.03469521208155   -3.15513832995299
C        -1.00069669677688   -1.60286470149161   -2.76903640967493
C         0.78030552701307    2.27900920256983   -2.45065708109107
C         0.08444892960443    1.09262155449625   -2.91832675897955
C         0.43341954768001    4.09025866944401   -0.83399705316013
C        -0.01562402144085    3.30854731832290   -1.95720820358492
C        -0.66989759244391    3.64331198825982    1.29628510721935
C        -0.66182402211626    4.27249727241187    0.03277036170528
C        -2.07566380966031    1.82711981575604    2.17906946780511
C        -1.95384894749038    3.03379157441498    1.46884980794453
C        -3.46371615184785   -0.22758519124529    2.26247014407768
C        -3.30509947414091    1.17773493744229    1.97050297071557
C        -4.52030799549722   -0.73517339935508    1.49426757897006
C        -3.28827897336609   -2.74276844053035    1.08079807153693
C        -2.53059846695485   -3.38527560255207    0.04230577405223
C        -2.54206222313769   -2.87057480629386   -1.27786192694904
C        -4.36242476909957   -1.93879825070731    0.74907327500213
C        -3.53584669819166   -1.89614992613954   -1.55999146547286
C        -4.54000966214351   -1.61094402567890   -0.63733304436276
C        -1.86780211341124   -0.44745430604512   -2.71251125410127
C        -1.34376055355999    0.89848217142687   -2.73239750193926
C        -3.16983648419622   -0.65197556881459   -2.23922699335856
C        -1.45181549423908    3.14859594465128   -1.80994733932710
C        -1.85047769203451    3.85485205710615   -0.66296361280777
C        -2.70810848302585    3.23075914500631    0.26667302372880
C        -2.12689352910412    1.94867764253705   -2.15941956633512
C        -4.14705191562626    1.49359756886919    0.86341536086989
C        -4.88556192438959    0.32358417331830    0.55653037185905
C        -4.82857445315087   -0.18341001734040   -0.72403910162912
C        -3.94972164097966    0.40334883313226   -1.69742513325909
C        -3.62521951832832    2.28099763216945   -0.19089771529168
C        -3.37735607245025    1.66973948499594   -1.48230204745823
