80
C80 Isomer 8516 Symmetry C1
C         4.65594559818207   -1.61943439627077    1.47588771487835
C         5.02252078454442   -0.76425900195411    0.43822542543134
C         4.38996553923946   -1.21645928050270   -0.78293578678239
C         3.77217536751707   -2.61246769095433    0.96029921066141
C         3.58397704731628   -2.36656226424330   -0.44275831601450
C         2.62241087837369   -2.58559870555810    1.76803841182233
C         3.92515983274622   -0.83770996131708    2.47657135824685
C         2.68939547135025   -1.47371938449216    2.70595109534337
C         4.77378158979534    0.58317499897581    0.89766018122789
C         3.96222352963306    0.52590710003508    2.12249925187655
C         4.47327196683551    1.50091949858887   -0.04911510091807
C         3.91946572822725   -0.28802993625494   -1.71765585606129
C         4.23973193213728    1.09213137602624   -1.43592474030501
C         2.72260959795227   -0.57679561399155   -2.48176201427499
C         2.32779094522796   -2.55358093836220   -1.03311480510322
C         1.94377813551363   -1.75146515771785   -2.16818736278389
C         1.39098299388348   -2.91456119011944    1.20614155883848
C         1.26413503674392   -3.08360766314636   -0.20242386592903
C         0.25086660130612   -2.53831460568654    1.98730447245621
C         1.53784709616825   -0.70473897449305    2.95285116686884
C         0.26546772905444   -1.36443467771766    2.79610975123570
C         2.79352208287214    1.31929216148016    2.24530175354370
C         1.61328176344838    0.71468523349879    2.81755697396619
C         3.54359699362619    2.57281752463606    0.26607875323789
C         2.62628966540535    2.43668570892930    1.33638266331766
C         3.49287322194430    2.11081754185305   -1.99712720961237
C         3.10160019154935    3.06921843220602   -0.95940867729916
C         2.04720964722076    0.52349191162816   -3.12821141720675
C         2.37209677779242    1.87379444874598   -2.81187831986142
C         0.73393032192283    0.35618920396566   -3.56141779915153
C         0.60439637103866   -1.91656819461252   -2.67984605251113
C         0.08132263115631   -0.89870383908481   -3.49153613340316
C        -0.03979126554493   -3.28155436422059   -0.73350438288041
C        -0.36337727115257   -2.79158657693757   -2.04377286030531
C        -0.96211376934603   -3.01367723381187    1.52581833957121
C        -1.08689230245111   -3.49894267074144    0.18370668750929
C        -2.19205770500181   -2.47880159135580    1.96814940674913
C        -0.94872820428973   -0.66745771872523    3.02545035268207
C        -2.22148429308519   -1.26871910339981    2.68097555752601
C         0.38182221304077    1.43398958669514    2.84149039747178
C        -0.85206389543091    0.75976619408285    3.19345690503328
C         1.33005125592271    3.00518151308430    1.16170547055089
C         0.31956098759059    2.66523084528759    2.12156028319291
C         1.77273223213647    3.42356897117536   -1.18906150904086
C         1.33752559517446    2.77923129038648   -2.40718207274513
C         0.88012552518987    3.48980744534203   -0.11375268963255
C        -0.27206858101746    1.36966253161779   -3.41246733604393
C        -0.02060736046974    2.49735448105645   -2.61625830300238
C        -1.32350708227114   -0.64331329526393   -3.58596235775962
C        -1.54786542870633    0.76324393374837   -3.39994148341787
C        -1.73228228403762   -2.67612625766129   -2.36347859573185
C        -2.21888997069114   -1.54751439389435   -3.09939850215490
C        -2.46178562299544   -3.38886891568305   -0.16116921285297
C        -3.17344000657887   -2.83238249540351    0.97190045130388
C        -2.78956176202485   -3.00114174670090   -1.44760051933530
C        -4.28619608288650   -2.05849004520149    0.79439961325533
C        -3.42976214512081   -0.47456282301639    2.55721376794786
C        -4.46120589502981   -0.89258038398479    1.64313253060332
C        -2.05258012131839    1.49326507877715    3.16265663383041
C        -3.33249243131997    0.89697453370309    2.81486555466285
C        -0.92750178996880    3.27330075831134    1.93944518701167
C        -2.03979368722214    2.79773652458468    2.63361150903680
C        -0.52899675267751    3.49987143906713   -0.45171797787802
C        -1.02911157908687    2.93201292122585   -1.69009099278628
C        -1.38788402059402    3.63385514405204    0.61460892340105
C        -2.60603893266275    1.24407704216469   -2.61388902165061
C        -2.34625147171464    2.37717811565964   -1.74276549567336
C        -3.46928924582807   -1.08462895014831   -2.56364147163676
C        -3.89410763218686   -2.08610280508870   -1.63684093187858
C        -4.69261995421665   -1.72214843593955   -0.55726094160713
C        -3.67339301409757    0.30217354804773   -2.32123481057868
C        -5.14357695763214    0.05848028705891    0.87177284368835
C        -5.15531869597941   -0.39189438801007   -0.50907126766376
C        -4.58559698015108    0.62682695323648   -1.28972521447335
C        -4.05321307470669    1.85205041253191    2.00055681191736
C        -3.21157619793180    2.95315000340501    1.79814251590508
C        -2.78028476486685    3.31562734230533    0.50682248279536
C        -3.26670951693936    2.63140655429367   -0.64687877885361
C        -4.78515239548034    1.41864782060415    0.89228360050431
C        -4.37127073406561    1.78470925959376   -0.44161538230184
