74
C74 Isomer 11343 Symmetry C1
C         4.47345955410543   -1.00798505262309    1.11020034485324
C         4.45278157089370   -1.52355583099518   -0.16493676051461
C         4.59461906115084   -0.40611188687779   -1.11123966639533
C         4.68548975517747    0.44164161508838    1.01514200620438
C         4.74123218376507    0.80030315430166   -0.36999019356211
C         3.76374187645189    1.05300151439918    1.85686463673041
C         3.37962180346470   -1.25417562143531    1.98924897427310
C         2.97486684537083    0.00641829645066    2.51276288625568
C         2.40077080225232   -2.21666432683382    1.67045618437430
C         3.38214434822950   -2.35270346368657   -0.57479483507006
C         2.45274207260515   -2.83912083602043    0.37576578802502
C         3.57687380421246   -0.55709103144111   -2.05348477517738
C         2.87637206531853   -1.80392219970853   -1.79397317569309
C         2.83713982293404    0.55943969039548   -2.52817965867790
C         4.01234052085055    1.91187876554787   -0.80101877638696
C         3.19096310418811    1.81267125273572   -1.96900219625210
C         3.13896752971111    2.28247321111469    1.47063848189899
C         3.30968184183066    2.74295334610937    0.14589025258234
C         1.91250773861451    2.57222883362890    2.08914371883456
C         1.65502047948300    0.24558867629880    2.92882087501283
C         1.23382678121068    1.58733823056732    2.87746979382566
C         1.10511450796117   -2.06513953579006    2.29826181988602
C         0.67079347516796   -0.82183765445696    2.87771372082053
C         0.14234135622567   -3.00009268050936    1.93150892073891
C         1.28172065319161   -3.43519021668160   -0.18163379730334
C         0.29700936391052   -3.81676066189141    0.75433112552149
C         1.55278655820281   -2.01087831471614   -2.18674144158610
C         0.86184222953600   -3.08790644758832   -1.51592048997932
C         1.48853305121371    0.32775084868471   -2.99186891259859
C         0.83942332536223   -0.94715914319797   -2.84596488479212
C         0.64663874769274    1.44999155065119   -3.11791183054444
C         2.19061861792105    2.83332974178647   -1.84384299210004
C         2.20752273325174    3.37702822693165   -0.52894506674155
C         0.99111739331814    2.69553597759028   -2.49672666934176
C         0.91125443635891    3.37835797545968    1.47587674239184
C         0.98645882427438    3.71725161885385    0.11190437851407
C        -0.14509310740210    1.89638977757346    2.87991027188693
C        -0.34870396066191    3.04006361719697    2.05883916841177
C        -0.72687125324832   -0.50775618880313    2.93245283792238
C        -1.11968258084168    0.88429000612762    2.99230069242088
C        -1.25895907768228   -2.74639889532356    2.12049753697977
C        -1.71216710445421   -1.46437179065040    2.48787829487263
C        -0.99544140906121   -4.17472227230217    0.32628834807743
C        -1.97768194476218   -3.52712179882729    1.19443254844707
C        -0.48356357614931   -3.28811151465311   -1.87063286391768
C        -1.37714997695107   -3.96070655493452   -0.99072885048271
C        -0.60095046270588   -1.02659886371053   -2.89379919372937
C        -1.21298422499313   -2.20917192965339   -2.46638859458348
C        -0.77306566870804    1.36041737730850   -3.12794656593388
C        -1.44372015479243    0.14758612376693   -2.95908765296194
C        -0.19191151280018    3.29959177053613   -1.96728328456304
C        -0.26047158820254    3.75226751649263   -0.63704870545793
C        -1.27855705355662    2.58100504348936   -2.55425931304422
C        -1.57960423772326    3.29224150977894    1.43407355231348
C        -1.55104859816940    3.67491181716118    0.03351653205968
C        -2.40912811567235    1.28190081371134    2.62747852477502
C        -2.65815391920197    2.53053315697109    1.96302159087261
C        -2.96553350567260   -1.03289372421835    1.91179883615644
C        -3.35305682331135    0.30803603006426    2.13019998572325
C        -2.97153816383433   -2.93834986045640    0.39007790048680
C        -2.64049778403771   -3.23920580910065   -0.97226439547341
C        -2.53689074451934   -2.18248260831257   -1.87376428949733
C        -3.48169131147362   -1.66818354121755    0.72445705475428
C        -2.76931878623076    0.17042011019206   -2.36379599699462
C        -3.23528140852493   -0.97293932058406   -1.64562416719292
C        -3.92283562943562   -0.82918652574856   -0.37816838707486
C        -2.51196054838578    2.62418826013713   -1.98530568407989
C        -2.68685995398565    3.32052333288103   -0.73714555375887
C        -3.32700500588105    1.42678264684940   -2.00053526402820
C        -3.83342040456971    2.34395308961468    1.18744063341140
C        -4.24488142628366    0.94549552125189    1.27272191017770
C        -4.42667207664062    0.43974697453971   -0.05139499022296
C        -3.82574585175084    2.71210430722249   -0.14100890729848
C        -4.21423988313156    1.52986477348726   -0.92802808748032
