80
C80 Isomer 18433 Symmetry C1
C         4.88526557231520   -1.66569275904025    0.68269704893279
C         4.48654561141333   -2.32045593345632   -0.47562444552789
C         3.44824579192196   -3.26223212802734   -0.11471773187028
C         3.98168618186516   -2.09703141579590    1.76028350479104
C         3.07677518474385   -3.05613809162682    1.24940707545281
C         3.50839895220394   -0.97017240905736    2.43698946578301
C         4.98230604780977   -0.25684035294775    0.72519293320829
C         4.26927725375476    0.15887938561637    1.92678078808693
C         4.76246201762083    0.47167346872915   -0.45382983847680
C         4.01139858720162   -1.56939245149856   -1.60741220961121
C         4.18724161251815   -0.18999328159070   -1.60263773998606
C         2.44616867715764   -3.16730809519148   -1.08896052516886
C         2.73680946735349   -2.08973620878173   -2.01031021540480
C         1.13604864739679   -3.41767330986572   -0.71916065595150
C         1.71707356204337   -2.97585681483211    1.61341429041375
C         0.77630665719450   -3.47829901118990    0.66208725936969
C         2.13002756366350   -0.83666825479120    2.79368302261967
C         1.23468374601763   -1.92377167583457    2.46639671638180
C         1.59714821162265    0.48937670502094    2.95078461030987
C         3.71196211508899    1.39773528893711    1.99153082563653
C         2.42597191213060    1.58580179089347    2.61585907783771
C         4.15567794780324    1.76901562593265   -0.37476917383203
C         3.77738150262482    2.28810886655512    0.85823054467085
C         3.14777189987392    0.65086287865845   -2.12937611229447
C         3.23399265960897    1.91374953578462   -1.46837377494541
C         1.68148764167233   -1.26356942083566   -2.45725627740077
C         1.88934127115683    0.15224599374312   -2.53945444722176
C         0.14442761759632   -2.96773929613719   -1.65122368916319
C         0.33563389123267   -1.75864312514696   -2.38814642581473
C        -1.11701060520699   -3.42916949760623   -1.39571956683936
C        -0.59150046178524   -3.50069924743755    0.99888586253629
C        -1.45289840533371   -3.89621803283971   -0.06408775267753
C        -0.17610011364556   -1.73812529240160    2.61279953020331
C        -1.10770128495591   -2.69080912110675    2.05039118978898
C         0.17843328444977    0.71534168876367    2.99642071647667
C        -0.66590470667204   -0.44577957719520    3.01076345148027
C        -0.38413588055228    2.00413742241018    2.69551939891890
C         1.86108033075529    2.75850274236168    2.07605635738865
C         2.65307627918944    3.14209942649636    0.93181007852897
C         0.48118376252517    3.01937107183470    2.15133241515559
C         2.14027971349301    2.76910471293506   -1.42580309055152
C         1.97628562517514    3.55807307129190   -0.22575651466883
C         0.74891248176363    1.03075003566134   -2.57493900645039
C         0.96180059113927    2.39807061810476   -2.18098535999336
C        -0.80783040154205   -0.92264632728015   -2.58517297885777
C        -0.59445614362487    0.50004606721749   -2.65796627694172
C        -2.26411518848971   -2.81416051387342   -1.97000665320903
C        -2.14773735791460   -1.46446806376561   -2.38277145718551
C        -2.82205562292288   -3.82865691112356    0.06481308812299
C        -3.35943827595236   -3.28397415744274   -1.18570672417979
C        -2.54097121361712   -2.48763292078639    2.11419919640748
C        -3.41017403996584   -3.13691515896952    1.17230668670035
C        -2.04933095453669   -0.23682536701867    3.00806191460053
C        -2.99130204793285   -1.24923135147145    2.61843883220803
C        -1.79622472213023    2.15616093483428    2.47855030100843
C        -2.60530149672438    1.04640411840150    2.76514048997872
C        -2.31248582120690    3.14585722517415    1.54849966319109
C        -0.01071695160468    3.95965425540976    1.23072058102120
C         0.73797989928358    4.17200794764385    0.00688253312851
C        -1.39948813828176    4.01651676205715    0.91377940485799
C        -0.15703188489736    3.23073950837917   -2.04886982552294
C        -0.17770868956016    4.24668428685292   -1.04536728515687
C        -1.49760036152915    4.27894764988156   -0.48260271693724
C        -1.73015055678326    1.36389575013897   -2.44495676900171
C        -1.48626563486452    2.72434044878085   -2.20278802041550
C        -2.31789770735330    3.46682293077684   -1.28072458343528
C        -3.26300481122094   -0.58997153088814   -2.06853197588897
C        -3.02360563263968    0.82436929167485   -2.03715489685834
C        -4.37311446615238   -2.43166924729354   -0.84309019027598
C        -4.51295922242558   -2.43104794167746    0.63048195977325
C        -4.36149042073312   -1.09405805153643   -1.30377133968149
C        -4.14714000771056   -0.57752590174049    2.11206756145042
C        -3.89205842408234    0.83365403261722    2.15945972425226
C        -4.82390262102861   -1.12648244990636    1.01270556737870
C        -4.89597764335094   -0.32517265404611   -0.20396051325740
C        -3.45175422586373    2.78662532259929    0.78076144217767
C        -3.36791166974875    2.83385988766670   -0.65253378878140
C        -3.84295376780070    1.60578937334818   -1.19207937099556
C        -4.24240149672563    1.64484148551579    1.09493103690334
C        -4.62074069331180    1.00533574435340   -0.14851622670008
