66
C66 Isomer 433 Symmetry C1
C         4.68320047908442    1.39073376957819    0.25661313088610
C         4.34907569927595    1.62718110405578   -1.04933627555245
C         3.98352689287928    0.35649306680959   -1.69130915109558
C         4.52852981017848   -0.04605808269304    0.50168065730261
C         4.09423854824653   -0.69088145559285   -0.72135973835752
C         3.69632130944414   -0.16476179785920    1.61053673202424
C         3.73156226339219    2.12068244149963    1.10406765088060
C         3.19588117052178    1.17571753599383    1.97279459180889
C         3.19528052128385    2.52855834107770   -1.08989490879730
C         2.79391519291242    2.81992732694110    0.25650553096446
C         2.73527861541745    0.57484262207916   -2.28415473343033
C         2.25738395459795    1.90953581599948   -1.91765543439226
C         1.79910782907246   -0.47182161639600   -2.39460559590876
C         3.10133294835668   -1.69484813740293   -0.67237439570638
C         2.10690882993006   -1.70771205413218   -1.73356151418393
C         2.85517722792836   -1.30166803705590    1.75295881654913
C         2.67649331156167   -2.18236312057721    0.63152288435632
C         1.79961913691387   -1.15751018007836    2.67425461562411
C         1.86341001594129    1.31000249224560    2.44491630851994
C         1.31765259934488    0.14504724757425    3.00920321350199
C         1.41442849085111    2.82248172922755    0.57414513740745
C         0.97480292663790    2.24805953614118    1.81804101386642
C         0.88041219701077    2.10219964108643   -1.70200175788790
C         0.45204302293666    2.73052504747337   -0.49951746669623
C         0.43762960755403   -0.10585316380741   -2.67456267918864
C        -0.02128587506485    1.21338072558844   -2.36330440380731
C        -0.55016153491036   -1.14243264420057   -2.70043775372405
C         1.06190780714644   -2.65488123522791   -1.64897993244020
C        -0.24894561564191   -2.39459694835633   -2.15001995121466
C         1.56546420193711   -3.06129942623809    0.68739969171529
C         0.92011841660912   -3.44000606111660   -0.48906130179347
C         0.64791639114215   -2.01021477809056    2.66051211048279
C         0.52316065306417   -2.97831783201910    1.70209080696652
C        -0.08331700261061    0.06526612318120    3.24750112756139
C        -0.52516139173058   -1.26581434724448    3.04134608203465
C        -0.42614658524826    2.18408833575574    2.09023634069378
C        -0.91994242235916    1.15620971170900    2.95784162936483
C        -0.94441557551674    2.78449783101907   -0.21918277625749
C        -1.35590716241862    2.75639628362025    1.15183789379902
C        -1.41286198035227    1.53413137323303   -2.28595908904636
C        -1.87547946259653    2.46006299938644   -1.27412799122537
C        -1.90788181006129   -0.79060665738470   -2.75047711986955
C        -2.31648824615595    0.56209814306458   -2.78509715858096
C        -2.92285111896657   -1.54173439822905   -2.01768219482525
C        -1.22880992441463   -3.00825120207205   -1.26209670941422
C        -0.50498417696431   -3.59009801582488   -0.22652618606962
C        -0.78278634811645   -3.22935551272957    1.10147639556832
C        -2.48388085224789   -2.42126586611031   -0.98990098250009
C        -1.80628686211638   -1.54220543746319    2.50602356665801
C        -1.94358490851850   -2.47341168673168    1.40493602792542
C        -2.90756742059282   -2.16852451973838    0.36325162899950
C        -2.29272855364948    0.81988005580217    2.94459035645971
C        -2.73531157282977   -0.50632717231765    2.62986230944770
C        -2.74940358886615    2.65435469902688    1.42829500687351
C        -3.21272632273829    1.71060646613275    2.38402534542137
C        -3.27200469259918    2.50210038440685   -0.96361537026032
C        -3.68495505885372    2.64672112337417    0.36821493767067
C        -3.69076660617532    0.57847048030360   -2.39049784970221
C        -4.01840036940362   -0.72785567231664   -1.81932103242405
C        -4.17788936368978    1.53979381856811   -1.55448260261503
C        -3.96993502545235   -1.18027488608744    0.59315091711506
C        -3.91078536594034   -0.41240048795706    1.79633880857623
C        -4.31979746979022    0.95121876131379    1.83289301696439
C        -4.70709137696096    1.60306989905846    0.65878303712827
C        -4.59892368856727   -0.53750889044937   -0.52746504127876
C        -4.93331473905204    0.86352639117333   -0.48327822287247
