60
C60 Isomer 1311 Symmetry C1
C         2.94849082449343   -2.80194084434632    0.55397339408948
C         2.77010173772489   -2.13322517716613    1.74796002872059
C         3.48194632274412   -0.86029205485541    1.68272251232732
C         3.72676279527455   -1.88941748511846   -0.31876601714206
C         3.95634170490687   -0.64772640109537    0.36665971116475
C         3.11015331857801   -1.88874495136709   -1.54420639926897
C         1.80287289765136   -3.25584560607808   -0.15310331064180
C         1.97061950932523   -2.80366279574242   -1.49931443032213
C         0.51170187040650   -3.15279629475205    0.42398985926401
C         1.47821705339441   -1.90656559521008    2.29996556926545
C         0.34657574400170   -2.48941665332945    1.69525270246029
C         2.67882495210984    0.08543846386610    2.34481006890488
C         1.42853106020209   -0.53040431947648    2.74470585474405
C         2.69303897181664    1.37720891377516    1.85681257318410
C         3.70676383850970    0.60354802593654   -0.28672145429451
C         3.32473187287269    1.66369826852561    0.59142953544665
C         2.69216593776087   -0.66552744123866   -2.16597469890971
C         3.08862932963875    0.58812223629438   -1.61639141207240
C         0.92624344213929   -2.18435041764448   -2.17037737636516
C         1.36414877191430   -0.88186806674624   -2.63697110380088
C        -0.59315294911931   -3.02129275703745   -0.49288600465817
C        -0.40621300462845   -2.38624778142206   -1.76229205958332
C        -1.87547176383759   -2.94096949075824    0.08292197520289
C        -0.93154176304911   -1.91017528261114    2.05785946097317
C        -2.06810402203398   -2.39997731189436    1.41283658447250
C         0.23679482942196    0.19478317902485    2.74771624003321
C        -0.98978608707264   -0.57654027291513    2.62229537678339
C         1.49898319381587    2.17953412281316    1.99633651973589
C         0.26264180074988    1.59783566545711    2.38981748743159
C         2.64520010153631    2.80389529215591    0.09420746639084
C         1.53364074331159    3.15733337042034    0.99608876515867
C         2.23757542171725    1.66113701317788   -1.99927431424998
C         2.15811183928817    2.84236543261282   -1.19543957828925
C         0.41161386499040    0.14933359256573   -2.72908679465494
C         0.91692983530856    1.43843641515995   -2.50684982015085
C        -1.40877829991756   -1.47114006245636   -2.25176603288395
C        -1.00602094721759   -0.12648033807119   -2.57128554650091
C        -2.96575615896470   -2.56656807529468   -0.69949076909247
C        -2.74050235889586   -1.72687296303753   -1.83827060092883
C        -3.34756152196761   -1.72725257448670    1.43437475610871
C        -3.95973390568230   -1.92339299358005    0.15324057160199
C        -2.19227299040400    0.12104982397354    2.54407709451539
C        -3.41620245545041   -0.45818115577430    2.02954579949755
C        -0.92911979215723    2.17535443849110    1.84720233348781
C        -2.14887718981855    1.51202404018584    2.13267007140074
C         0.38885641968079    3.43575477088732    0.22441168145394
C         0.77534681895218    3.29687980394703   -1.14656200774078
C         0.02977938274544    2.43615170173501   -1.94609469502609
C        -0.87200511225694    2.96502827614629    0.64129802719282
C        -1.89180411460921    0.94649540001320   -2.20257061372272
C        -1.31979108963345    2.14306572581390   -1.64251108619767
C        -1.83303621365713    2.65096345176725   -0.39488080215506
C        -3.69462774692412   -0.69137081027630   -1.78466913417928
C        -4.49596396854624   -0.85221864654579   -0.56187212190472
C        -3.24556587862004    0.64789080576677   -1.84192007429429
C        -4.13239582481475    0.58365212337666    1.35947264006568
C        -3.28707393859827    1.77529014364949    1.37645507591006
C        -3.10479212452811    2.21194337232677    0.02449171172370
C        -4.59390111526899    0.41306260548561    0.05144088054020
C        -3.88428386930946    1.37818814497671   -0.79949407022143
