62
C62 Isomer 531 Symmetry C1
C         4.26831911565958   -1.83007102894165   -1.19093077684456
C         4.64381913484586   -0.43708662738246   -1.12729468808720
C         4.84373012215049   -0.14533089211142    0.24380132292324
C         3.92047056553160   -2.27163908329676    0.14157813103432
C         4.25928330919997   -1.26325854515120    1.03774308481060
C         2.56903938265284   -2.75204485135487    0.13303652036623
C         3.09795580739349   -1.93737985456141   -1.97170468674575
C         2.12457679743182   -2.67571599665931   -1.23985040078067
C         3.66361900591851    0.30458759747016   -1.86262344308485
C         2.69209953254949   -0.64185355529566   -2.41906867099058
C         3.14518164071478    1.51872894335486   -1.36380059542513
C         4.31666953353978    1.02522646230305    0.75013810078010
C         3.58730334291149    1.92548715301441   -0.06065230639773
C         3.27999469045925   -0.71679074088414    1.92957252017216
C         3.44734128987581    0.68963153249181    1.89826451484034
C         1.64374637098585   -2.33024391485136    1.11697539750255
C         1.93845160149555   -1.20804072581434    1.97611474823772
C         0.27863012280955   -2.61898333132927    0.84092488277218
C         0.78879509325062   -2.47880876921367   -1.53087211708511
C        -0.09799957293676   -2.90623414833741   -0.49822310644791
C         1.32504382294858   -0.34224763251422   -2.57690465605801
C         0.34723280384223   -1.38222586292291   -2.34761610088133
C         1.82153567785206    1.93290796041479   -1.81722036932786
C         0.88938335635467    1.03089577589934   -2.45239524369371
C         1.26003802514335    3.02982475946409   -1.11482259942609
C         2.58687048907991    2.47479751639691    0.82552599027422
C         2.37322008145739    1.56564656158926    1.93717790894477
C         1.52887475948507    3.12651535371919    0.31020025274192
C         0.84175685361841   -0.30242185446997    2.25864682190141
C         1.04411296729849    1.11795975935515    2.20688064341088
C        -0.75048664479819   -2.09713477717608    1.69139494218696
C        -0.51908370697408   -0.78011619410901    2.21664954016423
C        -2.07002175109055   -2.54016432211769    1.42483643460604
C        -1.44118811187301   -2.95335951307365   -0.85914091395557
C        -2.39897360847074   -3.08793298622795    0.13551027241721
C        -1.06001585638138   -1.12370861796267   -2.42557957231931
C        -1.95095654546892   -2.08782336818341   -1.90074154455229
C        -0.53005155269971    1.30868402828984   -2.51356684441727
C        -1.52755102226153    0.23716887437078   -2.58659970041270
C        -0.08019471840158    3.34701593420310   -1.26078217631571
C        -0.97423828909142    2.55513690231444   -2.00423130119656
C         0.25961425721805    3.10135055489147    1.00795382606618
C        -0.04690846193605    1.99179292504247    1.85344051318320
C        -0.67757281303432    3.52661359791095    0.06302632897797
C        -1.62703104999168    0.14338780451962    2.26206406071187
C        -1.40725617593044    1.51993018716301    1.88870851201999
C        -3.16520041193254   -1.74709980732041    1.79097777018892
C        -2.95460252379784   -0.38814857857998    2.12495482769183
C        -3.63999003753934   -2.51229137521764   -0.34826389649704
C        -3.32919421202556   -1.83027715200970   -1.58179538816697
C        -4.20287667284519   -1.82136636268825    0.72549324431686
C        -2.88259038897903    0.48237591395182   -2.28216096151597
C        -3.80215407281365   -0.52558733505334   -1.77484611614421
C        -2.24019240274867    2.63529277945755   -1.32253774449704
C        -1.98143080183176    3.04218180167610    0.04520356805496
C        -2.41980671868266    2.19418570209159    1.09737401653842
C        -3.21689906510459    1.70723098378637   -1.58096852340752
C        -3.97946578502087    0.35021745123433    1.46489315839294
C        -4.70293832234804   -0.53368239354254    0.53232456261228
C        -4.60357936782874    0.06202944956101   -0.73694154173216
C        -3.65516896116470    1.54723834576018    0.81484784507425
C        -4.11408992767099    1.40902758665671   -0.53909827750990
