78
C78 Isomer 21351 Symmetry C1
C         4.65504134288119   -1.03183091071655    1.06478690024485
C         4.60722726350904   -1.18642465265401   -0.35387602478654
C         3.71503041020673   -2.25818453261553   -0.64140272896649
C         3.80396932336067   -2.04287012711571    1.64916231496130
C         3.29576125050790   -2.84239270618072    0.62610247840208
C         2.88485977379532   -1.40447790949706    2.53023173931597
C         4.33292223472424    0.19814703994918    1.66184723238582
C         3.18020291341922    0.00079527931424    2.52260609329368
C         4.41539136084806    1.35115539978137    0.87803257305906
C         4.54571805482809   -0.03902574945651   -1.14880849171136
C         4.69595796054658    1.20813120954583   -0.50258447608596
C         3.48252858734039    0.12142975284395   -2.12555154685066
C         2.74433769703858   -2.12818431195680   -1.65494041216574
C         2.50846320188498   -0.85813513610661   -2.32496513132993
C         1.67768631196707   -3.03271062868644   -1.58532577932348
C         2.03984564561512   -3.45435370061996    0.79423530320093
C         1.39693404064176   -3.81348072891217   -0.40351696762373
C         1.57676710356599   -1.88180817114568    2.65653295370208
C         1.22145379962136   -3.08206445650659    1.92484066777593
C         0.56579335782047   -0.93456286124938    3.03870270455984
C         2.14672553405412    0.94307689260424    2.59746878248404
C         0.83563573264533    0.47330325531926    2.97765009904309
C         3.42813945473659    2.39131781276746    1.05879050884466
C         2.30555896104276    2.20873045928791    1.88600521846295
C         3.88621124262429    2.18336064213762   -1.20540941376788
C         3.10185627211574    1.51214068724098   -2.16072698128224
C         3.26036369750146    3.00132023021267   -0.24174751927556
C         1.75779181041018    1.89783646577995   -2.40233176708561
C         1.15105414320006   -0.47839566451445   -2.71548808735834
C         0.75487198000357    0.91174259210049   -2.72006496721688
C         0.45857178541349   -2.78107521571182   -2.24991392151156
C         0.13321652175943   -1.48415557371833   -2.73136747188631
C         0.02912151720930   -4.16760184589661   -0.43053035786117
C        -0.53117346956583   -3.63097389412028   -1.64243580851504
C        -0.12501884013724   -3.45804066367086    1.87835922898995
C        -0.71646205730357   -4.08898702515725    0.74054949926349
C        -0.79280966861242   -1.40394896880808    3.05323584291883
C        -1.13260470004304   -2.65255469266565    2.49438041128642
C        -1.84163140900154   -0.48292542313162    3.14808022750230
C        -0.26751932885988    1.40589019387940    2.94563525036939
C        -1.56786313457554    0.91954348056356    3.16057528853012
C         1.12181722510321    3.00585539008425    1.62638651862968
C        -0.13198493614102    2.67169033178305    2.25903483034092
C         2.04539419304277    3.53458443298806   -0.58503002494314
C         1.34890233550705    3.08304069820492   -1.75629191643059
C         1.07618668492426    3.75527955842594    0.43683115204585
C        -0.02570147023720    3.36394606637343   -1.55929890457342
C        -0.16133719988606    3.93882662936332   -0.24979616464892
C        -0.63868126381225    1.27772524196963   -2.65448852241447
C        -1.03429877135017    2.54439889148543   -2.07046178061555
C        -1.26574898735448   -1.13209904651056   -2.80627754882654
C        -1.65176054719222    0.26385311671697   -2.79669869118694
C        -1.84683538422852   -3.27410540166165   -1.69184806594764
C        -2.22191274012859   -2.08725898716530   -2.39878660952827
C        -2.10061401110931   -3.69579063003575    0.68880245626237
C        -2.37246919818740   -2.84229824137844    1.81342162380819
C        -2.69463827895921   -3.39034905126043   -0.52232384772416
C        -3.12861726166251   -0.71543623223934    2.58162344517112
C        -3.36313907521715   -1.83960396432208    1.75670436667706
C        -2.74900991973431    1.57399991898000    2.69030421145507
C        -3.70945469060999    0.56393997883645    2.30227016244537
C        -1.30964523758104    3.27755166016499    1.76714488933814
C        -1.32844799654918    3.82244553123627    0.44065662553587
C        -2.61780276009926    2.73504025541022    1.96155985644001
C        -2.35412610840093    2.74952723525744   -1.50483131083990
C        -2.50391009745032    3.39622912415999   -0.24951920015396
C        -3.39676280046998    2.89187887890538    0.75027786720638
C        -2.99210950938808    0.59137681145089   -2.51030133340531
C        -3.35293957341299    1.82130185804834   -1.84317771427196
C        -3.48206666581383   -1.69584836413579   -1.85751471274100
C        -3.69863636650144   -2.37718553737424   -0.60616347869125
C        -4.12267078044768   -1.65120924140427    0.53305624239208
C        -3.91626551176568   -0.40261566340203   -2.03697152391555
C        -4.51711706196642    0.74203172619730    1.19701616811871
C        -4.35277620825718    1.94888337832449    0.40796549938097
C        -4.41908537099998    1.56492127767017   -0.95593556946180
C        -4.71025587500749   -0.37464876132136    0.28883875786063
C        -4.71740645739544    0.16036528766094   -1.01400121678038
