80
C80 Isomer 29276 Symmetry C1
C         4.62130328853089   -0.93780227941041    0.28239128761295
C         4.07858734996689   -1.72115755994092   -0.76115945315468
C         3.26213318871892   -2.73395639665548   -0.15207470257824
C         4.01447950643463   -1.35187839670393    1.52580435300270
C         3.15726278148353   -2.42165721844539    1.26464375649343
C         3.58364516088585   -0.21270688358348    2.23187845561394
C         4.65246039205250    0.47131953127989    0.24883255991053
C         4.11993026816072    0.92896418042035    1.52324870199617
C         4.24799639259563    1.11446708567015   -0.92417835499182
C         3.63201259906235   -1.06801233386797   -1.94697478298048
C         3.70063737292134    0.35081994423722   -2.00663394377316
C         2.56008781154205   -1.67383750335068   -2.62581542524676
C         2.18539258260588   -3.31877615610244   -0.82075093661770
C         1.95136585084930   -2.86645632347292   -2.14589500436531
C         1.08356166403772   -3.83151805412375   -0.03352392249866
C         1.92494800958624   -2.50529369115366    1.92743941332140
C         0.97861494156640   -3.43763593231083    1.35802249409597
C         2.28793560358861   -0.19479415765059    2.80490702363114
C         1.49407936711763   -1.39166133657490    2.74246173681717
C         1.62602284085953    1.07840584560950    2.95978202409514
C         3.42812102280108    2.10670169541491    1.58832605870523
C         2.26437028297815    2.21522789183778    2.41899136357980
C         3.50669441370973    2.34588885236884   -0.83823282057057
C         3.18789327540275    2.88666397362794    0.39136913834527
C         2.61918717313344    1.10694370716570   -2.56479882238046
C         2.50153871756312    2.34554041612654   -1.85749181197349
C         1.53596591327024   -0.90047443379892   -3.27258196545822
C         1.47966706004294    0.49725193784602   -3.13832948581052
C         0.62819753762218   -2.91633032688430   -2.68521267860458
C         0.34284037376272   -1.66458723782605   -3.32427305793823
C        -0.10954614696132   -4.13875199168925   -0.70416400879294
C        -0.35488926588015   -3.59527451621560   -2.01664158568280
C        -1.37523504517056   -4.17866136657454   -0.05028781593901
C        -0.24749382126945   -3.53423931036567    1.99980626076654
C        -1.43270153984707   -4.00551863625713    1.32794363737158
C         0.10878437393659   -1.32326053747489    3.11157577888550
C        -0.64954235025041   -2.49580855173461    2.92452812979261
C         0.19193303598841    1.13142610917162    3.15559055775165
C        -0.58737324318121   -0.06448706100128    3.22803253483689
C        -0.49292472783439    2.32560688837741    2.86884439227507
C         1.49006775412060    3.28575348155831    1.87426038652095
C         1.95758293711451    3.58395121557587    0.54912543505238
C         0.15464064111479    3.38267112667734    2.16517249427547
C         1.26694897687234    2.98391197691365   -1.71229278196311
C         1.02295203571940    3.72819831860360   -0.49614068506568
C         0.20105423797430    1.14836272122809   -3.09764628923619
C         0.14657060191402    2.46386401867600   -2.48367296935923
C        -0.92488051600171   -1.07511941577587   -3.26852476437732
C        -0.99718283979218    0.36967143634492   -3.24231326257296
C        -1.70351006040603   -3.12543092478119   -2.08561131836938
C        -2.36498876110545   -3.54428442880071   -0.89052170286626
C        -1.99540937091124   -1.89257311305245   -2.72315371922598
C        -3.40413849481846   -2.76428936962936   -0.33022820905540
C        -2.54657647231681   -3.33451508917655    1.88394280744492
C        -2.04909793837026   -2.42354938578183    2.88367568194461
C        -3.47664037215116   -2.64006907784670    1.08871679990781
C        -2.00453976290941    0.00795652636694    2.94520064526857
C        -2.70968004622830   -1.19036003817729    2.74363939874675
C        -3.67353355131724   -1.33644795463793    1.68359129104933
C        -1.86907059710233    2.36210625178820    2.47292539319561
C        -2.62129915078585    1.19093862247949    2.39369242228266
C        -0.74581707816775    3.95320563130726    1.21271092706876
C        -0.32751581335802    4.07567173052757   -0.13248493046567
C        -2.04029756183959    3.43855006732091    1.54194217399556
C        -1.09222473280648    3.04503355595823   -2.26003272384694
C        -1.32868227273397    3.90890848895360   -1.11892253081857
C        -2.26892866739440    0.97336072470934   -2.93330404027993
C        -2.30895698966203    2.33702195973028   -2.55651873546704
C        -3.15330523557462   -1.24467940562439   -2.27012677660834
C        -3.82336614831697   -1.64764001346155   -1.07840065905685
C        -3.32016908871717    0.16295445162101   -2.44503779813860
C        -4.07318735738823   -0.22870824582334    0.92833844864751
C        -3.66603966440348    1.09456172856106    1.38285215269853
C        -4.31413549450348   -0.45866569825126   -0.44692349891235
C        -4.15802737235693    0.61005228676866   -1.37597134689294
C        -3.02315197324135    3.34642237603845    0.57283851624681
C        -2.66624888856752    3.73533096137141   -0.74579790083556
C        -3.29229444695122    2.80679638760899   -1.66055249082416
C        -3.84961811743260    2.16843738845809    0.50249660328784
C        -4.07724635958107    1.91194885968887   -0.91334152293869
