74
C74 Isomer 12583 Symmetry C1
C        -1.23724078938285   -4.39943955673070    0.09874288650485
C        -0.76548698308648   -4.15229159133015    1.37506167691877
C         0.68452168136038   -4.05135426209841    1.30421108345531
C        -0.08454966320359   -4.38447123103915   -0.81229636958627
C         1.08345692771311   -4.10637353039771   -0.06851781029303
C        -0.41853833598088   -3.61036887893741   -1.92028672422139
C        -2.26880843296535   -3.61159246596796   -0.45172235007944
C        -1.82866155587612   -3.27619953148128   -1.79798227204152
C        -2.91183011939942   -2.62542176742590    0.32550682487843
C        -1.25477431198538   -3.03556345847776    2.10178203896234
C        -2.35636417502774   -2.30670619661634    1.62952438183347
C         1.06495819695848   -2.96994220852418    2.09194093458999
C        -0.11347352609590   -2.32145963049478    2.62000080689131
C         2.20164023636974   -2.22408048242383    1.75027441266159
C         2.01556817661557   -3.16295528051110   -0.55117493128838
C         2.76813698075669   -2.45558178777879    0.45359314458667
C         0.51080976658744   -2.67672884155977   -2.46795738147183
C         1.78254931659267   -2.51790843386444   -1.82818684075967
C        -0.05673817237660   -1.57708095680384   -3.22937790600712
C        -2.31220749692171   -2.16299160744558   -2.41469709300057
C        -1.44961341431387   -1.33237960546028   -3.20236510650011
C        -3.58187450701906   -1.56605854987336   -0.40339391696650
C        -3.29383208399038   -1.34016896118883   -1.77123492721675
C        -4.03447016640197   -0.45582716433869    0.29510322277734
C        -2.48666209779454   -0.97318595309884    2.16136074070132
C        -3.58098076202862   -0.22926693578839    1.66067970263374
C        -0.11597155757225   -0.94413416781444    2.82582224708913
C        -1.37823780112822   -0.25823000698135    2.72608671926569
C         2.34259446232449   -0.94370461145450    2.39713787547568
C         1.14726957500987   -0.23415574550150    2.79732666222789
C         3.51002451272826   -0.22628162223629    2.06583118956678
C         3.72382741846150   -1.52202463222317    0.00951343665957
C         4.25199394726919   -0.59379200751360    0.89120718244001
C         2.58751866807655   -1.35631122283645   -2.16064595039192
C         3.62684170193121   -0.93668559295481   -1.31621223448149
C         0.72250566882424   -0.44544320676025   -3.49093080949183
C         2.07123983753001   -0.35331328009589   -3.00682040949305
C         0.17391034594305    0.86223039053357   -3.57225956804703
C        -1.98627577096499   -0.02023749490456   -3.14488613007687
C        -3.13759993406503   -0.02478740738925   -2.27365021078562
C        -1.18226277372030    1.12411115866178   -3.26167161247707
C        -4.20262027811504    0.82503731113829   -0.32500949450314
C        -3.53420478699607    1.11838868844810   -1.55036157304133
C        -3.70485228033585    1.11682572419202    1.94723289963818
C        -4.18444330135276    1.77639715567942    0.73193282641928
C        -1.38363590396007    1.18746883920653    2.74521674305040
C        -2.59877781097494    1.85499844957564    2.46147094282909
C         1.10609372347159    1.19006243995768    2.68138249819103
C        -0.14229892574401    1.89267646789376    2.51693342380282
C         3.49115827283206    1.18121523071445    2.09714048750467
C         2.29357214782292    1.86367434376792    2.28115927546761
C         4.52635846847775    0.61361393658851    0.11934399544117
C         4.04461914762079    0.42620738212288   -1.22086667796416
C         4.10971832832221    1.69157628877584    0.86062843549407
C         2.39992929416327    1.01588999373262   -2.84096814507561
C         1.22148641029010    1.76194344694929   -3.19436395428538
C         3.30426498280440    1.46292166885695   -1.84690398947360
C         0.88865220500636    2.90141770141947   -2.51055090026185
C        -1.55095746251049    2.31905545225869   -2.52857549699640
C        -2.74472029629556    2.33720390417312   -1.68938843965940
C        -0.49351226832540    3.19466178612185   -2.22216344410820
C        -3.49342044389839    2.95122935771212    0.58906036183485
C        -2.57797829264846    3.07490801805057    1.72930403886502
C        -2.77199827314665    3.24963312305167   -0.60721379146702
C        -0.14881145124435    3.10048026247941    1.73910696941173
C        -0.47012079424963    3.89322552723270   -0.97750614967055
C        -1.38592365214830    3.59847139502272    1.26401476560687
C        -1.55904903658521    3.87604247423887   -0.15972501965096
C         2.23057106506990    2.90348197991068    1.27064381389773
C         3.25869570516367    2.68238910913705    0.30374688583380
C         2.92841894093178    2.64151314418008   -1.07909748505249
C         1.72407766708734    3.31111075677751   -1.40655390553333
C         1.00168858598320    3.45402813648438    0.93898871551258
C         0.85310732373267    3.83040882327736   -0.41849522749984
