64
C64 Isomer 757 Symmetry C1
C         4.54805780835592    1.66211358011977    0.01820897115959
C         4.59776095813806    0.69686265947935   -1.06798922283448
C         4.82981288928310   -0.54103245313776   -0.45452493795583
C         4.33275870163345    0.92819209491455    1.26681062374719
C         4.57697692364320   -0.40375294595532    1.02597176740074
C         3.06751965182861    1.33291124389965    1.84485182643630
C         3.44345488802042    2.47903783421777   -0.16722440919433
C         2.63479794653668    2.42667852909657    1.03262532215026
C         3.41272139573199    0.86573983541358   -1.87232544595777
C         2.76842198890921    2.05453860722430   -1.37374316268773
C         2.55154228182403   -0.22136115416158   -2.22448758545525
C         4.09661380578327   -1.62726926062857   -0.88086991944799
C         3.00890792455881   -1.50921205509236   -1.80079193484373
C         3.60647125214994   -1.37932800333775    1.40333115439247
C         3.55332350104610   -2.28321800294960    0.31392087818301
C         2.08257501329733    0.38893354898118    2.25630184539081
C         2.35765907857470   -1.01307984922282    2.05788159880763
C         0.69823047245454    0.83836282257880    2.33923753204334
C         1.30702300949712    2.75162770381136    0.92523482424981
C         0.39579777505995    2.15073839010167    1.85925819815102
C         1.40273179225048    2.24635115167584   -1.47319324750553
C         0.79583447045186    3.00457966090557   -0.40336421182112
C         1.10352059411577   -0.00873199068223   -2.36377833001479
C         0.55836890619690    1.28945269427116   -2.13913704576730
C         0.15536383233443   -1.11060245964517   -2.29404001733072
C         2.01794625218361   -2.43608778870172   -1.36274133401576
C         2.35405514467687   -2.86804374924176   -0.03158921907704
C         0.66837902498870   -2.34579489301135   -1.73403728288402
C         1.23650299659631   -1.88996423024233    1.92865497559310
C         1.32730508129383   -2.93261500363790    0.93944843317317
C        -0.40372583555081   -0.07572918923736    2.47520307571026
C        -0.10961407663929   -1.46772351302221    2.31548230636457
C        -1.80020582094541    0.39043600435299    2.35625584884327
C        -0.92899016627016    2.58185431227792    1.76285945165058
C        -2.03079994071853    1.74142571471199    2.09009104466787
C        -0.53526415404010    3.29868053061826   -0.51768558924574
C        -1.31684440578150    3.39098111489347    0.65999069523611
C        -0.86827856671869    1.52043650695149   -2.15504784303023
C        -1.36418751849985    2.68286580030122   -1.53032141516528
C        -1.26151865403121   -0.92008017515473   -2.31374950602068
C        -1.79232050430319    0.43010717689859   -2.40079013008434
C        -2.14704032757973   -1.97254540178264   -1.81389269773615
C        -0.17170566480580   -3.18143712874445   -0.98437727583869
C         0.16907363910971   -3.46764128054057    0.38956975358692
C        -1.58634139367916   -3.04107090433480   -1.06323399573665
C        -1.19727293031319   -2.33615590659258    2.03089866298004
C        -1.01858078105659   -3.39982539853219    1.12452542030507
C        -2.12369421931739   -3.38084992417679    0.20265673235840
C        -2.89866031011031   -0.52552902426345    2.03272940065194
C        -2.56889123431322   -1.87220289045001    1.86106638140746
C        -3.15664467094337   -2.61423582819949    0.76621849300458
C        -4.07692978287200   -0.06450915310760    1.33562255696562
C        -3.17225301052243    2.19995261873452    1.28713335028390
C        -2.67511796190940    3.12481992316749    0.32997182648834
C        -2.72205291867289    2.76828317214056   -1.06217410604190
C        -4.16021877546169    1.32838833592893    0.88697858278395
C        -3.16996620731652    0.66521716308210   -2.20534839330575
C        -3.64049592895774    1.82352453134907   -1.47010306579932
C        -4.57991749810261    1.34758213649543   -0.48176052528495
C        -3.48688384097988   -1.67684926242737   -1.46614663876076
C        -4.00250847889339   -1.99393554642404   -0.14101663734687
C        -4.68395832292891   -0.84047364252826    0.32735804108336
C        -4.03762019296996   -0.41813763711477   -1.82442523654923
C        -4.93400490531999    0.01735024768643   -0.81543921251077
