76
C76 Isomer 18954 Symmetry C1
C         2.71275212353151   -3.42307658776913   -0.95574737531033
C         1.75496050986689   -3.82569278934624   -0.00835458687869
C         0.48552161808004   -3.92982973443353   -0.69733387843348
C         2.01531999716589   -3.10543503343726   -2.17567599959130
C         0.64955991691634   -3.39659942028317   -2.01891635606768
C         2.42489443671920   -1.84257006136736   -2.63153836439158
C         3.62329438926689   -2.36963033854513   -0.70787750245190
C         3.49020764653406   -1.39423568087296   -1.77023184286714
C         3.74850250875736   -1.93548957302073    0.59864390684168
C         1.80271757218264   -3.33210708618480    1.32050701682442
C         2.89647906849635   -2.47250721703934    1.62131960407121
C         0.55300195487311   -3.17494386345333    2.03912209594358
C        -0.72739650443955   -3.79715783744735   -0.01720519535161
C        -0.71760173158766   -3.47276854190569    1.39500437918751
C        -1.82105532307936   -3.40281694677147   -0.82562067046809
C        -0.32690391993364   -2.54500348511454   -2.59560747768964
C        -1.60863193603308   -2.72481947851971   -2.06592830101583
C         1.45451506455973   -0.94011114373023   -3.15238933901860
C         0.04720430598781   -1.25998226622332   -3.14489164578672
C         1.84753002168595    0.40319973973494   -3.11870519906158
C         3.69220772191277   -0.02673078996321   -1.51992950312848
C         2.97884100294492    0.85303922460114   -2.36314286148337
C         3.98320715201025   -0.53665247364087    0.86902870791401
C         4.01043336764820    0.41752246069771   -0.17272887268352
C         2.76396192035475   -1.43301213118385    2.59430146186297
C         3.41470742605316   -0.23360125875025    2.13171254506648
C         0.53871433134172   -2.25999754835279    3.10895353160297
C         1.61620644365469   -1.34211337616422    3.34147177268394
C        -0.64399485139810   -1.55665631524643    3.47934870001513
C        -1.89680493765584   -2.89723479159761    1.90473655430445
C        -1.84758129993094   -1.87070172380448    2.90329724520546
C        -3.01689319019727   -2.86523303660475   -0.26523706185812
C        -3.04726007237954   -2.60734908649661    1.09272390978889
C        -2.63564024195175   -1.75546118112828   -2.25728957594447
C        -3.58439006230645   -1.92548564718720   -1.19611947690821
C        -0.92862205315235   -0.20357200402432   -3.16448366599224
C        -2.30271877238628   -0.48822187917611   -2.79435004874831
C         0.88647264643406    1.44911273499366   -3.17503066469009
C        -0.48666313286361    1.17669564224500   -3.14798445389478
C         2.73567698901898    2.21224375035340   -1.99316409211755
C         1.47074902046292    2.60771660353407   -2.54815741556374
C         3.68616218950599    1.73962347257893    0.20192831509656
C         3.11768913540179    2.67232590036397   -0.74181258015294
C         2.89968030278057    1.04478382807411    2.44019319040101
C         3.16507846455732    2.05269540372138    1.48937444104567
C         1.07907584872252   -0.05317524937024    3.68599761786877
C        -0.33424921061078   -0.18472849533375    3.75534654219135
C         1.69557659392287    1.13785093232718    3.24418434228417
C        -1.21123881744204    0.83853422459828    3.33556481778222
C        -2.81009242441651   -0.84879264557951    2.60830463368889
C        -3.63132845896709   -1.36869873499688    1.55948453004813
C        -2.47099996640007    0.52012097132916    2.69989651240881
C        -4.29780865677528   -0.83231488393774   -0.72388121731690
C        -4.25379122325453   -0.50343620880938    0.68907959000336
C        -3.15955669095162    0.57650378742994   -2.39960300685715
C        -4.16683448515936    0.37388243423977   -1.43852730585537
C        -1.32131082642962    2.21488594939085   -2.56763462189380
C        -2.61741799485489    1.89521727044040   -2.17102912342892
C         0.67848039227526    3.51630004853274   -1.87960613403630
C        -0.73793984542500    3.30607318917498   -1.87308892872136
C         2.27387930924950    3.58800766345645   -0.02886754687594
C         2.29580258350596    3.19686609083738    1.35437025344156
C         1.08502296861129    4.02993544471902   -0.59887794745411
C         0.82396646070188    2.22737550447529    3.04446186277372
C        -0.59527264804774    2.06856101069423    3.04313880835100
C         1.14453318904431    3.27481617892915    2.11482051605546
C        -1.22817946499818    3.71331884223657   -0.59472896870743
C        -0.10473828276264    4.11499164321218    0.19848006167992
C        -1.16074882683489    2.96400857083270    2.08189670591028
C        -0.08442156209221    3.73806763832275    1.53042552672409
C        -3.04558199281115    1.43514230464930    1.73960505524447
C        -3.99583536102043    0.91548842351413    0.82049793645340
C        -4.08322981040503    1.45481144692020   -0.47949256997187
C        -3.16040297509986    2.40284719956833   -0.94677237673497
C        -2.31423436641035    2.62721979329453    1.35049894128157
C        -2.35721467427472    3.09816122278997   -0.01915787664305
