78
C78 Isomer 2226 Symmetry C1
C         5.60691623743972    0.31578420309098    1.47305153394172
C         5.72364192702919   -0.17243564311573    0.09588472415612
C         5.61857971190971    0.95341534738672   -0.74765876845599
C         5.08258208080518    1.65967771039024    1.40448753586527
C         5.15374464126009    2.09475853023812    0.08746798779475
C         3.79754222419069    1.69348475624247    2.07788493104701
C         4.62687664905126   -0.45127296737264    2.09966194615073
C         3.54904360150733    0.38290524265864    2.58868300773566
C         4.81996227807503   -1.25732388870009   -0.09190212870931
C         4.22445081692594   -1.51006274721711    1.21651393010254
C         3.95182738602308   -1.31774235346247   -1.23367587638549
C         4.79596091165487    0.90216368497405   -1.86398875241096
C         3.97915618476006   -0.23098309210914   -2.15374235319305
C         4.01293555391332    2.67530252176751   -0.54737187514186
C         3.90583640203386    2.05568433252490   -1.82157122402527
C         2.69978664124394    2.37328460135878    1.51751578573207
C         2.80309754628687    2.89077812684622    0.16794185921391
C         1.40626261261774    1.98980519827428    2.00029517709605
C         2.25764441021638   -0.14670930865697    2.70473277632516
C         1.14220260016137    0.74467798500970    2.63776163355926
C         2.96511891242355   -2.04189856198923    1.34984942950149
C         2.01085318390135   -1.49607509200404    2.29810102471211
C         2.71858221344342   -2.03939792245471   -1.11686734860277
C         2.40737925234339   -2.63389286684635    0.15769793829856
C         1.57179905946096   -1.75300051705065   -1.92508795209818
C         2.70937409829717    0.26382364326682   -2.61782828868580
C         2.66955675161265    1.68485918890321   -2.36202095451787
C         1.52955612072794   -0.46342491677473   -2.54026499408892
C         1.59007280724516    2.90477819304470   -0.59169138952049
C         1.49285819082116    2.24306089904007   -1.85383618243639
C         0.28155032092602    2.64443874133164    1.44104500057915
C         0.36754471686797    3.06003992505301    0.09606567581429
C        -0.99410699110658    2.41032091890068    2.01029251709109
C        -0.20225761864625    0.23876965610517    2.73038512475237
C        -1.29585940939514    1.15159930768917    2.60551781379480
C         0.69056466192038   -1.99474481896667    2.33140501921319
C        -0.45245964246824   -1.16242017963504    2.64777943347000
C         1.23384759552431   -3.30424380493325    0.32464496484778
C         0.47351704620332   -3.16749868950865    1.55568057991335
C         0.32406417664194   -2.44353921167372   -1.75460267276767
C         0.28732886651334   -3.44855883132809   -0.74702918128498
C        -0.91945087774563   -1.86768468478092   -2.17862048013076
C         0.26884481409051    0.24403173354043   -2.58934930076743
C         0.25081458502714    1.61789388388222   -2.23038311498220
C        -0.95720084984739   -0.46385861473132   -2.55256586476731
C        -0.84061868952605    3.09681844128335   -0.67734784133659
C        -0.95278294513804    2.23870925295947   -1.81766387975955
C        -2.02942543840912    3.17085531394711    1.43108507570515
C        -1.98760163774841    3.42117811093588    0.01494940834883
C        -3.35112538424175    2.91997667557615    1.76700097429294
C        -2.66462007312200    0.69294155507537    2.58883879662684
C        -3.69397502973875    1.65413409901383    2.33687701308978
C        -1.80152752405293   -1.60256065293992    2.35218008680431
C        -2.91738451264900   -0.68582924501965    2.27871608001422
C        -0.81517477873005   -3.58149372105255    1.28446971934188
C        -0.92037194388083   -3.83182435003347   -0.15143554013068
C        -1.95026366041210   -2.83825811889791    1.67855873378320
C        -2.14832483933864   -2.44298446631977   -1.70396455992305
C        -2.13644973248397   -3.32388465737676   -0.58564868151524
C        -2.87518039360908   -2.90426152522911    0.58665052697216
C        -3.34864307847019   -1.74394019315881   -1.84333248002623
C        -2.17990121576627    0.29341828945744   -2.54412752379520
C        -2.22213615530426    1.67235674482746   -2.13987690747897
C        -3.40092107094667   -0.43155169403899   -2.45313264701363
C        -3.30452883992835    3.19879704133728   -0.52643781375958
C        -4.18139180834241    3.15816251826634    0.59511436344946
C        -3.44423841371735    2.28409077869132   -1.61338471252800
C        -4.91166735423923    1.26453015341483    1.73921141151262
C        -5.21421076535822    2.22190472241599    0.64291577034887
C        -4.10500957669816   -1.02991062642293    1.51024574716770
C        -3.95872210161003   -2.04709249322703    0.48858920243692
C        -4.37415499024811   -1.79446869861403   -0.85533837820705
C        -5.09263381002987   -0.03697493274904    1.25812379228882
C        -4.59425970521315    0.18312048174674   -2.10028827307226
C        -4.66074096006840    1.52949062038308   -1.63495954241425
C        -5.53241725106963    1.50567479811492   -0.49521311073166
C        -5.22590454018921   -0.68878715436114   -1.10560689035877
C        -5.66263418160779    0.09609331378637   -0.07305656786874
