78
C78 Isomer 10353 Symmetry C1
C         5.29303058827012    1.38183341153904    0.23562493249053
C         5.40475415292220    0.63449889448613   -0.89614784165127
C         5.39004248749173   -0.79515056995666   -0.50141396893936
C         5.18455645885921    0.44231960967555    1.38296657323259
C         5.01141005172027   -0.88407518289273    0.88649318602605
C         4.26796348492460    0.98822296520188    2.24180442844831
C         4.26045192578248    2.37682175335599    0.35837689176345
C         3.77304779606126    2.25380288899029    1.67663686344875
C         3.30966383137094    2.56379335246525   -0.69254598103650
C         4.48511662627394    0.81515737913504   -1.99446297353152
C         3.41627087639203    1.74422034135065   -1.88865306152296
C         4.69616776170283   -1.45614159031715   -1.47699077490953
C         4.19079623045375   -0.48684768572001   -2.45521897846120
C         3.63615242880932   -2.34300594095385   -1.14252471687233
C         3.85644383568539   -1.63677614125919    1.25595879830943
C         3.27267525685690   -2.49024073123451    0.22984255914271
C         3.14836817695185    0.24291578814338    2.69519269954509
C         2.92705935875019   -1.07097180788371    2.23233619448819
C         2.41537338370668    2.34305761580598    1.98765740000220
C         2.04109671157044    1.16206085427362    2.71319280429371
C         2.00473921713983    3.03370907506745   -0.28807560335702
C         1.50825919399397    2.88758028333828    1.05371567141547
C         1.00579280294986    3.06500088418835   -1.27049081035831
C         2.19772041676242    1.39159113124051   -2.59723840048242
C         1.09707491451968    2.22409007996179   -2.40299830047310
C         2.89856747324727   -0.89975551933797   -2.80858399938071
C         2.60686990526388   -2.13037752694263   -2.10956920367000
C         1.87447078549361    0.04263226035741   -2.98975778269255
C         1.28053639927808   -2.49227745717542   -1.87813772677798
C         1.97270563376769   -2.97236489576017    0.41472667468253
C         1.05557320860728   -3.15417933471721   -0.65318139482711
C         1.55177447121259   -1.52375134898927    2.33304039726573
C         1.17209760762289   -2.63186101452951    1.56703576155878
C         0.71790362489558    0.75109525325097    2.72748585833168
C         0.46497137719408   -0.65755152476407    2.72249363865567
C         0.11795078080508    2.67882390875360    1.32247790373288
C        -0.27210745128199    1.66720736639657    2.24310083668669
C        -0.37732870728705    3.21664327776866   -0.95858967739786
C        -0.86213710799556    3.04042143769892    0.33788521004174
C        -0.23343063110279    1.84789283031210   -2.78028783105529
C        -1.13704834281895    2.61981847919535   -2.01437673035261
C         0.50304948610960   -0.43574958289990   -2.98335388167828
C         0.20932194889988   -1.72699062232619   -2.45310970349581
C        -0.56788586304411    0.50925676759455   -3.04421029255646
C        -1.13758474277100   -2.03637963112482   -2.06634967277208
C        -0.26412749128887   -3.20791182116287   -0.12890374432040
C        -0.18184454645350   -2.90304567233762    1.27261072134838
C        -1.36644677643666   -2.81166925108342   -0.86889052259523
C        -0.89424870158012   -1.04730447579566    2.59443969085230
C        -1.23812629003764   -2.22567812754832    1.88081781145272
C        -1.63959401611726    1.29782759657671    2.36518489294616
C        -1.93133216412568   -0.05319724003141    2.71262073808313
C        -2.25471683556172    2.75900273599326    0.51690030100272
C        -2.65612872032084    2.08566109791936    1.71983727156520
C        -2.47511876664232    2.28031284592738   -1.86501143773936
C        -3.10936844957882    2.65210140489362   -0.62982743890719
C        -1.94058960227839    0.12706116079410   -2.89457185760778
C        -2.21069062601304   -1.23078773400227   -2.51521867751292
C        -2.93186679586473    1.11503582767206   -2.57625539343126
C        -3.52187736156525   -1.57230256233500   -2.07641073197371
C        -2.60443236439777   -2.68910856787660   -0.13276517544420
C        -2.53817567719414   -2.38810299565580    1.27820028981238
C        -3.73520196609042   -2.30676807448684   -0.83715337690132
C        -3.26681664552045   -0.50455767488343    2.61038356447031
C        -3.59954244412753   -1.70316638413488    1.85482743812330
C        -4.00396378321026    1.69169339502626    1.86976584623106
C        -4.30304726936585    0.40942191756062    2.41894012641369
C        -4.46137850037967    2.25523091909714   -0.45511420258168
C        -4.94191977653678    1.91914272793945    0.82865962602163
C        -4.27085930098458    0.71191648369504   -2.34166165820720
C        -4.57377048873309   -0.68091894913585   -2.21597556520735
C        -5.07727079391935    1.39999540580828   -1.41497868780831
C        -4.92432203211807   -1.80092295314382   -0.19721636352107
C        -4.85141158558012   -1.48286761794939    1.17419143060415
C        -5.34938034323111   -0.21526435394489    1.61282522579378
C        -5.80607002771865    0.73903765213449    0.70242032573674
C        -5.50888641512437   -0.85787855772584   -1.09996520015894
C        -5.88277126792091    0.41299206143374   -0.66948124184965
