80
C80 Isomer 6200 Symmetry C1
C         5.29139607086625   -1.09585904888197    0.98078280557817
C         5.32955916760667   -0.62637049259286   -0.37861687895764
C         4.56402867577015   -1.51982638505774   -1.16629204258792
C         4.41215865685890   -2.21044083630887    1.04777261007566
C         3.99164502360302   -2.52404604955300   -0.26390785047003
C         3.40403900018696   -1.96420959233897    2.04313374551673
C         4.73220992437567   -0.07515754420298    1.78992395401935
C         3.62450988819535   -0.62219025434077    2.52497210095903
C         4.95116079140566    0.75292785728581   -0.35826210700409
C         4.54014092919555    1.09487886129178    1.00260074258273
C         4.18735087298968    1.25756088656642   -1.39544869884419
C         3.76906153328844   -1.01770651417750   -2.23434990487699
C         3.65469237691715    0.38737690859912   -2.40921001725675
C         2.62757593636119   -1.76363733189129   -2.58522338436124
C         2.69082916177409   -3.02503697776076   -0.45814620314072
C         2.14579138678797   -2.82418557015511   -1.74543470882624
C         2.10138951426686   -2.42935377798184    1.86773506673563
C         1.74976536848891   -3.11333315348065    0.64142180601790
C         1.06349739879197   -1.76409214539588    2.61946309986917
C         2.54854400581170    0.19535322308357    2.83770041790231
C         1.28976621643698   -0.44745579972726    3.11057266031330
C         3.42898425812579    1.91774526050397    1.24751637721673
C         2.55827166033601    1.55822116475875    2.34488544227419
C         3.22082283320048    2.28185022651648   -1.14829169524121
C         2.84200612404525    2.65663646236181    0.15033164244884
C         2.44155072189797    0.97796082639797   -2.88769746423612
C         2.21634707575560    2.18194328631282   -2.16115271476315
C         1.48889651257364   -1.17872106929261   -3.21820836380764
C         1.32958832721484    0.21799747944662   -3.30986820548564
C         0.77064912627929   -2.97389653997748   -1.97550784134154
C         0.35968313984204   -1.98403566537972   -2.93616472219216
C         0.37814921949205   -3.36377062716938    0.37767577718767
C        -0.11521531106050   -3.36581545542669   -0.97243342439468
C        -0.26542726668457   -2.27559571910240    2.51295272465229
C        -0.59486308854110   -3.17146709518608    1.42721943156792
C        -1.31266301186492   -1.54297226228192    3.09536952312921
C         0.16439993115620    0.38559556369178    3.40938624164891
C        -1.11522766471795   -0.16899837462515    3.42867538000334
C         1.39641569242376    2.30140230939822    2.49396407466815
C         0.22342602099861    1.76357473474425    3.13004062645679
C         1.57542764827469    3.32095992073527    0.28431496533595
C         0.97629834030921    3.28605916823918    1.55612727004172
C         0.94863157547963    2.75406576514856   -2.04193122151080
C         0.70908004823659    3.52819029358967   -0.84888172345444
C         0.00455174027625    0.77637514330407   -3.24665897746656
C        -0.13271542146069    2.13759891281430   -2.77688366408284
C        -0.94153949856509   -1.50404007693051   -2.97155991797726
C        -1.13433801913357   -0.09441395182260   -3.21123021276484
C        -1.51176684375674   -3.24865000577671   -1.28659347077352
C        -1.93697296821876   -2.33493828742001   -2.32785881090021
C        -1.93565543331064   -3.40890623640131    1.12683108832786
C        -2.39382625472696   -3.56614450179648   -0.23699621856191
C        -2.66615967616563   -1.69339335915992    2.69865795698746
C        -3.00428971352740   -2.72873753481674    1.83331399854834
C        -2.27434569521955    0.54715686936181    3.01762374133826
C        -3.24322852236510   -0.39046991514466    2.53844478631900
C        -0.91755828198140    2.46755801371119    2.67490402461356
C        -0.43598374454951    3.45279648784916    1.74144870398934
C        -2.18020155309562    1.84544937714316    2.49472347350619
C        -0.62029775152420    3.93518227980878   -0.60628430480557
C        -1.23376537341099    3.82947036475659    0.70337482567292
C        -1.42312017698077    2.63590052291700   -2.53353125370477
C        -1.61789172642833    3.61592512452900   -1.53118495922182
C        -2.43447144296096    0.43466785359924   -2.88527986294038
C        -2.56861451497066    1.78555663001775   -2.54027395071645
C        -3.24754975226499   -1.83129993920403   -2.27858186488617
C        -3.45052619106809   -0.41610153310385   -2.41864692037941
C        -3.74451568293808   -3.13905993384096   -0.28812018812564
C        -4.10035752356133   -2.53024940641239    0.98585534551956
C        -4.16355478040860   -2.29112572619622   -1.30013366471331
C        -4.09224817345069   -0.08200010573054    1.45393020009745
C        -4.33640288137462    0.00166335515590   -1.35374062079661
C        -4.60813676253424   -1.21839776816553    0.73575975736024
C        -4.77782922286991   -1.12745096541025   -0.67175199463987
C        -3.02636527793708    2.19552755114325    1.36952467122899
C        -2.57015966945859    3.26676442971522    0.56464193513389
C        -2.82564898923832    3.27119330446145   -0.81715608497817
C        -3.42298871518070    2.17059664159770   -1.43860067542704
C        -3.89772981053919    1.19087537394691    0.77940346040691
C        -4.08713950785097    1.21399509511705   -0.64987966463614
