70
C70 Isomer 2225 Symmetry C1
C         4.55223364457517   -1.73352241121691   -0.40117877424132
C         4.66775216508233   -0.32091450293425   -0.21432345248590
C         4.12068759689285    0.00335366484682    1.04242028120108
C         3.85157320818642   -2.28566418506204    0.71993306525564
C         3.54340699479187   -1.23326218403674    1.60149819496896
C         2.73144916613249   -3.03680260604788    0.23337354400176
C         3.70401011026889   -1.91993669369991   -1.51977468896423
C         2.65255753474547   -2.81303748609732   -1.18540043745919
C         4.08704012949474    0.32677122098925   -1.36941428520787
C         3.36094541139916   -0.66975191659948   -2.13249145614050
C         3.50383725840944    1.55488736203674   -1.19407447381739
C         3.47587355498946    1.25253838064968    1.23533653016974
C         3.31178907093364    2.12260218249437    0.12404686680684
C         2.44814163232098    1.30572923674092    2.19690563169233
C         2.29105433204766   -1.18909622675642    2.28490696600236
C         1.87425490394634    0.07928323305975    2.71396228490480
C         1.54048519336411   -3.11130765735346    0.98346545704775
C         1.26193983781163   -2.18387592554808    2.05335643491573
C         0.45990858522476   -3.59218250647969    0.23240556997873
C         1.40970167054012   -2.67444916171001   -1.82634994291492
C         0.39821331024678   -3.39035738324092   -1.17347956383095
C         2.04808662757037   -0.42703596879087   -2.60572032052411
C         1.04725042353760   -1.47478504169763   -2.55315772023416
C         2.37772996407017    1.91238128475841   -1.99613971581180
C         1.59314149231916    0.94340754780966   -2.65090271798446
C         2.22069072419641    3.03184423439088    0.04775966558935
C         1.76473540968895    3.01798857874495   -1.32085193761256
C         1.43176771689452    2.28950848773509    2.16615414797078
C         1.25450114494518    3.18097783283275    1.06977118056774
C         0.52576823671867    0.32962207093835    3.05586969636390
C         0.28622508878130    1.73330839163987    2.81880170015415
C        -0.11122341856046   -1.92571998659391    2.39135993294312
C        -0.48320250987662   -0.63028151386673    2.90726465233481
C        -0.87093160690504   -3.58175384090253    0.73270483341794
C        -1.16995364606116   -2.74794194942994    1.82590908955265
C        -0.96074639542502   -3.26179548463509   -1.53934266822507
C        -1.74847155160421   -3.67591443996891   -0.40464734479891
C        -0.34462217564930   -1.17983517657206   -2.72901717462515
C        -1.34357585349658   -2.17568970135201   -2.35387749759030
C         0.20070965555315    1.24142205613499   -2.88624675869849
C        -0.77555593853066    0.19256660489618   -2.93031764523937
C         0.50595558167915    3.39332707804787   -1.65723023893220
C        -0.23142130670708    2.56995019353963   -2.58842626491739
C        -0.08745625998094    3.63564151319585    0.73392349737476
C        -0.39612265579825    3.89257806602883   -0.63786151336639
C        -0.96805121229632    2.19175637170857    2.53218273299383
C        -1.18042280644255    3.19459596903772    1.52302081770440
C        -1.84039702251587   -0.11833723815710    2.76260742878322
C        -2.06172925451610    1.26641636675764    2.54658943712752
C        -2.53496182811062   -2.32008423159750    1.89545183597442
C        -2.85066281361458   -0.95608303038949    2.29135609559730
C        -3.06572848273338   -3.28837639630989   -0.29865845377786
C        -3.48055685468348   -2.72116032473164    0.94996208382827
C        -2.72071075489837   -1.82672511232825   -2.23556752217045
C        -3.58606054081863   -2.46800161764498   -1.34107473062503
C        -2.16820419046360    0.53456365148767   -2.69941528831783
C        -3.09741564131511   -0.43284432954043   -2.30683655591561
C        -1.57673708481872    2.85718005958582   -2.33629833635067
C        -1.68596310910333    3.67570140868131   -1.13683564408153
C        -2.53987678738327    1.84971912439808   -2.29452411723941
C        -2.48107483449413    2.92340720764743    0.98641606750867
C        -3.02133656231221    1.73815028189389    1.61202610137471
C        -2.73345751284266    3.13376088901268   -0.36468646563651
C        -3.35835861092357    2.06986351453878   -1.12655957357609
C        -3.91096003180513   -0.46757710048013    1.47113863442829
C        -4.32076790533298   -1.56524189578135    0.65171896866198
C        -4.39955290264014   -1.42065033795385   -0.71915323987427
C        -4.09408184323255   -0.17038271749521   -1.31979369533599
C        -3.87446929399092    0.84207221059220    0.93291755412049
C        -4.00959617747540    1.00050200614997   -0.51088676479414
