78
C78 Isomer 17724 Symmetry C1
C         4.47450394920888   -1.33088793468820    1.46232916014069
C         4.36565377911596   -2.15023504643620    0.36704168549936
C         4.67487820133124   -1.35953091955310   -0.83528451576050
C         4.89357678752359   -0.00514457004232    1.00479918570376
C         4.97869863628375   -0.02909070266411   -0.43057932758808
C         4.07375483095594    0.91675884436871    1.63941456547458
C         3.36485105295932   -1.18714070631144    2.35601450503692
C         3.16738554236240    0.19834310790177    2.54813285936325
C         2.24016783063659   -2.04039822040289    2.26106570510565
C         3.17734789388818   -2.89137222928337    0.14798943635128
C         2.17547658550455   -2.95255931898074    1.15339301278265
C         3.66668098265838   -1.63105237732502   -1.75949448371091
C         2.78746717022394   -2.64672766757417   -1.19818491925027
C         3.08952344136221   -0.60192459302231   -2.55020152119385
C         4.39068903660898    1.00681772543571   -1.15810981346716
C         3.56845470569406    0.70642424197661   -2.29279811049975
C         3.59238172277678    2.06160703608005    0.92555043500551
C         3.78180167776181    2.12383343245919   -0.47417883024595
C         2.43143214422702    2.65883404823334    1.43161144563306
C         1.90891666380521    0.72446325400396    2.89890324106216
C         1.66818743842583    2.04393546944293    2.48741776284063
C         1.00596525058311   -1.55151579015703    2.82479057618300
C         0.78456182005319   -0.16742342751951    3.13090632146479
C        -0.12137997452611   -2.35557127717544    2.63169772225559
C         0.91281550605766   -3.44172634351456    0.70643823292311
C        -0.14843137514328   -3.36258859155966    1.61947754805767
C         1.46185994928392   -2.79298364290430   -1.62010180184822
C         0.58554532500503   -3.46045101000117   -0.69444263329065
C         1.74569234699401   -0.79889678683808   -3.05117046966861
C         0.94303792057937   -1.93474548032731   -2.64861807935883
C         1.05230836217131    0.34475634430515   -3.47848332421803
C         2.67674488712356    1.82216539131644   -2.45026102092811
C         2.74498551370587    2.66752924466519   -1.30921116341130
C         1.47680691920354    1.65026690288531   -3.09151285107007
C         1.50604566044173    3.34697051384843    0.60351209258182
C         1.56046868054022    3.26105751039729   -0.79920847545617
C         0.34178236959831    2.51920858775692    2.41113285357167
C         0.24315125990386    3.34736174748932    1.25869315529134
C        -0.55410702991012    0.34850554107158    3.17561898229648
C        -0.74832632765399    1.74595365935856    2.86692769243002
C        -1.44791042243277   -1.88193181302708    2.82985362476310
C        -1.70535497146138   -0.52256536353995    3.04924152742828
C        -1.50625812689690   -3.56227414809601    1.23763868848823
C        -2.32891080051222   -2.70909707441298    2.04931229106964
C        -0.75796165904721   -3.58656019413585   -1.06341079481210
C        -1.81285014095002   -3.74108189834385   -0.10053819128659
C        -0.47482868690556   -1.94253538383804   -2.88341695216565
C        -1.27355513558206   -2.86513140408856   -2.17473404764656
C        -0.37176064244577    0.38415682281487   -3.56306256570111
C        -1.14602986222090   -0.76058874904535   -3.37160924030398
C         0.31939922679951    2.40536202691919   -2.70218892644723
C         0.29587604614110    3.15449173802797   -1.51947274968154
C        -0.82115258795012    1.66489110354466   -3.13119796599369
C        -0.97081905102755    3.48308362811356    0.57273800326520
C        -0.99124018524014    3.30097275303916   -0.85715435877645
C        -1.99657465836653    2.21970970234883    2.45221043194969
C        -2.09324696200234    3.14453701814432    1.35823315278136
C        -3.01351920683057   -0.02675130076836    2.64279240547587
C        -3.15874102729430    1.36741413098574    2.42937894770778
C        -3.50329106727662   -2.19653351852538    1.54618004244201
C        -3.88904436073957   -0.85598211714739    1.89146697358461
C        -3.01316525990304   -3.17196543046929   -0.64135163551617
C        -2.68424573910355   -2.65405829946961   -1.94104074143098
C        -3.88634138615794   -2.46777121656622    0.18342935841511
C        -2.50930951486417   -0.51957557480245   -3.07459354606461
C        -3.30279716745534   -1.50220486264608   -2.38664079815959
C        -2.08337531786320    1.85559501715458   -2.56182931925467
C        -2.19051825632776    2.76351599817477   -1.44739081864628
C        -2.97682740078644    0.76492330550488   -2.70601064192072
C        -3.31768947721711    2.89642340581349    0.71797970972016
C        -4.02692307545882    1.85936760961133    1.44380035549171
C        -3.36480164045091    2.62094287362665   -0.64715658030301
C        -4.65648966108417   -0.34841906968326    0.78497380441524
C        -4.55486833557613   -1.29287786277527   -0.30039793210415
C        -4.27859979057385   -0.82622535440684   -1.58048601032075
C        -4.09282760240972    0.58785798464293   -1.80929012133387
C        -4.65833342579117    1.01601463821311    0.51073426349642
C        -4.29546980406063    1.50204491239230   -0.80900647871324
