78
C78 Isomer 3011 Symmetry C1
C         5.72901793142130   -0.95828462982225   -0.36935873673597
C         4.93663473961821   -1.95581050118455   -1.04031355179735
C         4.39217262917009   -2.75281777097508   -0.03365695409724
C         5.37583115949183   -0.97595091374046    1.06370297235379
C         4.62006658781880   -2.11115523059036    1.28771416439741
C         4.81717976324732    0.28596080499271    1.44070044391210
C         5.33525616948345    0.28276941527978   -0.85815310934310
C         5.00993969339407    1.12275685297071    0.27021289195896
C         4.02014189079682   -1.28211761462856   -1.94954089878594
C         4.31854867203525    0.11981905087280   -1.88071222982457
C         2.66923704683331   -1.66827726828585   -2.05319553636501
C         3.04966959446196   -3.12742522490850   -0.09380802102073
C         2.23593050228253   -2.74714715904620   -1.18905281508974
C         3.36630705032098   -2.03463477060456    1.94341632580736
C         2.48143744874810   -2.89085738786523    1.20956762617364
C         3.57707561691854    0.38167329293248    2.14298033698425
C         2.80943938203447   -0.81367337654972    2.41547671703059
C         2.83066881379498    1.61722949328971    2.03589089343098
C         4.14776914365593    2.13902467636677    0.03197775743847
C         3.24706446875303    2.54775048825693    1.06773865705887
C         3.30722436129102    1.08369548458397   -2.03096816612298
C         3.42700411334087    2.24824343435742   -1.22349942965099
C         1.65563567768860   -0.69687367054306   -2.43949593382403
C         1.96785826430938    0.69678093496710   -2.42095585962150
C         0.27587650600704   -1.10848450586411   -2.48973426149664
C         0.86546387650244   -2.97032804464889   -1.00797639259371
C        -0.04815674832393   -2.38879438007092   -1.93869130193793
C         1.12343595920352   -2.83664135601937    1.38117705807038
C         0.33087316265949   -3.26199448345835    0.27644642113764
C         1.36767198636870   -0.75161238677104    2.60751436180956
C         0.55049313598991   -1.87337854013504    2.27064083375185
C         1.45342632324785    1.69831892995423    2.48223329342013
C         0.69482164398535    0.51210501983349    2.76925435418810
C         0.72036469835280    2.85112248054449    2.14593482741038
C         2.30411418893929    3.38923170497289    0.41864655898605
C         2.31707233277924    3.06432464587261   -0.99095719608865
C         1.12819381274936    3.66295545108213    1.03986570472712
C         0.89070497762075    1.64791819000791   -2.35104883782178
C         1.08554114364450    2.88386761506153   -1.65298575095647
C        -0.79688396325543   -0.18511735053407   -2.67773468172670
C        -0.46673970163417    1.21430106460322   -2.60778149998617
C        -2.17864742140919   -0.60891720416601   -2.52171772220506
C        -1.35897347021403   -2.80571114033556   -1.82705850394385
C        -2.43653499627702   -1.97456918529860   -2.27135023213264
C        -1.04753699801623   -3.43290802576509    0.48469201750845
C        -1.81367733748982   -3.56943969512727   -0.69385165719740
C        -0.86793809869323   -1.87119713918607    2.37762164895221
C        -1.63935189494784   -2.90335891818316    1.69087924362482
C        -0.73995832046885    0.55898132316487    2.82208086878988
C        -1.49294815748275   -0.66318643990797    2.80240866671432
C        -0.70016072348473    2.89844552356127    2.15942093612504
C        -1.45492011436731    1.79003929690939    2.52585840856347
C        -0.01513355415065    4.00415894634674    0.25122631735229
C        -0.03836619514476    3.61249441564469   -1.11659439834743
C        -1.14365561447724    3.77578016438285    1.08526267096700
C        -1.51707852194676    2.11547812313873   -2.40826759803800
C        -1.30325488947453    3.33675655794349   -1.66188383876626
C        -3.21286384934649    0.30094366019730   -2.10248480338687
C        -2.86125297325778    1.66406809795561   -2.14269726392381
C        -4.27138670731412   -0.10329753854388   -1.18334358344023
C        -3.60835408027431   -2.39492651782645   -1.61722723184409
C        -3.21094771127688   -3.41960644882649   -0.63323187077997
C        -4.48694869249181   -1.49378559792323   -1.00021432004737
C        -3.04885550234128   -2.85734398373318    1.73744639490076
C        -3.83490088973964   -3.16356608567130    0.56642248088836
C        -4.75866800825594   -2.04126846551909    0.31843388986494
C        -2.91318674924580   -0.60724878244832    2.71601650598486
C        -3.65535339478082   -1.71352009917923    2.32140266057704
C        -4.70152567280462   -1.22430604618326    1.41374875651875
C        -2.83306795424477    1.76613173747721    2.06058112122955
C        -4.52716469603447    0.75395168348822   -0.03943668456660
C        -3.56103632366910    0.58149514899717    2.19502355648858
C        -4.55802617322046    0.18131999861179    1.26342172025734
C        -2.38716930891306    3.62007103147539    0.50716684322141
C        -2.46349235464455    3.57548938920637   -0.90553928736108
C        -3.44308425934956    2.56913518373667   -1.23900767744505
C        -3.28735519837652    2.63161937413256    1.04287141171683
C        -4.02360724812067    2.06632519289715   -0.05555048198059
