72
C72 Isomer 3856 Symmetry C1
C        -4.89948607435162   -0.41795905278183    0.45137794440425
C        -4.59028145296386    0.93714381130501    0.29674070123986
C        -3.72213028899148    1.36014924740778    1.36947889067478
C        -4.10285239528577   -0.89673212496844    1.54631321307442
C        -3.30129825015774    0.18427078197563    2.06802180221679
C        -3.38911996966796   -2.01772571433561    1.10322766475529
C        -4.39284052015373   -1.07978942370356   -0.73634857469038
C        -3.59979860726099   -2.15448439938425   -0.32955697157472
C        -4.10205404279746    1.14352025334722   -1.05246004447745
C        -3.79294303114207   -0.13965971558487   -1.63581574764364
C        -3.24633373294467    2.18090339839176   -1.23771431268025
C        -2.84412007570258    2.42215195253278    1.16332135030039
C        -2.85711751308364    3.01261969864366   -0.13018988507941
C        -1.59875514823404    2.42102851357810    1.90942223997279
C        -1.92598940325142    0.01521461609257    2.42651966586251
C        -1.07551601282858    1.17091642781286    2.43791882470822
C        -2.11652640241600   -2.31394216638608    1.65334539707012
C        -1.33507345002653   -1.29662085594654    2.34116695241627
C        -1.47939692306751   -3.33626049225932    0.96839162613754
C        -2.52101769065358   -2.55608280317253   -1.13398524210554
C        -1.72697109303140   -3.49891519885319   -0.45680892278591
C        -2.50361597732132   -0.35971751703310   -2.21069186605041
C        -1.89459465309383   -1.65256156595979   -2.06076992494908
C        -2.09498779936122    2.05575875920170   -2.10617006105393
C        -1.63145915846827    0.77596564001837   -2.47037810266441
C        -1.72968620277192    3.73077500474158   -0.57094963468333
C        -1.22707686356575    3.12886540167431   -1.78534806931074
C        -0.72339138078665    3.46294376899376    1.62242728557410
C        -0.83570665814863    4.19743545998691    0.37622166489458
C         0.66864459054857    3.37483916691603    1.94174481680733
C         0.34636536084201    1.00299867552269    2.60718998710577
C         1.21417480734155    2.15516264601589    2.41743344749247
C         0.07513181214388   -1.47327375360959    2.44128632218806
C         0.92317269826062   -0.31731620170916    2.63161539727698
C        -0.11518538762952   -3.65034564973655    1.22817289146372
C         0.66535770323650   -2.74146922487195    2.00118738447191
C        -0.53668198772948   -3.89257749037159   -1.02509737565877
C         0.40158586843221   -4.21807547842328    0.03974814880169
C        -0.48522540742828   -1.82976350825755   -2.34849415038836
C         0.13165659532763   -3.04337966351018   -1.94534458481407
C        -0.19969486199903    0.62295392110922   -2.63974840309219
C         0.37866105144447   -0.69565612794955   -2.59581951799447
C         0.14972372403724    3.06176100719080   -2.04249923821989
C         0.64923560592601    1.79082967766294   -2.52207269305810
C         0.46265081614755    4.48514231403522   -0.06600910210892
C         1.37875256328702    4.15928080451689    0.99883826466763
C         0.97889377321358    3.92446439891030   -1.26116619597052
C         2.58694770218911    3.71753603464535    0.43285367744052
C         2.34886830175398    3.56996535688123   -0.99466229453901
C         2.58441121671693    1.96275490961950    2.13342003378535
C         3.26282410455254    2.72085819651479    1.11205735437331
C         2.36162851405723   -0.46654682138922    2.48072216916665
C         3.15518333004590    0.66218367639917    2.16895093780685
C         2.04578297578969   -2.82564532319196    1.76459167850981
C         2.90838519473899   -1.71155466977792    2.06527503285038
C         1.67918592349174   -3.90682529937295   -0.40474498542954
C         1.53762128899505   -3.13898569798685   -1.63453906944512
C         2.56478521919228   -3.46872475026355    0.58114476612162
C         1.80961675917631   -0.85946523327564   -2.44281174232724
C         2.39566816629934   -2.07283111303183   -1.89514205869666
C         2.03853451017451    1.59189143716954   -2.40781483908276
C         2.88223598948415    2.47915288884005   -1.63623791790304
C         2.60241465256151    0.29821758606528   -2.36901083099456
C         4.08695095509571    1.80261086127096    0.38074887659996
C         4.19741832549377    0.61194125582339    1.17385645204865
C         3.88919659854943    1.67646900403252   -0.99169743343740
C         3.81314151994753    0.36142793096262   -1.57268518624873
C         3.99568005584417   -1.75234406833463    1.16922001595562
C         3.65065856497083   -2.70404091702471    0.13244786356589
C         3.58399986991574   -1.99789054582869   -1.08302229276978
C         4.49199607290809   -0.58733533845551    0.55554696841785
C         4.24478563418318   -0.73260657906646   -0.86814043829158
