76
C76 Isomer 5320 Symmetry C2
C         5.19731132701344    1.17022739417347    0.43551902427848
C         5.04766787543966   -0.17996443502344    0.10190147350172
C         4.27586830489247   -0.83906205221133    1.12336591507184
C         4.37805741243909    1.40213769084424    1.59678553759138
C         3.73381850523110    0.17293631062137    1.98143853633535
C         3.52127716723775    2.47494050247722    1.32459124208870
C         4.58214198098563    1.91692519926063   -0.64091048769151
C         3.68793819645578    2.83374878509227   -0.07750683405977
C         4.53314302909226   -0.26280190903833   -1.25322255396393
C         4.06166767706520    1.04125532783434   -1.64846178348404
C         3.78279776001057   -1.35228033890161   -1.56067821625780
C         3.52796858782018   -1.96818542368342    0.79428063010973
C         3.54046999383300   -2.36433720156777   -0.56864522345253
C         2.33813258856546   -2.23392947180098    1.58161371400626
C         2.35621229122522    0.11913612015148    2.36895374057750
C         1.67484485931545   -1.13321506328827    2.26527464476938
C         2.22386679965157    2.51856720906086    1.90262692428645
C         1.58440018432258    1.33673108613959    2.42611338516206
C         1.43893087904033    3.53470324981841    1.37594305430457
C         2.56269341340366    3.21943002076109   -0.81083344330985
C         1.67678067068262    3.96054821895996    0.00254719188193
C         2.73834905808664    1.19211671112846   -2.16657007758299
C         2.02505393248505    2.39326804818198   -1.85679135068000
C         2.56718231888765   -1.23492458839744   -2.33910628157538
C         1.95295814761500    0.01599829513320   -2.51990619065812
C         2.46907630645928   -3.14043799312942   -1.06448642092289
C         1.81518689041301   -2.41394368283605   -2.12863719755259
C         1.60210812292246   -3.34509199043085    1.19107386167579
C         1.71683142832229   -3.85832679124348   -0.15978401486627
C         0.23638185223567   -3.50051889405896    1.59144750905776
C         0.25314044941976   -1.18107833165597    2.49131629101387
C        -0.42635960412793   -2.43270007490528    2.25691159000045
C         0.14992858465878    1.30617259389200    2.49064033474898
C        -0.52003296556165    0.03937077716654    2.59808824860689
C         0.04350860006988    3.60938979513099    1.62820012482284
C        -0.63605781429769    2.48353960126398    2.14911341004053
C         0.47921719261373    4.34735311797151   -0.53488945063102
C        -0.50886017789047    4.34622119808605    0.53217193869374
C         0.61155538395347    2.48432806750298   -2.15105735510468
C        -0.07110388172676    3.60852264870634   -1.63060124165361
C         0.50226719949797    0.03966094571208   -2.59899991642253
C        -0.17118697147802    1.30465414855851   -2.49207813603242
C         0.41540183603539   -2.43251502468825   -2.25677842914935
C        -0.26754303677776   -1.18286933362805   -2.49170802877961
C         0.42561237739336   -4.22954005733914   -0.57577155815870
C        -0.43163066526208   -4.23046326592815    0.57668971718399
C        -0.24439379940987   -3.50185665951684   -1.59084560748922
C        -1.72385387623370   -3.86295624295391    0.16054605958518
C        -1.61053434656025   -3.35000289566752   -1.19052731466550
C        -1.82617522436967   -2.41801780754521    2.12875484394478
C        -2.47808569775795   -3.14677364074776    1.06493280938171
C        -1.97066306456686    0.01167759022738    2.51899115095366
C        -2.58143192826724   -1.24099139168174    2.33872488486248
C        -2.04930956118315    2.38844902060935    1.85487278562535
C        -2.75928958166601    1.18548099913162    2.16516571355037
C        -1.70534291962513    3.95587708177755   -0.00510841350300
C        -1.46630825593830    3.53010316730608   -1.37832355071368
C        -2.58922475683790    3.21266109026053    0.80856286911464
C        -1.60574271978881    1.33129017857139   -2.42754735782740
C        -2.24845899724104    2.51157709944310   -1.90455595188591
C        -1.68937651608638   -1.13882275652421   -2.26567135670920
C        -2.34962644616972   -2.24104691042254   -1.58153558185324
C        -2.37419813707065    0.11160874927117   -2.36987517137900
C        -3.55163710725807   -2.37385579743400    0.56877072961458
C        -3.79676898096285   -1.36205899006782    1.56038676268701
C        -3.54020590155811   -1.97824771282322   -0.79432496007904
C        -4.08222151418241    1.03073742246933    1.64712376268065
C        -4.55008761499358   -0.27478026708654    1.25243962962793
C        -3.71341416167723    2.82359589692336    0.07541685090259
C        -3.54573769710245    2.46464793360292   -1.32655741236798
C        -4.60505817333838    1.90452925723548    0.63918442287026
C        -3.75197783222443    0.16177487642881   -1.98241162774050
C        -4.29126343617659   -0.85137237433524   -1.12390124533677
C        -5.06487319842684   -0.19396463576803   -0.10271674298563
C        -4.39953093978244    1.38933995095601   -1.59824343677950
C        -5.21818168121405    1.15570062848711   -0.43691139190617
