80
C80 Isomer 14548 Symmetry C1
C         5.25771049303253   -0.17159445941027    0.35121510342489
C         4.80048188177204   -1.11868748541656    1.21996288152195
C         4.28255412629102   -2.26111421941973    0.45548317928919
C         5.04479062962514   -0.72692813017216   -1.01697172796007
C         4.24938139348201   -1.91103743565534   -0.92331142208825
C         4.59323231317068    0.30339892567809   -1.78841730896239
C         4.74018971224121    1.17318302280582    0.39415088828214
C         4.54338710898729    1.51901575625297   -0.95693903253198
C         3.75268371039575    1.54731108026961    1.38028153054140
C         3.85655155784947   -0.79810679915107    2.24752551146189
C         3.40347932789327    0.54867549621525    2.36919728560092
C         3.15308448103756   -2.70012550833704    1.11972753233956
C         2.92217726995001   -1.87029588340600    2.28917742930696
C         2.03717274569306   -3.12580302790377    0.38219357695728
C         3.00610011112818   -2.00149402785784   -1.61774033634817
C         1.98671769234346   -2.79972319970570   -1.00559913945113
C         3.36797675458497    0.22726798027999   -2.52105554520689
C         2.53720551407196   -0.91130068881001   -2.45077965258390
C         3.43087514091505    2.24157365833520   -1.35420369247524
C         2.75982128606924    1.51148383186645   -2.40191434546310
C         2.75224830213043    2.52371843764130    1.01229009394379
C         2.66232065187581    2.91489960129550   -0.36630083568282
C         1.53314495379817    2.69633198558895    1.79108756247137
C         2.15512267751071    0.67022413106160    3.01026059042076
C         1.29585109305037    1.77887393539997    2.81153561077695
C         1.61055158477603   -1.71795146197075    2.77809307462747
C         1.32368208064161   -0.45326371270340    3.30177675262626
C         0.81902896512605   -3.31874210401116    1.12385038806337
C         0.52945906772528   -2.52714156832587    2.28876962119764
C        -0.21467629047032   -3.86330865543468    0.39324746992889
C         0.71776391089047   -2.88607354229661   -1.65845517925861
C        -0.20220824611495   -3.73879016977319   -1.03885137880602
C         1.10745777898686   -0.72778388018280   -2.71297054259801
C         0.22914911149480   -1.82344171050726   -2.49625359260072
C         1.39878057441128    1.69956098064822   -2.62876356502889
C         0.53382533027871    0.58324536115570   -2.87420001665864
C         1.46048766274095    3.40542645652106   -0.86664925249630
C         0.87270655225877    2.86439308497305   -2.04565158232564
C         0.35491355195105    3.39119895773902    1.30191083377522
C         0.39205245071991    3.84114751348029   -0.02024393770720
C        -0.97070239532554    3.17188092674053    1.87645377246496
C        -0.04753272928232    1.37812339587573    3.17093382811713
C        -0.02659690305432   -0.02176940855162    3.39957634027173
C        -1.18906489697725    2.03390921654795    2.74376387909236
C        -0.83284858536166   -2.16168545962670    2.54037333131154
C        -1.11058684968719   -0.84767005690885    3.07684686301634
C        -1.57427308279607   -3.79054400517441    0.83776640087969
C        -1.89641082804723   -2.86001587775488    1.86089296760006
C        -1.54187801352582   -3.74117834043831   -1.45408010047553
C        -2.39340986831838   -3.91979990961050   -0.30654466904713
C        -1.19489834222693   -1.66297354048040   -2.69034924738804
C        -2.05592112340691   -2.70475107574955   -2.25859450448712
C        -0.88794701793035    0.79852601558701   -2.81643952467318
C        -1.75094000096932   -0.33910398635958   -2.81576541239301
C        -0.52525609171092    3.07480348254460   -1.99611821753025
C        -0.78156407292546    3.87353390234151   -0.82923085133303
C        -1.42895597230072    2.09138317900796   -2.41633530535966
C        -2.09304360294358    3.62475221841404    1.16913451747974
C        -2.01305994234982    3.86767490544982   -0.24780841401857
C        -3.36527777836812    3.02896827753332    1.37815797825247
C        -2.42090168230484    1.26415253018694    2.75476780729869
C        -2.36595833719041   -0.17650287135258    2.86407321851573
C        -3.54221519736467    1.84556994819010    2.12314655769479
C        -3.16932346500763   -2.24627041252006    1.77032796017111
C        -3.40858689100235   -0.94384806784394    2.29973067690141
C        -3.54332589269330   -3.13008313692534   -0.48760488443077
C        -3.38349435865299   -2.43727077147653   -1.75878282368327
C        -4.00842921378588   -2.40782052194699    0.60523122865514
C        -3.12315621154035   -0.13712663199917   -2.49418965915582
C        -3.91297622556054   -1.18276326358208   -1.90984192801963
C        -2.79004904518712    2.23498848453414   -1.93415912681449
C        -3.08765203978909    3.18189147523722   -0.91074804805354
C        -4.01337572663399    2.85424101589991    0.10737385998255
C        -3.62455922333180    1.10354017467501   -2.00856360462062
C        -4.51360259947798    1.03741550556128    1.42042339128412
C        -4.45139497905397   -0.32937163156106    1.53045009850380
C        -4.70958627764569   -1.17245442590495    0.38973935164299
C        -4.73102525235659   -0.59951114814778   -0.87481644937275
C        -4.72414701945476    1.63318774804628    0.11645187177909
C        -4.63230727877404    0.82574961478514   -1.01110796038295
