68
C68 Isomer 5095 Symmetry C1
C         4.14139022385449   -1.14970183764152    0.50236672279879
C         3.47996642244940   -2.32085120478020    0.77063323606248
C         3.02294362602747   -2.88287697581164   -0.50258738343191
C         4.02741469566382   -0.89829914235446   -0.95098786958718
C         3.19068007528996   -1.89456361982618   -1.51532787316224
C         3.78175522486202    0.44462995791896   -1.13769028218158
C         3.82242745729965    0.04040237464940    1.18587778258198
C         3.90106068459431    1.07784211318037    0.18052381456886
C         2.77919147602258    0.07545912678340    2.14357073487707
C         2.39315682587763   -2.33393914073734    1.69127247923169
C         2.03264860792685   -1.15406575815276    2.38247458958773
C         1.77887282104342   -3.45901130129956   -0.25490788677171
C         1.37580669969998   -3.17839722897408    1.10595119709607
C         0.82160203417056   -3.35858573739318   -1.26600181727076
C         2.07019096211453   -1.48264326275134   -2.31991559867302
C         0.97883647539686   -2.36042462270938   -2.29364245433628
C         2.75902572231024    0.89481363458153   -2.04715628642031
C         1.81384731665742   -0.06260559715845   -2.57987657042663
C         2.36623995275984    2.23060243487298   -1.87648070339452
C         3.34821317008893    2.29924698819715    0.39793644504615
C         2.80493293970518    2.98111337103419   -0.72848333003520
C         2.13002107111970    1.36542996214747    2.33286876035167
C         2.46351323225911    2.48791426380706    1.53197294165764
C         0.83586772257209    1.37276470118428    2.88358697599548
C         0.65949165601779   -1.09800416355591    2.83828622208687
C         0.15740892556921    0.16330840562774    3.20371837809367
C         0.02552262970055   -3.07141461702261    1.43973078464779
C        -0.30395549931167   -2.12022147320919    2.48226027415964
C        -0.53778041091942   -3.44640671860713   -0.93025692180911
C        -0.95728993606395   -3.41472885196850    0.42056667077645
C        -0.33243260746401   -1.94239522179379   -2.66186684897335
C        -1.27674156715777   -2.69913054639915   -1.92156287700294
C         0.48650133632530    0.38033639548113   -2.91715948188108
C        -0.58803312704134   -0.60092849751044   -3.04119241722655
C         1.04364770060589    2.65788889018147   -2.19742634030531
C         0.09419039507589    1.76128918770845   -2.70692310271147
C         1.72444013016450    3.74578949136411   -0.26039188505680
C         1.47362931312889    3.43493859665045    1.11785709748393
C         0.67130094736409    3.66541497719445   -1.21943857306892
C        -0.15156901531932    2.36290142823610    2.53403180256364
C         0.13117696209511    3.34825405065734    1.56222333644449
C        -1.24690044380308    0.45807593918150    3.17633623096352
C        -1.44355544618242    1.78292794879216    2.65026616131704
C        -1.67554612181342   -1.85203996794597    2.67435723309719
C        -2.15949234966059   -0.53008219606548    2.95906516887399
C        -2.30720372708218   -3.05264246718537    0.62451963449282
C        -2.64830927216648   -2.42705548927407    1.82168199353901
C        -2.58753626178424   -2.24321064555753   -1.69813663767399
C        -3.15722730255771   -2.50148909337581   -0.43003793465997
C        -1.93558447640937   -0.22099682796265   -3.00377196099384
C        -2.95034655215524   -1.05554200564788   -2.39559565467567
C        -1.30310847161567    2.11999737477632   -2.50465997172203
C        -2.29887588410974    1.15699011520369   -2.77061850572050
C        -0.61681263401296    3.72848768239257   -0.76470534724871
C        -0.92097349368320    3.63423780026491    0.65105726825746
C        -1.64435598500472    3.07089289741286   -1.51085603413512
C        -2.49652497013178    2.05052456822925    1.74531992220754
C        -2.18908628278267    3.01656741858127    0.75124763275647
C        -2.71218893170175    2.83890562499494   -0.58939930186729
C        -3.34059404312124   -0.24784507659671    2.15064761411497
C        -3.69507091825491   -1.45285860457946    1.54779042946402
C        -4.02756219794108   -1.53727543913884    0.17441849931583
C        -3.47208067717449    1.00138452518335    1.45611525030377
C        -3.91890963365732   -0.20420928497749   -1.83290075955521
C        -3.51217721248952    1.16254884474454   -2.06741634010496
C        -3.65486649824564    1.87091982041536   -0.84930312606241
C        -4.31580273544366   -0.33034881247201   -0.48295378509559
C        -4.07342074955072    0.93799051880529    0.18109857842646
