80
C80 Isomer 12066 Symmetry C1
C         5.27563599502931    1.00396559848136   -0.62969446269589
C         4.82659262379552   -0.16753469802103   -1.32381776476590
C         4.52777337175000   -1.19277597770817   -0.36627904808287
C         5.06731588152584    0.78630980688198    0.75700841197865
C         4.75630540189692   -0.60254358439141    0.93555153335612
C         4.16591538095132    1.77841557233261    1.25766512356605
C         4.44563053703410    2.09809179394938   -1.03018753659285
C         3.80115687470657    2.61704305811545    0.13123045602058
C         3.83832584739484    0.22867451643985   -2.25833395022907
C         3.61400327737469    1.65670502044161   -2.08619647675684
C         2.75878660816603   -0.62253008493469   -2.54231241205509
C         3.43338078444558   -2.04722330647947   -0.58252319620575
C         2.69229085043971   -1.86316248735225   -1.80938667886422
C         2.71779277835202   -2.59728037908277    0.55581458361646
C         3.88922976631991   -0.92455643376945    1.95193486106637
C         2.98537394843982   -2.02629507666240    1.80834505422125
C         3.18944598624439    1.43709357560810    2.22678960575759
C         3.20683645030179    0.10313811914589    2.68968980306909
C         1.93484243883233    2.16450281958374    2.27529057762118
C         2.51062500563100    3.12681275333758    0.03107299803254
C         1.68902413324319    3.10535683830145    1.22404939926092
C         2.32762896507806    2.17545028517958   -2.22795888573340
C         1.84475624994881    3.10665831686168   -1.24725716087766
C         1.56069168639684   -0.05050001313062   -3.09568214761500
C         1.38276711928365    1.37896126125839   -2.97526962149177
C         0.41044623063970   -0.87554479567582   -3.30966514697117
C         1.53573420052184   -2.61108922219720   -1.97095411542463
C         0.47964295991989   -2.20373095502503   -2.82985741675543
C         1.44283115428741   -3.26410701421625    0.39235590515209
C         0.98792387570503   -3.42953793891844   -0.92132692012771
C         0.45295872204217   -3.29350797688862    1.45136331686031
C         1.92052236205855   -1.82059588385707    2.73535540637586
C         2.02323861690213   -0.47840431733558    3.21225138516420
C         0.68728363728794   -2.46940299146988    2.61379368822632
C         0.80967900400211    1.64888812360569    3.00988276298214
C         0.87663859784339    0.29092258904060    3.47965562889027
C        -0.49920276757287    2.24466468669145    2.88527747439464
C         0.41350526231677    3.64616538056812    1.10659294483837
C        -0.63721195982563    3.32947662395861    2.00998087580153
C         0.48533566510982    3.53287894592695   -1.32455322711710
C        -0.16938714457519    3.97100878678853   -0.15781971005971
C         0.10469432756515    1.90050839623398   -3.11712384755538
C        -0.33723291377564    3.03256810743777   -2.35234046753768
C        -0.90783403980879   -0.30488047005615   -3.48937744092412
C        -1.03188368707398    1.09615691244389   -3.40865787356626
C        -2.06097912203493   -1.04484457729445   -3.13791636888198
C        -0.69331709833967   -2.92349333175241   -2.43693970983740
C        -0.38142619605016   -3.66203139102370   -1.23902759209855
C        -1.94129895053540   -2.35857380395903   -2.58639329381268
C        -0.88952486917971   -3.56662371741599    1.12561941836560
C        -1.31613326204769   -3.75420014230323   -0.22372476819276
C        -1.98652240338985   -2.92746796722211    1.81175685409461
C        -0.38479519629680   -1.83382348436826    3.26388395451524
C        -0.30611192441281   -0.46105281885694    3.65264975337949
C        -1.73137073464310   -2.07730915044777    2.86404785681469
C        -1.71200063992290    1.48754279367424    3.16436925595267
C        -1.58873361256496    0.12249470301008    3.49615725993231
C        -2.48958357370025   -0.87853600438916    3.00530278569634
C        -2.93858683684230    1.84524801384034    2.57843348840753
C        -1.87229933395593    3.65267704708188    1.35620547542965
C        -1.58935132308327    3.94929153272632   -0.02204125707290
C        -3.03063600394734    2.98034622880971    1.69974659366080
C        -1.74507206433271    2.94568720627374   -2.21096299132958
C        -2.17637726549925    1.74234356249027   -2.87152969920237
C        -2.41054943034084    3.42493172755705   -1.05863769367312
C        -3.19210686751323   -0.42169936605460   -2.52761162044875
C        -3.27210035957027    0.98414199295870   -2.38814788791120
C        -2.93368123601385   -2.49829432956430   -1.55344423383953
C        -2.62276981640296   -3.16031720412899   -0.38078280017124
C        -3.02618924576733   -2.60303173014593    0.87504058129422
C        -3.69603884469277   -1.29276468017368   -1.50303699206215
C        -3.53089930587936   -0.56087234530113    2.11878889371830
C        -3.83849053542483    0.82365423634234    2.06351185326487
C        -3.77062351444091   -1.40358950233047    0.96166540165295
C        -4.18695629123463   -0.78028788470762   -0.28347737965140
C        -3.95844965752286    2.67031925495043    0.67037085769059
C        -3.61261699396493    2.75487711471202   -0.67804197935892
C        -4.00328494719825    1.49248060458396   -1.30163000929719
C        -4.46469759613983    1.33541130747540    0.92475779708125
C        -4.48923501326619    0.60815182351136   -0.28633809235642
