74
C74 Isomer 10379 Symmetry C1
C         3.45937807561470   -2.91710785380515    0.77431615614995
C         3.95089253177618   -1.92643974923392    1.59872692428559
C         4.65289061410784   -0.96323091334265    0.75897757931134
C         3.71979308889508   -2.50660084914864   -0.61417194404093
C         4.30787478730712   -1.22634593780567   -0.60744940595921
C         2.55801574388900   -2.75319262826229   -1.33837305190825
C         2.11951876916020   -3.33563199303979    0.87506107971848
C         1.65063113515095   -3.47745203397577   -0.48074235882530
C         1.24097119929956   -2.74738596000279    1.81755441045679
C         3.06340386663944   -1.20502068841898    2.44784671618232
C         1.70514078683924   -1.58980800626980    2.55648768512518
C         4.44017208217038    0.29750008176271    1.30703835289799
C         3.42280968944501    0.18319451671330    2.34511487124303
C         4.38105137099452    1.36792859245839    0.41340693780366
C         3.73560956947705   -0.17238141018815   -1.41986327516384
C         3.97966336825264    1.12767202136113   -0.95374721914689
C         2.01230862540202   -1.75786752631493   -2.21239419904484
C         2.53017130770085   -0.42261346364024   -2.20375598183469
C         0.67559695968604   -1.98921180978668   -2.57387726234515
C         0.30086108585712   -3.55941061970206   -0.75222169525823
C        -0.11980483663417   -2.99952872335341   -1.98228165488526
C        -0.16394726052540   -2.96090477836928    1.59832106593860
C        -0.60701332349543   -3.56815128723395    0.36805900459110
C        -1.09061419184925   -2.19468748244354    2.37307404276054
C         0.74533529109727   -0.56173089393742    2.88015377475384
C        -0.63674839437384   -0.93966914395920    2.92722774797097
C         2.46474046950095    1.19343599158799    2.51099840499789
C         1.10883040136327    0.82582571211277    2.82391544698321
C         3.69764917112103    2.51372712483033    0.85037639946635
C         2.70278678337136    2.43774821023180    1.84798423156100
C         3.12606303886907    2.22307940330001   -1.35100517950911
C         3.10246610449432    3.15449703640277   -0.29700361021957
C         1.61988266824011    0.66370198030409   -2.54369417281664
C         1.95994626909588    1.99722774549455   -2.13313077549380
C        -0.20042441205332   -0.92576723651672   -2.97367128032831
C         0.23785423703543    0.40350631326917   -2.89376478474920
C        -1.48897788635759   -2.62813317616398   -2.16515130955800
C        -1.54690656368870   -1.32237282138103   -2.76997492549321
C        -1.97049084707239   -3.53393506603765    0.04289736641950
C        -2.42288434692821   -3.01083075009748   -1.24252186251480
C        -2.47852768914912   -2.34801486361733    2.11417109478045
C        -2.88894569822810   -3.08277640404375    0.98778235592991
C        -3.42781246754904   -1.26785267722316    2.27806379610140
C        -1.58605157416870    0.08269678973290    3.09586400691435
C        -2.97391599780465   -0.06664217488321    2.76098418313589
C         0.08082145698272    1.81924904223040    2.63756360642981
C        -1.23881594865547    1.43567507091878    2.84952989352727
C         1.60244983989688    3.28526100373475    1.44784604221754
C         1.89558669030391    3.75470049475737    0.11474589960052
C         0.29522253384827    3.00135283475913    1.82658018449280
C         0.90886716554614    2.93374840993121   -1.96615279090788
C         0.87001122564910    3.78856507606274   -0.80005167665938
C        -0.83300212652219    1.36914162552807   -2.75048487545005
C        -0.43556228384328    2.64321878350847   -2.30477114201877
C        -2.58698272124820   -0.41813683392004   -2.48003654795648
C        -2.21860562672934    0.97178111258165   -2.55508138406826
C        -3.57760827292395   -2.17280812389343   -1.03042914003599
C        -3.94891083721991   -2.34399374247827    0.31473725534283
C        -4.33450418389088   -1.26942903322874    1.13920515726607
C        -3.68493656769236   -0.88957980132457   -1.64677841122082
C        -4.68032291036842   -0.08163505443811    0.51484261742343
C        -4.43065434212095    0.06425804289319   -0.90530311177291
C        -3.45849461900142    1.18858173630215    2.23331088099595
C        -2.37436836231153    2.11208114398539    2.25938450552524
C        -4.35798704068920    1.17966904424969    1.15775944134810
C        -0.79894874877635    3.48232357476231    0.99114022073767
C        -0.46658981981955    3.85068131832490   -0.32316845466756
C        -1.28263528231118    3.38998147810191   -1.41119341593705
C        -2.15585465774856    3.05701204628992    1.23486524311968
C        -3.10071491942449    1.88381826478125   -1.90771884237974
C        -4.17571826032051    1.42999166579177   -1.13531142403783
C        -4.15706173891114    2.13344236225693    0.14494460761505
C        -2.56770564209457    3.02321038499514   -1.19786819064681
C        -3.08721760157929    3.03779547517278    0.15228616573345
