78
C78 Isomer 5830 Symmetry C1
C         5.31921814205696   -0.00858557175821   -0.61675560835819
C         4.84275119994753   -1.34145603658425   -0.76491021011574
C         3.91552966613025   -1.36192155053752   -1.84950709009460
C         4.71983597192853    0.81542447881526   -1.61578712829407
C         3.83081025647714   -0.00318168854073   -2.36508103570920
C         4.19532623208496    1.96311351791402   -0.94331005535623
C         4.90353145548599    0.47109343211630    0.66339108182527
C         4.21641891803831    1.70343136776550    0.49035643855543
C         4.40350515034297   -1.77099380771050    0.52568183289945
C         4.31369487837233   -0.61167950022444    1.39790943654733
C         3.37725382483114   -2.67240311267029    0.54773508876775
C         2.75922836003850   -2.16605681663204   -1.79571962235955
C         2.66962626947794   -3.00798370907154   -0.65777466453860
C         1.50600059138918   -1.74114767743723   -2.42154332876253
C         2.57334305040067    0.48823562276549   -2.78444520201346
C         1.42423592600400   -0.39032001607564   -2.89773783270407
C         3.06641509355441    2.52905674992606   -1.47363726242767
C         2.33067974023633    1.85428931834319   -2.50953908200828
C         2.10992438122793    3.16883206255890   -0.62206089752658
C         3.08537283311014    1.98645157823490    1.27871826372156
C         2.08478197697038    2.90083738557891    0.75691518566113
C         3.15612205829135   -0.38721929118537    2.15738603629877
C         2.65618055875850    0.97160305914588    2.21788125232924
C         2.40610674546846   -2.63411897160615    1.60172127451246
C         2.20561825174479   -1.48227361641596    2.36170309098075
C         1.42142402852256   -3.52730324997793   -0.26369260624104
C         1.27565129801012   -3.36977467306512    1.14773025513159
C         0.30086698326560   -2.47855537142787   -2.17756238195554
C         0.30073548753159   -3.46121583405940   -1.11515350634077
C        -0.97663570494143   -1.99628258030716   -2.62595533543703
C         0.12823458645726    0.18348277378018   -3.09858920000684
C        -1.02642709144702   -0.65839529992544   -3.13983834654437
C         1.01009805472204    2.35000703199458   -2.45750033742859
C         0.88313897311484    3.24391505835931   -1.34296641132758
C        -0.07787278872177    1.59080385796306   -2.86937663633767
C        -0.34184662350132    3.49827646515866   -0.73930650484955
C         0.81953590663695    3.08119113630153    1.41028910998264
C        -0.34148987954671    3.57354621245526    0.69998439096755
C         1.41167615556090    1.15517114588289    2.81118285475477
C         0.59081838892777    2.28829646945654    2.54697948626842
C         0.85429335456405   -1.24864758371085    2.83961529669838
C         0.54411048776825    0.06655941201723    3.18794836277350
C         0.00989275839819   -3.24417575709283    1.72003302686662
C        -0.26068511288286   -2.12090319228648    2.57080079672715
C        -0.88471225658792   -3.86174248183367   -0.50264295245537
C        -1.01098397796808   -3.81058809333189    0.92916902106956
C        -2.20734475122286   -2.61786722520868   -2.15296792840971
C        -2.15476014713726   -3.53541836792740   -1.07515705635358
C        -3.42971759736680   -1.90123671709735   -2.23948175813676
C        -2.28188276793343   -0.00761195827041   -3.27590291822835
C        -3.46213480488826   -0.67778613937151   -2.92247748776398
C        -1.36741699433309    2.14867834312292   -2.55577424121152
C        -1.51379429414410    3.13324286678786   -1.50062835471860
C        -2.46203528165136    1.38770878309595   -2.94302702997375
C        -2.75892651630323    3.23525263663469   -0.85756415431794
C        -1.60299120323733    3.48294492390966    1.32065014425816
C        -2.77196801235702    3.43552734966674    0.54264272268676
C        -0.73593788046833    1.94947320380427    2.95853647514746
C        -0.79023596163855    0.54540648312462    3.24008754676733
C        -1.82052510412381    2.57863663996194    2.42461222447680
C        -1.62073413676565   -1.62417124506503    2.62363124007371
C        -1.89725583329542   -0.23820453058383    2.86497181584672
C        -2.34183064036572   -3.49076914064109    1.20835833749424
C        -3.09272747294983   -3.46828247307665   -0.01885673996840
C        -2.65307630279328   -2.34182679334566    1.96647013608134
C        -4.30269606019008   -1.73131450340896   -1.08844374379525
C        -4.01681238976102   -2.41091212104349    0.07322981110829
C        -3.74904412216067   -1.67641147428732    1.30384972965774
C        -4.32694641222697    0.24570903892878   -2.22007671814451
C        -3.73568215869018    1.52472485355520   -2.28033218119050
C        -3.84121867832860    2.33510260145606   -1.16771546614249
C        -4.69114022251980   -0.35182114324014   -0.99753520096045
C        -3.67747304971675    2.46692719978554    1.10682026753911
C        -3.03260054831087    1.82762624557063    2.18766709712336
C        -3.06090809235692    0.42200834864656    2.29271504162848
C        -3.93366219591109   -0.29238593635410    1.37272940187292
C        -4.32573907038296    1.76381971986173    0.07177675698049
C        -4.54411585672046    0.37453787794332    0.22345388642667
