76
C76 Isomer 18121 Symmetry C1
C         4.62273143817821   -0.12118800560830    0.63172702347431
C         4.12188363966698    1.08206987229734    1.11112831135122
C         3.25186438030319    0.77041300491746    2.24686482972214
C         4.06698156778526   -1.19989534241354    1.42769734973752
C         3.17094732455387   -0.63993231135890    2.37024862408229
C         3.69520762371977   -2.25024735523322    0.59342665270050
C         4.52722786949378   -0.49510145780422   -0.73999916958125
C         4.02093064170165   -1.85951564083501   -0.77024565206874
C         4.03631079737003    0.44347463541075   -1.64381477294075
C         3.72280034568521    2.09372050173245    0.18659889334482
C         3.63436114430241    1.75109024191366   -1.19055181203351
C         2.81581945048502    3.03522443255338    0.66655967954900
C         2.16328873762645    1.56944996577344    2.58553665578144
C         2.17613852138477    2.85474003700359    1.96144438583932
C         0.90760278663800    0.96038689001180    3.00154889067106
C         1.95466087484825   -1.27891226758134    2.66645300753616
C         0.81456276415842   -0.47248575123271    3.04194038659200
C         2.54680594840580   -3.00390219049153    0.92127561663292
C         1.79132451476054   -2.59184049166514    2.08262172033034
C         1.85002972427518   -3.63591460265474   -0.17527009397618
C         3.15797789359881   -2.24613013976049   -1.76672260552797
C         2.07491555963313   -3.14980439452703   -1.48184318349286
C         3.08764641577187    0.03346228464929   -2.64283447265902
C         2.68267058338693   -1.28433568974992   -2.72814860417566
C         2.48337492443401    2.15399328753437   -1.93983612707210
C         2.11138604694537    1.06616894130159   -2.79463780526905
C         1.86374991433752    3.66435477966657   -0.19858178168670
C         1.52732931359602    3.06869731384401   -1.44183191249279
C         1.01262106255802    3.59741823454869    1.95902081810279
C         0.81980058505531    4.13669921261550    0.61953260067215
C        -0.30607379754329    1.75065912439645    2.91993717804699
C        -0.21297528306714    3.06984382335205    2.41409024320154
C        -1.60309184916991    1.11383143081985    2.83922651099556
C        -0.49151947787751   -1.10286552043038    3.09521998251394
C        -1.70548488861772   -0.31353650334831    2.96871103168263
C         0.54849884934717   -3.20314273999046    2.29347295877439
C        -0.56771786128759   -2.48155958247823    2.85699107133628
C         0.56343142186495   -4.15606967833449    0.05259302796342
C         0.05604268463979   -4.13924755591895    1.36534012025283
C        -0.54510027990959   -3.91050229833999   -0.82967160554373
C         0.96665260624866   -2.78495763222581   -2.29363781270165
C         1.31769954601258   -1.58297676571108   -2.99636466711237
C        -0.37523324765655   -3.06720733369950   -1.93437419745685
C         0.76723066483493    0.79600752707301   -3.06632750692914
C         0.35864698178031   -0.58515851414841   -3.19428524295133
C         0.13923632329857    2.92107431456612   -1.82072093257814
C        -0.19785471546992    1.81724634702849   -2.70370045847885
C        -0.51393677517492    4.00576569023735    0.27183268214592
C        -1.19679102091561    3.56291755041849    1.47918764687651
C        -0.90085943997686    3.45554618355149   -0.98512569529181
C        -2.66430229270304    1.79560959262511    2.19797067936039
C        -2.39266144555287    2.94066955336940    1.37984002838816
C        -3.73203218780112    1.12014604109577    1.53959557688689
C        -2.87846789748660   -0.93310420067362    2.48627135243290
C        -3.84148025108225   -0.24115475635367    1.68742207874517
C        -1.75756881021579   -3.06956435198577    2.28789182830230
C        -1.37662388817014   -4.01197446881145    1.30805948921099
C        -1.74983453797945   -3.82704620880888   -0.03479127246078
C        -2.84771247352399   -2.28004602834217    1.99830117846462
C        -4.16152896471065   -1.07881889368240    0.55339477005844
C        -2.78595269034744   -2.93156079959921   -0.38203151272562
C        -3.46434508844720   -2.32347854699571    0.70612590524518
C        -1.42555726005433   -2.15791403144608   -2.33568386297827
C        -1.02338380391918   -0.95919029863241   -3.02194277048369
C        -2.68273765752623   -2.19285935866583   -1.62711354811483
C        -1.52859719947998    1.47978246187647   -2.88472097909325
C        -1.93017498164142    0.10496551983481   -3.12592106749189
C        -2.26379834309343    2.97751830252318   -1.07746838385136
C        -3.04469821717343    2.80250315040626    0.09881656361995
C        -3.97487308326403    1.73751675724345    0.24913312445051
C        -2.59040532130983    2.12599652495510   -2.15710077787988
C        -4.32056228247681   -0.52670722887204   -0.69386104393132
C        -3.58109254862484   -1.11319078862642   -1.79941191283262
C        -3.22877479879347   -0.04727858616201   -2.64018948212125
C        -4.29570197426838    0.92183543791672   -0.84055524607550
C        -3.65388483637418    1.21151934413593   -2.05573250301479
