76
C76 Isomer 10463 Symmetry C1
C         5.30904202551292    0.32874270341912    0.86656993186089
C         4.93203668266558   -0.98417899547376    1.14878795346033
C         4.71381091227461   -1.65936851545965   -0.12659235293189
C         5.17408375958158    0.55386575123080   -0.58973181344670
C         4.78876549514222   -0.67578718720294   -1.17060517819508
C         4.39096452743312    1.71859771626959   -0.77776998158547
C         4.64990473467794    1.35736267533334    1.53014488294641
C         4.20866367067815    2.31031325780790    0.51048259793945
C         3.54444874188058    1.10296066139727    2.39147072492881
C         3.82010455662196   -1.25994747705683    1.99572249201674
C         3.06309258048291   -0.21908672410131    2.61483241925093
C         3.59568982964984   -2.47757511363032   -0.00081231868955
C         3.08582344907329   -2.30168569411071    1.35219789798411
C         2.64963592519761   -2.59617172464167   -1.05786281318403
C         3.75644770537496   -0.66687213277302   -2.12703898747251
C         2.78282067359303   -1.71345327665039   -2.14384262442649
C         3.27287980951523    1.72529848355547   -1.68680096632331
C         3.06388781694248    0.55148245022170   -2.43446196883745
C         2.09706801897045    2.51061050453667   -1.38540034261785
C         2.96959366991706    2.79347113837832    0.88287441925045
C         2.57522606677730    2.11431018453797    2.10516022000922
C         1.96681654909844    3.06954140095669   -0.07912923015283
C         1.23518821895439    1.97667654349574    2.42884631318163
C         1.64263179525557   -0.41371580154262    2.82953960486775
C         0.75488748269129    0.72170240427699    2.93221604321298
C         1.75688292421515   -2.53952654405875    1.62413012815988
C         1.02904676410806   -1.66333882839810    2.50939023184935
C         1.35308052099847   -3.11440947554068   -0.75158350332578
C         1.02537257199647   -3.29035144339941    0.63196151819713
C         0.26650968881534   -2.91640265592034   -1.67021660530823
C         1.57640699788392   -1.19825516684749   -2.73532371778425
C         1.73959913232988    0.19459761391325   -2.88018565694260
C         0.31851278526513   -1.76726928515547   -2.54005729100537
C         0.86659075689657    2.28432126769716   -2.10752346893251
C         0.63705542573506    1.04083156955943   -2.79161809281036
C        -0.26830378226836    2.99107015474479   -1.70843066471414
C         0.69432269974942    3.38728321499946    0.47417250706470
C         0.34044611977538    2.90142560282544    1.78069280718338
C        -0.34536673026143    3.61325621110623   -0.43064880919593
C        -1.00236028162535    2.81420180707377    2.11587238759387
C        -0.65756865611114    0.55370456148978    3.07573263419274
C        -1.49313047962054    1.67317924089706    2.83125272191454
C        -0.39216154420638   -1.85777248588408    2.66181006636408
C        -1.24955431278934   -0.75583365199207    3.03160820869739
C        -0.26661528587868   -3.64909686437826    0.98483075870609
C        -0.97589272580220   -2.98460875670855    2.06029869434073
C        -1.00031711741076   -3.38932622699716   -1.30628433857999
C        -1.19568158002677   -3.93886233077748   -0.02243509881647
C        -2.20839684942541   -2.70671439780720   -1.66387530619222
C        -0.84594457801046   -0.95121673395970   -2.75708637696550
C        -0.68331900464826    0.46366211392817   -2.88266800321026
C        -2.14238437489968   -1.49463053575690   -2.37631854151509
C        -1.59634356187507    2.60498729151888   -2.09217931081233
C        -1.81920585361120    1.33373139905793   -2.66900072506745
C        -1.71770804710699    3.64966308976272   -0.03770513529847
C        -2.04882954401905    3.29467386711034    1.26045480940204
C        -2.50985582601537    3.15249687046574   -1.12790411767601
C        -2.87907742156921    1.54233854986167    2.52477793467473
C        -3.23803209500557    2.52619852897652    1.52802828806333
C        -2.63743255259046   -0.86275611911825    2.80002273347056
C        -3.44974051222818    0.28356432358596    2.49633846943652
C        -2.37794510356252   -3.02546439863642    1.73230939145594
C        -2.51923024001969   -3.59160704717320    0.43851689847420
C        -3.16248514771850   -2.87143498680345   -0.57661989817099
C        -3.19175243544806   -1.95327699495006    2.06540721126443
C        -4.39446381293274   -0.06495027055217    1.47294082727068
C        -4.07857306574644   -1.83934954535033   -0.23682861415462
C        -4.15953144622078   -1.44145621769384    1.12547740355528
C        -3.25058496608917   -0.63883200456338   -2.24607297913027
C        -3.10339215707954    0.76998313543807   -2.46895169930032
C        -4.25324308460890   -0.83700055075944   -1.22525441938459
C        -3.72307766410383    2.52549117914282   -0.86275111681075
C        -4.10691185993984    2.19483412562702    0.50565311836895
C        -4.71520988736897    0.87361289109705    0.48766090916305
C        -4.06631775899111    1.42644173609626   -1.67130859318818
C        -4.72939973889538    0.43409994043236   -0.85830549761745
