80
C80 Isomer 31102 Symmetry C1
C         4.85976296769263    0.20005764183230    0.05725192612500
C         4.31576130766028   -0.45712042811544    1.18058137945929
C         3.72326917827790    0.54604910926414    2.02981658131282
C         4.46401821503222    1.57848005182830    0.13506141026874
C         3.81196405575824    1.81199540322685    1.36370223033735
C         3.82697750427835    1.95107528245087   -1.05823291435508
C         4.56163695704492   -0.24864028853169   -1.25466200347828
C         3.88062718897947    0.81041538633209   -1.95372293159576
C         4.12597456396055   -1.54264273533875   -1.40557814258337
C         3.73119584224776   -1.73731309904003    1.06438833906487
C         3.88007844061502   -2.34803824434428   -0.22313299366849
C         2.57451273639090   -2.06719173548504    1.88580435263647
C         2.61720013960802    0.22840600997813    2.83357427110588
C         2.00000718856648   -1.07882438648421    2.76080192232691
C         1.86616786546038    1.33492835780303    3.26826765621239
C         2.77432169471094    2.76634071253390    1.45361964696559
C         1.99617184052042    2.61183768194431    2.61902797737951
C         2.70620083620145    2.82557702045223   -1.00102740033899
C         2.16208822069249    3.29374810767014    0.25418917062861
C         1.84283491947630    2.71941376982753   -2.09420362726878
C         2.77926880375270    0.50510230954411   -2.77280929298432
C         1.86174767682826    1.55344925678634   -2.94603071248138
C         3.08847461556770   -1.85131541424467   -2.37073924236747
C         2.27896057523884   -0.84366350016068   -2.94017348960854
C         2.98504422360317   -3.35159695542068   -0.62591807270919
C         2.49004834982769   -3.04715954942153   -1.95681817328450
C         1.74073689711732   -3.16215745191091    1.45589161679231
C         1.90738661684097   -3.74194853199538    0.16612963375855
C         0.44435883363295   -3.27574336046205    1.95694779347066
C         0.61980339976728   -1.18229269525018    3.20222812875516
C        -0.09446487793810   -2.33295008706636    2.86961763511043
C         0.49685543747798    1.19211797696668    3.68526927852997
C        -0.18716018374377   -0.02471134974898    3.54085623645272
C         0.75056736074568    3.25175132032359    2.69121824925629
C        -0.16084814163301    2.40262673508868    3.42290509076575
C         0.77709985440682    3.71229117886172    0.29283920056985
C         0.10270659013156    3.71024838317928    1.54022598177213
C         0.51846399280603    3.21574127951532   -2.06108905640954
C        -0.08090177954989    3.64077170534000   -0.86233220551205
C         0.55680580729277    1.30031766146869   -3.39961654777198
C        -0.21457243927230    2.45033124698289   -3.02331253700552
C         0.85603728105302   -1.09169280136736   -3.09527818382955
C        -0.01866937478623    0.00328633035725   -3.38663162510171
C         1.10586975740834   -3.23996319885586   -1.96923904406340
C         0.76820314970153   -3.85571752697377   -0.71010148246662
C         0.24091862971507   -2.28106905873027   -2.55062911825301
C        -0.64799095424191   -3.77750704922272    1.17264192413382
C        -0.52744598451055   -3.80499712441174   -0.23797762626649
C        -1.52511000777041   -2.36076839607990    2.77656188966224
C        -1.84752577682727   -3.32628762454495    1.76497782055694
C        -1.60000809199534    0.03126117745927    3.22759540164590
C        -2.28446797921098   -1.18793819909362    2.91311291172763
C        -1.40488456660519    2.42606708718479    2.78552055621276
C        -1.28722811501596    3.30513642706586    1.64853708596976
C        -2.18208478048341    1.25990102418819    2.74393860405197
C        -1.52073938619334    3.47363130828186   -0.74422311608274
C        -2.10664735297623    3.14610442231935    0.54273383983135
C        -1.56065221939871    2.36966504359393   -2.96242676177446
C        -2.23775184678920    3.03166131352279   -1.87290503101724
C        -1.44750159270962   -0.11172194233772   -3.22831330682766
C        -2.20098644262164    1.09838189041961   -3.23298288029412
C        -1.15056896649198   -2.31861714671705   -2.16704398405757
C        -1.54656919681841   -3.20062139354709   -1.07819598482068
C        -2.03406389775125   -1.26732990374068   -2.58432341237034
C        -2.96125579251011   -3.16046192340798    0.95566259201905
C        -2.79774313731830   -3.05704965905495   -0.48596054716695
C        -3.52996242939299   -1.13243257324275    2.22019053531614
C        -3.89700431367497   -2.18786839438328    1.34585675011901
C        -3.25491489521768    1.27573584809682    1.77921454712659
C        -3.23789856628410    2.24158444713105    0.69338782695168
C        -4.00222886758717    0.09774999136775    1.64476619598658
C        -3.45324005375387    2.34570476557566   -1.72108891942291
C        -3.43680556125889    1.17890670798288   -2.59098551548466
C        -3.95729625387998    1.92811232201783   -0.47867126708899
C        -3.35794856767838   -1.17257513415145   -1.99469136196159
C        -3.72102317202287   -2.06722826605047   -0.95922637394653
C        -4.46381409505361   -1.61187060286859    0.15542481737538
C        -4.64337379968370   -0.23070889631264    0.39365450505100
C        -4.01753990628336    0.08847069236832   -1.93143624665718
C        -4.51923614915573    0.61030223998138   -0.68226238041740
