70
C70 Isomer 2682 Symmetry C1
C         4.86926529276052    1.18264444024838    0.57315368985478
C         4.54386410970046    1.36150705829049   -0.80126674335032
C         4.27818838443681    0.09494912058046   -1.39845282214691
C         4.73951645749115   -0.19743718046828    0.89477092206006
C         4.54255943796721   -0.88718575589678   -0.35294246337784
C         3.72822496769081   -0.32334905201105    1.88704296458996
C         3.90441075057969    1.93226739796100    1.32963898364847
C         3.20529318195405    1.01417449222601    2.15007812782223
C         3.59022801738662    2.42886675647191   -0.89115087469686
C         3.16025125633807    2.77097812676003    0.46087181863713
C         2.63286669506759    2.31644965156268   -1.86980807102974
C         3.15520279034496   -0.07946983782630   -2.26261687794827
C         2.43399105804259    1.09246352960742   -2.59755167492742
C         2.41256074725498   -1.32399279512436   -2.28958485920146
C         3.79697975241467   -2.02716594713323   -0.32715221880980
C         2.89008346660554   -2.34726174223332   -1.41672313139010
C         2.86849903826585   -1.44896894174789    1.89941331395615
C         3.15135345366505   -2.43645480908946    0.91147242781967
C         1.51248125771612   -1.30746554652968    2.37933164311280
C         1.84524307101118    1.20023240910123    2.40679220296149
C         1.06999106840018    0.02094791595905    2.73318782788720
C         1.80757160210298    3.02201770668949    0.73884809038659
C         1.17568787057795    2.35040193125900    1.84585483586902
C         1.35224075435337    2.93153313434496   -1.67419037340193
C         0.96085467559056    3.36298085218156   -0.38691660442806
C         1.05883155360654    1.04743820267619   -2.95081428063348
C         0.41979401584169    2.25957234606947   -2.50076060451767
C         1.01806380588683   -1.36250301979282   -2.68066114566378
C         0.31813155117160   -0.14317117595109   -3.02712854417462
C         0.18675214478465   -2.45145861994097   -2.22985914558708
C         2.01654666698742   -3.31100430487601   -0.90479680247111
C         2.13408281406737   -3.32181888979335    0.54644165298986
C         0.66323725160859   -3.34921627469770   -1.24190020124190
C         0.49809087438927   -2.27301099640957    2.02592815358492
C         0.84355011251779   -3.26659869538401    1.07327689435652
C        -0.07865548588602   -3.50892785055347   -0.02193708394121
C        -0.91290896717222   -1.99988868053472    2.17021629121793
C        -0.28313419299839    0.21647759751293    2.97054815409796
C        -1.25538541394396   -0.81528251572475    2.82811751882112
C        -0.24787489210411    2.46660481534352    2.00662114238563
C        -0.94151911031951    1.46472241367610    2.71698571184318
C        -0.41470781273206    3.47965371866419   -0.19180812767437
C        -1.02659220693965    3.18396136862763    1.06964473337887
C        -0.95925522072544    2.35004202815131   -2.29219092459405
C        -1.35785872595611    3.16434521483980   -1.20860324925232
C        -1.13232863004761   -0.01959415975534   -3.01210388317742
C        -1.79293690022584    1.24459218356095   -2.70669075278148
C        -1.20645391944391   -2.31983371091605   -2.23598234601076
C        -1.88143967499492   -1.17961778092088   -2.77521229303034
C        -1.41789539203009   -3.16826544384015    0.05163125014286
C        -1.91305296203811   -2.56124994190932    1.26891233288506
C        -2.02619020208516   -2.83324051442510   -1.18610438861390
C        -3.19884712598262   -2.01866361569675    1.22401722063553
C        -2.53264914548567   -0.19066058676384    2.68896977039699
C        -2.34111005965090    1.22426767900182    2.55247270907991
C        -3.54228369601093   -0.84700652912925    1.99535409659853
C        -2.40935068171155    2.91211225022604    0.85099962435318
C        -2.61446911368221    2.95835227071395   -0.57284743118556
C        -3.12793610435353    1.96900386864494    1.63279677261406
C        -3.12512875637182    1.25187248652721   -2.26939615487772
C        -3.55116811070276    2.14586909750352   -1.19446450365391
C        -3.21814646558143   -1.17115367475415   -2.26532854951608
C        -3.28582204104684   -2.17594322235138   -1.22929856796878
C        -3.94700944411550   -1.91684195692198   -0.02837864303004
C        -3.88482985783311    0.03739028729510   -2.10323624539028
C        -4.48059620064594   -0.06603913411663    1.28278691740483
C        -4.24115659332852    1.30866795533949    1.01758002826353
C        -4.48796852610692    1.47956453941090   -0.38300126682737
C        -4.76987921165909   -0.76163970379664    0.03695270928580
C        -4.75794910466819    0.18645775998754   -0.98584868241786
