78
C78 Isomer 21204 Symmetry C1
C         4.56975577757844   -0.38854709299586    1.75527531785245
C         4.97039227078972    0.07280744314720    0.47692804881385
C         4.46235100184410    1.42954783078942    0.34313098786128
C         3.79491049575553    0.65305868504922    2.38200768472532
C         3.70002799789791    1.76878322617598    1.52784844925391
C         2.64157278839023    0.07937216771002    2.97038161598994
C         3.87336532073909   -1.60982982398330    1.94490524276911
C         2.66002875544763   -1.32569665959738    2.69136158902494
C         3.81101116075381   -2.50447269212927    0.87747357959204
C         4.86722485877444   -0.81322308424971   -0.60827304601181
C         4.41613151203493   -2.12616571113490   -0.35498611264237
C         4.20396589887961   -0.37805869613878   -1.83248128849413
C         3.95681736959940    1.85764189711918   -0.86204533559679
C         3.79833925577601    0.92287245913956   -1.96335861509523
C         2.85785111861711    2.77295985028546   -0.90026651136929
C         2.49944481610383    2.50742400357218    1.48391748873102
C         2.12593598342194    3.15538637442475    0.24758994672490
C         1.45205313703830    0.80478575869623    3.00937327459117
C         1.44677339741813    2.11241708018164    2.39606674192316
C         0.23019006285604    0.05457411690081    3.14911157457850
C         1.44965084592043   -1.98245331460589    2.44390168405913
C         0.22430428004949   -1.33355697523634    2.83048551140594
C         2.55285366998352   -3.15082425796842    0.59105828589878
C         1.41252496401840   -2.96295761731492    1.38351236248336
C         3.49750818478228   -2.49228280980937   -1.40730859706510
C         3.28133516528316   -1.40406966074839   -2.27529988171073
C         2.40467635107948   -3.15728423655196   -0.84506396963412
C         1.97140237117036   -1.10902944362434   -2.74077596781371
C         2.57184227868348    1.23796760210961   -2.64028540830804
C         2.14729489505224    2.49699208795291   -2.11256506300430
C         1.61556623918107    0.26280980008581   -3.00403397534748
C         0.84599980234879    2.88498551108425   -2.25989116813943
C         0.77956405502015    3.64371071110119    0.05687357311376
C         0.18701067251927    3.60858604698950   -1.22544640009672
C         0.20699589588833    2.72579244304564    2.24578801939092
C        -0.12608180366202    3.55019232296644    1.14086752782129
C        -1.00339254412179    0.78445344102337    3.15562526968716
C        -1.00428101281571    2.12684195771047    2.74201463563205
C        -2.22083040734051    0.08941097270683    3.04065874830503
C        -1.02560430258739   -1.99617442083370    2.52281474169105
C        -2.22267834146543   -1.31105307894208    2.78306929108628
C         0.14897891709467   -3.32732811982648    0.81498408319306
C        -1.05750501482564   -3.05467506666840    1.54511082822388
C         1.14595392871235   -3.00816067327250   -1.42731681875675
C         0.90718406624005   -2.01562568293091   -2.42726676240628
C         0.07561556256065   -3.46952035342599   -0.60083395276257
C        -0.46770329215168   -1.65384997039430   -2.70536357865248
C         0.22061982783438    0.65458810494721   -3.10972364184060
C        -0.09332016984537    2.00264999323098   -2.88041012933116
C        -0.85790479834131   -0.30019840082782   -2.99922443470786
C        -1.21088837005202    3.38537684319322   -1.40369738967040
C        -1.37657225532404    2.39876189027733   -2.42902854259580
C        -1.54237016542130    3.48706980537967    0.97510002242462
C        -2.09621060512161    2.66845016150717    2.02340580984304
C        -2.11575647050706    3.42360270530977   -0.31679391446482
C        -3.39643645990153    0.68306189726047    2.47974357776045
C        -3.31315032541149    1.96464325337575    1.86740437484097
C        -3.46362584778748   -1.61164627811003    2.11962907076449
C        -4.18846086139259   -0.37762681760162    1.92218735476159
C        -2.29639447269777   -3.35912528117274    0.92144298759855
C        -3.50809724971741   -2.62180016951833    1.18762525762315
C        -1.16294227567956   -3.49167047842085   -1.23140373323106
C        -1.45081591676281   -2.55074381529281   -2.27873507590411
C        -2.31507946492144   -3.65571861367453   -0.45993578066882
C        -4.18684665235301   -2.37112625278448   -0.08109637219724
C        -2.83197017882216   -2.17491517467306   -2.14453748465634
C        -3.39541404753861   -2.94890321488498   -1.09521849537130
C        -2.21957793304514    0.12394789249118   -2.75739906871751
C        -2.46415542586624    1.51529796181726   -2.45148830709519
C        -3.22298105664923   -0.83469120167592   -2.33257268100754
C        -3.33463104422191    2.74719792225490   -0.48282021812128
C        -4.02535463775906    2.15440375180369    0.64719129978565
C        -3.55129391828931    1.90206744548587   -1.62398849025952
C        -4.88548784533271   -0.17083745169547    0.73318183044048
C        -4.75022957906475   -1.13613656261705   -0.34188847184281
C        -4.34235964246524   -0.41520440807230   -1.53828153114505
C        -4.82697765123595    1.11927358294510    0.14865182388280
C        -4.50964291264046    0.94641656215795   -1.25259329841333
