80
C80 Isomer 8174 Symmetry C1
C         4.75673652760497    2.56772869402296    0.25749057381889
C         5.25331013306673    1.57051494635615   -0.59636598702644
C         4.36724304732141    1.43715421086611   -1.71975810616426
C         3.57582401264696    3.12628415785004   -0.32539429829915
C         3.32852763983318    2.43803990917073   -1.56691495527571
C         2.56012388971271    3.02553192382299    0.64312598019960
C         4.38692422506634    1.90130831439686    1.48964286744410
C         3.03050832218801    2.17176074419525    1.73442041128399
C         5.56253344427401    0.41134323357046    0.20090514660152
C         4.86135142753358    0.55851823809130    1.46745410682114
C         5.55915432761079   -0.79272779949198   -0.45237922835686
C         4.06038394217831    0.15688944016053   -2.22934580763251
C         4.87521942252389   -0.92052682080368   -1.74719331745888
C         2.70371351280602   -0.11043880748047   -2.67955236220240
C         2.02179346720513    2.16763853208019   -1.96019002215867
C         1.71826573549308    0.92988564844122   -2.63990486754400
C         1.24161998173079    2.93579999714918    0.22205768519105
C         0.95268151751030    2.72348168742852   -1.15492014231989
C         0.29449082567016    2.41730264912305    1.14736389218056
C         2.15247937630502    1.16072785431761    2.19268977301511
C         0.74837032710480    1.43415569564001    2.07697319747799
C         4.00475872730568   -0.49204599943499    1.90742197877022
C         2.62957370553557   -0.19240372254888    2.27338641035819
C         5.23412564351587   -1.95139475198931    0.31765700745543
C         4.30506795244202   -1.78555118663431    1.38878920469649
C         4.39725457534337   -2.24076542185126   -1.80675023059137
C         4.72768087530962   -2.94043289607251   -0.58496093105238
C         2.19950474285968   -1.45264393033903   -2.62998850665523
C         3.02749228613978   -2.48422652589492   -2.13271868744096
C         0.78821968275571   -1.69554688232440   -2.56115755326143
C         0.34827068560120    0.64748230487689   -2.90238946996906
C        -0.13014767958065   -0.69288291004366   -2.96630093876487
C        -0.38324741322131    2.53396660696168   -1.52141219825036
C        -0.64970092370248    1.65414568937728   -2.62204122589916
C        -1.05934756025514    2.50503070172341    0.79128811187072
C        -1.42738036834217    2.74526188891578   -0.56728977132147
C        -2.00834650697788    1.92453590874029    1.68064174437524
C        -0.20564024958302    0.45340040378965    2.44748809916709
C        -1.60052328489582    0.77365824167080    2.41990244647886
C         1.61467096390070   -1.21021720823410    2.18955109139196
C         0.24070893709258   -0.89923889620277    2.39243764148900
C         3.24275113084108   -2.73655845773079    1.16791829840225
C         3.51244156569922   -3.42206580306746   -0.07120508634721
C         2.50190718140146   -3.31982750318029   -1.09114130858234
C         1.92957548406466   -2.43976175746057    1.50659305957804
C         0.26029947992996   -2.66715485695018   -1.67027036323739
C         1.17962106678440   -3.21404072902536   -0.70799687537611
C         0.88385918854652   -2.97918000566838    0.67146833046865
C        -1.11107877975990   -2.72247066160291   -1.36202355099779
C        -1.53352964361510   -0.98990263774743   -2.96774624571176
C        -2.07900863374366   -2.05268020262337   -2.18044141484824
C        -1.96703547172106    1.40473258213470   -2.94002665855654
C        -2.40464865797936    0.07729352742327   -3.27928430160518
C        -2.79888301604652    2.61569482589609   -0.96733129101638
C        -3.06066360420988    2.06039695794347   -2.24991819047906
C        -3.36600778814637    2.12736090438614    1.37597989801927
C        -3.79055352318056    2.45303487091462    0.02167098322166
C        -4.32325514460836    1.32180522401924    1.98165023584760
C        -2.57980933687508   -0.24999847209353    2.68421905515803
C        -3.95227761034510    0.08800986927134    2.58377638342882
C        -0.78465766266422   -1.84324942405706    2.04801681807743
C        -0.44590526575876   -2.74535013813903    1.00102256931309
C        -1.44304139456044   -3.01276928087259   -0.00289199165404
C        -2.15413465179778   -1.58693960873587    2.32797655507210
C        -2.75558992315410   -2.95322018224984    0.39887668832313
C        -3.09859846661507   -2.42965436241654    1.68308764744519
C        -3.47099851845821   -2.06856078966155   -1.79319748381888
C        -3.81808233437046   -2.65496865098488   -0.53948306509147
C        -3.77150614121263    0.00268986075071   -2.99689261370524
C        -4.20636465769552    1.27082314348135   -2.43187131186270
C        -4.34410727146158   -1.03243511398251   -2.23543772900467
C        -5.01757294394023    1.74851907033729   -0.22100721257540
C        -5.38710420066254    1.09812241499730    1.00018174452919
C        -5.14942450055619    1.01315567458214   -1.41621142859840
C        -5.35084275100425   -0.43249959205779   -1.36385641151899
C        -4.91426582576898   -0.86221962407996    2.08833726050600
C        -4.46558520551770   -2.06408298410084    1.58839278639633
C        -4.91862145644705   -2.21412299924181    0.20174552876787
C        -5.73907534401334   -0.23280666641672    1.04275202515012
C        -5.65747526800681   -1.04462228538310   -0.15219009555905
