68
C68 Isomer 5647 Symmetry C2
C         3.60102846760766    1.21361370152852   -2.16893599520181
C         3.54064917504758    2.27790639506066   -1.29146999183292
C         4.06476349763192    1.84558623184831    0.00471614212505
C         4.25585412838623    0.10166159249897   -1.49567153394180
C         4.51888707976090    0.49741804902847   -0.13513575359531
C         3.51380268214565   -1.04962650404991   -1.76589051778664
C         2.41304968267104    0.73853478619797   -2.80982895998075
C         2.40548519580581   -0.67500486968286   -2.63819763498017
C         1.20246214063943    1.46458602346291   -2.74873037512406
C         2.31731399023444    2.95959092483098   -1.10667445341438
C         1.20650541454682    2.67155530460102   -1.94486928391356
C         3.11185355591402    2.20553027558555    0.96455805867445
C         2.11247533404736    3.02526611852536    0.30768071507965
C         2.70293910147882    1.29518132861370    1.99055119134969
C         4.22084311029957   -0.38630313549859    0.88529640948006
C         3.42674562687998    0.06833396171596    2.01493808732059
C         3.34280414723599   -2.04982052889016   -0.75879957486196
C         3.79944394104577   -1.74025676329042    0.56466824879372
C         2.19160470128102   -2.84960227208964   -0.88523970492904
C         1.19838355830958   -1.38293505877741   -2.64520760941129
C         1.18604935848008   -2.57256537398230   -1.88019370937035
C        -0.03826613986598    0.74715649573071   -2.92157779223050
C        -0.04541515037379   -0.68646067814488   -2.91818151414927
C        -1.28006368828363    1.44495276812455   -2.64305463664927
C        -0.01305190867613    3.13617044527705   -1.43407505830370
C        -1.26214828192684    2.63824645215864   -1.88384159167349
C         0.84271889458921    3.18272375559123    0.85653444927023
C        -0.16687678495817    3.53007694708150   -0.07035258375199
C         1.34088264751062    1.33012557703435    2.46355601279494
C         0.47675472859951    2.41279416762289    2.02937973156611
C         0.69570351559260    0.12146078463780    2.90752252789302
C         2.78730068934871   -1.07032480724770    2.52886643003223
C         3.04716838132354   -2.19967343167033    1.66271547306254
C         1.43327208394477   -1.07901351754373    2.88227133140084
C         1.48712074998539   -3.35460854171864    0.26083880549538
C         1.84353696955987   -2.92213381262931    1.53288069767364
C         0.82831276531441   -2.27986935950217    2.35783131738647
C        -0.05974100393440   -3.06831824990850   -1.41907930888228
C         0.10394413624577   -3.45569666467246   -0.05463136770435
C        -1.28484164957392   -1.40305266300326   -2.73307352656115
C        -1.28295925658680   -2.60616497282425   -1.92340379692469
C        -2.48709947434760    0.73709185343606   -2.62412207515155
C        -2.49587172820537   -0.67727791329527   -2.78898792979913
C        -3.58907467025672    1.11589754278992   -1.74564143810822
C        -2.26052144796420    2.92004710784942   -0.88298566779063
C        -1.54774288026158    3.43049055254889    0.25555088730766
C        -3.41072741523046    2.12084082440306   -0.74452920980558
C        -0.87367458342463    2.36575779709001    2.35282855421357
C        -1.89486470073669    3.00404496006912    1.53216372929768
C        -0.73697556403479   -0.03294198920233    2.91298201812981
C        -1.47476617016073    1.16737637282998    2.88726651412308
C        -0.52439658145960   -2.32839723249038    2.04425979380006
C        -0.89891709306626   -3.10385984130880    0.87776912948572
C        -1.38533758508658   -1.24365173753925    2.47941985269684
C        -2.38766476693363   -2.89019506897330   -1.07589942875634
C        -2.17256275879253   -2.94903663194510    0.33724306702196
C        -3.67914553548760   -1.14930773892176   -2.13722586134223
C        -4.32902895839340   -0.03412273260519   -1.46452923627552
C        -3.61234240062744   -2.20940267014134   -1.25511551931812
C        -2.75075141681831   -1.21098378126520    2.01602603187502
C        -3.16717902194667   -2.12618980110850    0.99742721344221
C        -4.58219178323674   -0.42335953686026   -0.10024113216234
C        -4.12701916668491   -1.77083457033026    0.04274775562951
C        -3.85763347271143    1.81760744433658    0.58367976748275
C        -3.09750191481038    2.28222863622582    1.67406515172203
C        -2.83128835751180    1.15699159090191    2.54366044566414
C        -4.27668090182251    0.46517472841280    0.91378486845220
C        -3.47433523727184    0.01597095346279    2.03971336394156
