76
C76 Isomer 146 Symmetry C1
C         5.86241466446631    0.58006045347439    0.13057168936653
C         5.60472704476820   -0.41174134820060   -0.78193358915487
C         5.05059689040628   -1.57001607438552   -0.09534944605170
C         5.43024974989957    0.07925348363346    1.45118727999712
C         4.83638947870075   -1.23429484517681    1.28977992757798
C         4.61437523215783    1.05904001362049    1.97898332129582
C         5.03076733833411    1.73299707073620   -0.23424669391824
C         4.39784227600566    2.11145127556098    0.94001473958295
C         4.60697232398634    0.05060213473305   -1.75546916300389
C         4.19415665848486    1.37436505870646   -1.37407723981375
C         3.95815265777980   -1.97873383675650   -0.86232926157366
C         3.64763015862242   -0.95385370885680   -1.87622523446856
C         2.87920464538919   -2.58460785366722   -0.23402372072320
C         3.57399101412371   -1.53505734987628    1.87107361859569
C         2.72282169402287   -2.46050434666162    1.17476881696833
C         3.35413737133155    0.77379295274056    2.56181550158073
C         2.81706013714540   -0.53957819668239    2.60935882056590
C         3.03677054521584    2.43898177995269    0.95566921887209
C         2.45438917051055    1.79372019813933    2.10635440493173
C         2.80734963808223    1.65863554209381   -1.36658926006966
C         2.26454545302828    2.37739837480857   -0.23856012500860
C         2.28219449264277   -0.63827993727917   -2.11230159307641
C         1.86636955997807    0.71091558620736   -1.95356168877942
C         1.70716539370093   -2.73818475247143   -1.05477376331221
C         1.31779065633799   -1.68056067731506   -1.93756111091880
C         0.74875837075836   -3.55710759500536   -0.51810870012306
C         1.44846821224370   -2.81208851559109    1.71531761663738
C         0.70460445347309   -3.70834005353293    0.92281892809183
C         1.38605793805495   -0.67573734244284    2.80513927690087
C         0.72200657193107   -1.92554970869525    2.58102542924620
C         1.09242887468168    1.65068205323187    2.21845669775615
C         0.53496576688609    0.46750197959312    2.79797196933160
C         0.86961721986943    2.43499470230481   -0.05839310212298
C         0.30862449809037    2.32804617108047    1.24001476560878
C         0.45750402964350    0.94137856912120   -1.89590991680259
C        -0.02285867425610    2.01102177238196   -1.09279786119914
C        -0.07707023139870   -1.44280114198016   -2.12609044365892
C        -0.50693452653229   -0.07929654320412   -2.20369788962228
C        -0.59038804217608   -3.55962237661790   -1.01814454634011
C        -1.04427366835123   -2.45173958584854   -1.78009786506327
C        -0.62072866703327   -3.98036617210302    1.24694972291167
C        -1.39104566127847   -4.08259801810158    0.02129322561013
C        -0.71558365634865   -2.03533851354747    2.71261323373765
C        -1.35338699571382   -3.16646653502862    2.13780473969385
C        -0.88594407210374    0.37989579638360    2.85089769483402
C        -1.54992985891645   -0.87227368176233    2.91073916723432
C        -1.07139129656637    2.35968391741955    1.42378650289954
C        -1.64366885762682    1.53827103893204    2.44633765271897
C        -1.39733704994022    2.25872192677264   -0.95014331489883
C        -1.87755043917167    2.75325475457192    0.31400727310338
C        -1.90596658240233    0.23676882640348   -2.20206547681936
C        -2.32245479033833    1.54624838349654   -1.77908154498557
C        -2.44179947664170   -2.12310186431050   -1.72241101832628
C        -2.87955942126265   -0.83041971725546   -2.17219201711229
C        -2.65611757959707   -3.56703154608804    0.25310411036110
C        -2.68949907850158   -3.06726298655638    1.61237778584304
C        -3.26928630974724   -2.79886894357247   -0.75432677588031
C        -2.99386061287007   -0.91537935040943    2.69395699577851
C        -3.55414530920297   -2.03032712727160    1.95900885265057
C        -3.03702766850596    1.51374236884896    2.53527898241110
C        -3.74303290102487    0.26724249907673    2.65465004204622
C        -3.24939811360509    2.90156071924150    0.54240752610218
C        -3.81293498399812    2.39009491318618    1.74481535558737
C        -3.70493912303767    1.84417594340804   -1.61038674298461
C        -4.16391636615731    2.62869900859755   -0.50617861360956
C        -4.25638247824805   -0.49509379114964   -2.00352471543242
C        -4.67103550028644    0.84626992010032   -1.84781864549267
C        -4.46333642319336   -2.19568814342091   -0.30715198085327
C        -4.64711970529075   -1.81871839809755    1.08175024528673
C        -5.07906163250057   -1.24677357548576   -1.10500704095044
C        -5.01035939214414    0.41722762215550    1.93918271331447
C        -5.07201404992575    1.74904691569307    1.42767499868727
C        -5.35117408485514    2.00589067802025    0.06459534733563
C        -5.69871235400967    0.93592983263112   -0.77750402193037
C        -5.44487627841494   -0.63119630323909    1.10850856612526
C        -5.83899826757810   -0.33796377941233   -0.24502863309932
