80
C80 Isomer 28205 Symmetry C1
C        -4.07377293232016   -2.11852293099887   -1.07211754759507
C        -4.46342066185912   -1.30049524719616   -0.00282382004556
C        -4.51401646808037    0.06443257728481   -0.49871309915984
C        -3.69809110863402   -1.25398967907623   -2.17039737138795
C        -3.95591803299452    0.08104691259663   -1.81743415206085
C        -2.44473663109396   -1.64900902284526   -2.63724712348465
C        -3.08407861197984   -3.11963946004444   -0.94960090149921
C        -2.06044458913449   -2.86825004695314   -1.96353566288206
C        -2.68803475718834   -3.47716048801384    0.32703742399070
C        -3.93951858954081   -1.56189006233256    1.30095011164425
C        -3.08630085571185   -2.67900741487516    1.45637521365968
C        -3.66372272272549   -0.44770180831684    2.12538640177617
C        -4.32908506873486    1.16533108707628    0.35225840352096
C        -3.96140054948226    0.90197108876743    1.70137699201807
C        -3.81485152926012    2.35339655321190   -0.25790120492938
C        -3.03862265911999    1.08756612092933   -2.23359404793083
C        -3.11109116438846    2.28818026794948   -1.52451216429705
C        -1.46885689145138   -0.68569763205071   -2.99336441074169
C        -1.78151178728406    0.70514721672755   -2.84879573108356
C        -0.11336893800978   -1.16421152155543   -3.01213603560916
C        -0.72934100381853   -3.19705854060418   -1.75756544461693
C         0.30498452541492   -2.38718347039221   -2.39195565251075
C        -1.34524305282912   -3.91697218154491    0.52179363537207
C        -0.41471791046587   -3.92204686413838   -0.54353596049006
C        -1.94935716576964   -2.62302722739879    2.32262542769225
C        -0.92406132915726   -3.46638422438827    1.80059332306178
C        -2.51368300421446   -0.40517843763093    2.95794114129671
C        -1.57043548486011   -1.45297591317959    3.00206485483699
C        -3.06348688011206    1.76872044172540    2.38513469976659
C        -2.10763730468648    0.96689256577842    3.08102494603617
C        -3.14615510792692    3.29990672998263    0.52940674077570
C        -2.65072485816860    2.97054193425402    1.80719993293783
C        -1.98344978813250    3.18327756683968   -1.46765273232879
C        -2.03734564227845    3.84524449262012   -0.23212839288859
C        -0.69234831906528    1.65057252225675   -2.82602036885654
C        -0.74277298694427    2.85655424263608   -2.03581734821979
C         0.86790782175891   -0.20453026966561   -3.27017213162342
C         0.57185811851055    1.18141557375290   -3.17489347799283
C         2.24821046258556   -0.39823659939375   -2.98101924228815
C         1.68027195839350   -2.54991799226399   -2.02594297407815
C         2.67949879589793   -1.52345196610932   -2.27458572517014
C         0.91393260179936   -4.02235017237194   -0.16333994939255
C         1.97475072892702   -3.48673193258991   -0.99219278135039
C         0.42961685891858   -3.28657426419917    2.12770086494193
C         1.31600130310278   -3.87879053001295    1.19977246982027
C        -0.16866688928710   -1.15277838984361    3.21881889286821
C         0.84063389351863   -2.11308388516029    2.86673832092774
C        -0.75905884845549    1.30196438197891    3.15435382094870
C         0.19214289944119    0.23145058601898    3.35374392173452
C        -1.25886121212562    3.33572486263005    1.86756933786909
C        -0.89949821738308    3.91307223604848    0.57639824668349
C        -0.32780588218361    2.54343933498697    2.52731030460819
C         0.44900180922124    3.32164637164802   -1.37407759124810
C         0.35904193896535    3.72530027351315   -0.00010142252721
C         1.78136343231532    1.86673433187222   -2.81478931833853
C         2.83664674118681    0.90359235395330   -2.82570338437479
C         1.73439396334446    2.89865342966158   -1.85658426213829
C         3.93331954325690    1.06808202064013   -1.99624617546618
C         3.82916991628179   -1.33253841979543   -1.38468989075272
C         4.38755202339190   -0.05733197236471   -1.21404442324399
C         3.10142235507967   -3.33233778673154   -0.18418800145403
C         2.68048916534672   -3.50261608933885    1.18253701323327
C         3.93966340905180   -2.19057917576661   -0.25847763655955
C         2.22256971810495   -1.70103073132540    2.75788156659288
C         3.13014147198377   -2.40710830200869    1.90857064830585
C         4.06693338064525   -1.67660003778384    1.05712709457234
C         1.54106552220096    0.58717697453255    3.25438079057027
C         2.55048264446301   -0.35581344894870    2.98110473353803
C         1.05794525978409    2.73575844363446    2.16476142775857
C         1.42079663574512    3.40007803207560    0.92573240500197
C         1.97439577377656    1.86111753341343    2.72919967140067
C         2.87241607586821    3.05511071785273   -1.02067922884217
C         3.98975730737930    2.22948936304519   -1.19479595355534
C         2.69805103902498    3.24063348684646    0.41461897096408
C         4.71279404218947    0.43914675055577    0.11086948117992
C         4.35617982132410   -0.31920122257617    1.26802091859189
C         3.65210581764090    0.32479507520873    2.31166805730993
C         3.29271876661627    1.68962211739738    2.20292014484026
C         4.48665636786132    1.82620116091156    0.11006756066635
C         3.68661152653913    2.44601762897129    1.09033682970044
