62
C62 Isomer 536 Symmetry C1
C         4.32102078879259   -2.22684624634171   -0.32020288526615
C         4.58276483716654   -1.08368965957208   -1.14218851726776
C         5.04731490559698   -0.06182634558776   -0.28197136054948
C         4.19836550232793   -1.74435500703743    1.06106090160663
C         4.68153569243926   -0.44863661825864    1.11805790868702
C         2.86838592239000   -1.99435131060773    1.53642509285022
C         3.06495154413976   -2.72673597387975   -0.67833761969431
C         2.24797609475854   -2.75454607408326    0.48961632318166
C         3.40889632346977   -0.82177966353573   -1.96213971884218
C         2.50780369857515   -1.91434133842173   -1.74377101698770
C         2.85370458324347    0.48447129669197   -2.09969154386011
C         4.60609239760292    1.21966836970324   -0.47751950452677
C         3.58563817580287    1.54420673159905   -1.45195132681074
C         3.91110596570008    0.60209012740402    1.69618465878421
C         4.12888122171710    1.72157017854138    0.82746154942696
C         2.07263678317541   -0.98386041006213    2.16471335150300
C         2.58300020505306    0.36792345521712    2.20929261883944
C         0.65304246447875   -1.22136543012223    2.23132943642077
C         0.87457676789474   -2.76762356122306    0.34015357244826
C         0.12179080411241   -2.33452430982607    1.47401799959746
C         1.12196921776731   -1.78601576044079   -1.85366094500976
C         0.30066048815563   -2.55429771076667   -0.94643464325014
C         1.40013027011339    0.60786810035591   -2.24648722340712
C         0.54074808591742   -0.55093790638860   -2.27859740059333
C         0.73454228555926    1.80028029050895   -1.80947020478686
C         2.84299123176033    2.58851134560295   -0.85397466787255
C         3.13384930718558    2.62658640359224    0.58804822288146
C         1.46701586865705    2.70202540617147   -0.99804586882126
C         1.57950993212237    1.40671854780213    2.08889644927015
C         1.89590620907086    2.53906544915866    1.27441275845356
C         0.91356291082067    2.93328516964704    0.32339102949351
C        -0.30216343697170   -0.20303657568351    2.51743301054661
C         0.17676038939230    1.13920557635806    2.27988198977855
C        -1.73797307133266   -0.48730315586245    2.51692967867506
C        -1.22706785945237   -2.56581827682862    1.37584786331715
C        -2.19622542830686   -1.77990689524285    2.10266467178360
C        -1.09870180033763   -2.52381305976336   -1.05043718211831
C        -1.80357658641615   -2.92631752937273    0.11572208207707
C        -0.90322460456000   -0.44577876372227   -2.30911859414282
C        -1.72811997470358   -1.58225000428656   -1.94520356126983
C        -0.68802978204475    1.88146176169713   -1.68709023954451
C        -1.50789613473983    0.85133866637263   -2.24585378252409
C        -0.41818386674741    2.75438977809626    0.55832279299689
C        -0.79677572123256    2.04350982347241    1.74854804635819
C        -1.25370600740858    2.63967327403706   -0.60604852523619
C        -2.69264472572996    0.53675398018668    2.34804722062142
C        -2.17765115645475    1.81092635545152    1.89168056817847
C        -3.99884810088533    0.34673881736094    1.74553270123038
C        -3.44456215423276   -1.97780534232906    1.50705896209986
C        -3.19142529980560   -2.69007485798345    0.24330587231577
C        -4.36648268618818   -0.92357984468303    1.25105327329588
C        -3.14177940592436   -1.44152375987967   -1.84664116178522
C        -3.87843205030608   -2.06161576135042   -0.76248571552783
C        -4.76386217959593   -1.05646556201504   -0.13420813209118
C        -2.92455069941736    0.97854271576927   -2.10627706663258
C        -3.73186425623045   -0.17534434611909   -2.01955459665940
C        -4.75995230005414    0.04080506605480   -0.97627496129009
C        -2.62902438823629    2.62701991000945   -0.35381903533607
C        -3.08873083526328    2.37415015789890    0.99142061036940
C        -4.23610814105165    1.49043313837705    0.90475150156201
C        -3.48857450224239    1.95995140350219   -1.23667487015268
C        -4.55699371908688    1.33419576463697   -0.45013084679364
