78
C78 Isomer 10326 Symmetry C1
C         5.61408152881014    0.36500071279586    0.12285815607360
C         5.56878060906418   -0.81730330326170   -0.58129916234924
C         4.77432253779021   -0.59910427765073   -1.82758682488924
C         5.09168493881224    1.39324137610737   -0.79187921857659
C         4.37007540747429    0.73775299457714   -1.86928141004371
C         4.46443645973481    2.33218543100891   -0.02755335373954
C         4.90238438741596    0.50473201801394    1.37464781645198
C         4.35944242336245    1.81112904282707    1.34989648559930
C         4.06194773414936   -0.54976178672120    1.87278153962311
C         5.05753570452046   -1.94653103416266    0.04676963066674
C         4.30034773691256   -1.81217211957097    1.25821512518998
C         3.84256762968144   -1.64961628582615   -1.95326225492246
C         4.17348765012807   -2.57780372812998   -0.91620252854858
C         2.46617233668066   -1.37101907914165   -2.26785723940198
C         2.99233584817870    1.05480914483599   -2.12363126674367
C         2.04203266390789   -0.00632163881052   -2.40258672066585
C         3.19642871743157    2.82438269568596   -0.41599686690975
C         2.47355303557242    2.23406394030015   -1.49594539729785
C         3.07961433278370    2.09582858338446    1.79795109419867
C         2.48269437329152    2.96043622226298    0.80433896567794
C         2.69225761623827   -0.24343914257759    2.35752293826482
C         2.21171474262132    1.10088979792920    2.35656490782947
C         1.65970974735854   -1.24927952051035    2.42569330064312
C         3.19502793518045   -2.70536438736508    1.14319098492986
C         3.12689073550396   -3.15886784763396   -0.22029961558764
C         2.00301313886341   -2.51787077267718    1.84980906044906
C         1.48424950018968   -2.34335483494298   -1.88027347036525
C         1.88006747226673   -3.27188403096239   -0.86352513218918
C         0.08053958213031   -2.09995850847773   -2.06139600047215
C         0.61820474202230    0.26945785516888   -2.43591800892970
C        -0.36287407285940   -0.79868113385043   -2.43182246578511
C         1.07588625445626    2.48264221135122   -1.51644877799399
C         0.16213777785505    1.59530293243646   -2.16361067738546
C         1.14416794780688    3.20427776651813    0.80044931692246
C         0.53904618953689    3.31912500305675   -0.49041263564076
C         0.80766116191272    1.41283701665843    2.43100483709199
C         0.36550121251913    2.66570030485510    1.87715683765688
C         0.24896465470190   -0.94193619095744    2.60270596181160
C        -0.19962872527452    0.41179406361407    2.63170774601302
C        -0.78379501202570   -1.94893248078991    2.40313603973357
C         0.96036339510936   -3.33358279229508    1.39288837693104
C         0.90726193798964   -3.72141451068322    0.01781222620344
C        -0.36724110904362   -3.16335854512884    1.83666275441579
C        -0.88335233410408   -3.00310312159215   -1.46726681655349
C        -0.43489857580554   -3.78513724714420   -0.38824061354372
C        -1.18677293220928   -3.77922472853294    0.82602944259996
C        -2.29306000101614   -2.76052518882081   -1.54583492679171
C        -1.78874764166864   -0.51860551693456   -2.48405933512665
C        -2.76136301552196   -1.57436459531115   -2.22370417673752
C        -1.24967946844607    1.89096096313448   -2.14325672920522
C        -2.20734546836015    0.85224915926433   -2.44875323766297
C        -0.80799806098225    3.62279234645981   -0.49519321740017
C        -1.68966636981518    3.04077505073457   -1.45543495190261
C        -0.97928505909202    2.98462837167662    1.84104391055917
C        -1.48223855749685    3.73932778099715    0.74458847993074
C        -1.63056978314643    0.73138324965660    2.50251171912553
C        -1.99405526257569    2.04919765314198    2.22203603485284
C        -2.20758413369797   -1.62959810359060    2.30271845034321
C        -2.66187627625012   -0.27824598726292    2.29695290412299
C        -2.50286625791695   -3.53571754869408    0.76625234707603
C        -3.10657289730543   -3.33323582017217   -0.52244280099603
C        -3.07639151994565   -2.60273068346475    1.71356363156614
C        -4.36920562447869   -2.79035697158148   -0.20696179075404
C        -4.31466381851088   -2.26455299017361    1.17989453374595
C        -4.13913744907853   -1.23910264606496   -2.05818759218279
C        -4.93544438607391   -1.84670950125327   -1.01156618355837
C        -3.57856968317321    1.14244754436391   -2.18481663644616
C        -4.50820962056358    0.12003132520410   -2.04251825212849
C        -3.00062165352087    3.09103774297717   -0.85271491896170
C        -2.84536684632471    3.37519866585410    0.53661689845800
C        -3.18731013849676    2.36703854877785    1.46449224808642
C        -3.92648530949788    2.15808657701736   -1.20081752933136
C        -3.96045072633762    0.07439715615315    1.71415933343966
C        -4.79372476895405   -0.94648317985926    1.17242511090018
C        -5.42859579856720   -0.77810751189570   -0.12446463207407
C        -5.27318884762268    0.39090426611243   -0.81015054973475
C        -4.13447094469463    1.38861760068335    1.12527147332117
C        -4.71528364951062    1.52469617887934   -0.17714670097592
