72
C72 Isomer 5320 Symmetry C2
C         5.10359616470483    0.24413239898616    0.84228261979771
C         4.84725184998344    1.16439687887340   -0.14469269152696
C         3.99775106917631    2.22576770605582    0.40966525418073
C         4.38858065723467    0.72303845444262    2.05004174062518
C         3.58878563309801    1.88056160213160    1.71303743063186
C         3.79369114920436   -0.37006719654021    2.61533904466191
C         4.77339061825945   -1.14150815546886    0.63168306129102
C         4.04784472137892   -1.55769103447457    1.78235266355559
C         4.25689737331410   -1.52933360312623   -0.61785146477982
C         4.28563406111586    0.79597748096641   -1.41147605656922
C         4.03935657429739   -0.55001778152136   -1.65995914777141
C         3.05981480009378    2.57426513082002   -0.56490859134485
C         3.23941374809352    1.73059578867729   -1.71988538114125
C         1.77040102464011    2.97591648166558   -0.14751720263070
C         2.19858913245342    1.93914159447918    2.05331711872657
C         1.30305461072130    2.66689932049027    1.17240228528406
C         2.41495007551560   -0.34843291828079    2.96656829903745
C         1.63985182380977    0.82594327101851    2.77043902313576
C         2.84408783385627   -2.25696451669965    1.70120277658085
C         1.86647513573450   -1.58272051258077    2.53732874245727
C         3.14253092995162   -2.44309066613222   -0.66908846539085
C         2.37325728753900   -2.78559873544488    0.47004587702218
C         2.85381731754910   -0.91878519153500   -2.41096226546536
C         2.44317744727450   -2.17786717075250   -1.89328548010796
C         2.11141887506391    1.37058660544321   -2.49075424341472
C         1.87933138101885   -0.00361090597139   -2.86462756375722
C         0.82708755116525    3.01066847169385   -1.18235495673860
C         0.98540525414907    2.18889194628642   -2.32912140722230
C        -0.55783525702871    3.17010543733601   -0.91728124841447
C        -0.11153022563720    2.62968776962085    1.39400404038015
C        -1.06662900594514    3.04400796969189    0.37696111990243
C         0.23229521954180    0.63651905599367    2.79785024768077
C        -0.60387835166051    1.71985378268868    2.37428729142404
C         0.49322766545931   -1.74851841630707    2.35823658485419
C        -0.34192338343894   -0.66880449553479    2.79295575904305
C         0.95116923112710   -3.05550275275599    0.34850593741589
C        -0.00146676063630   -2.64989584557837    1.37133366532178
C         1.14104572006966   -2.57569860324192   -2.04267746420846
C         0.43935316553737   -3.17043421035777   -0.94558103326418
C         0.50611296170489   -0.45096661461759   -3.08386242889059
C         0.21040248082642   -1.78037200517014   -2.77087840587292
C        -0.33316401855174    1.79578530948350   -2.75504661760389
C        -1.26209255883964    2.58484947714840   -2.01781480480579
C        -0.62965146424247    0.46909216598665   -3.07858326594738
C        -2.56391537211615    2.18569359917612   -1.86872544512449
C        -2.48839518926018    2.77305394198486    0.49957642197390
C        -3.26046740788131    2.44040538937972   -0.64065012938295
C        -1.97674344247857    1.55236847781148    2.55520408381422
C        -2.95623233248994    2.23373914711709    1.72715721849162
C        -1.74949517473528   -0.85806677540656    2.76726386158834
C        -2.52423541023879    0.31450935584966    2.97521490093695
C        -1.41656922577728   -2.68525413414984    1.15270639126835
C        -2.31003147289264   -1.96506167726608    2.04190436661435
C        -0.94616786186194   -3.00880034575654   -1.20604547650461
C        -1.10715995222015   -2.17716472746473   -2.34528756388646
C        -1.88702780944947   -2.98289044077917   -0.16872651284867
C        -2.00235760365269    0.01982768487843   -2.85999186489940
C        -2.97580473713385    0.93107808581994   -2.39619998213382
C        -2.23355510557556   -1.35745203887534   -2.49728313385330
C        -4.37463966576677    1.52619972780010   -0.59454689540442
C        -4.15957234556365    0.55580752147013   -1.64557512328477
C        -4.15988893703467    1.53391789743470    1.80532891468564
C        -3.90376471446659    0.33921645505392    2.62751750378980
C        -4.88817671925841    1.12764246166508    0.65286144739876
C        -3.70104480071091   -1.90363225682536    1.70545950046837
C        -4.50009175093562   -0.74899056591533    2.05428984988220
C        -5.21805988925453   -0.25977254217293    0.85241479530814
C        -3.17739384157017   -2.57771976243704   -0.57960245602074
C        -3.35974635581728   -1.72416686355281   -1.72690034206598
C        -4.40538478603695   -0.79226744522765   -1.40802661359368
C        -4.11307234153395   -2.23753585849356    0.40009571516681
C        -4.96388527296946   -1.17148707900623   -0.14306382852573
