78
C78 Isomer 5042 Symmetry C1
C        -4.84914129845764   -0.81804818713895   -1.98987188077797
C        -5.17002170280048   -0.10446950645456   -0.78987329884993
C        -4.75805651866191   -0.89521967314386    0.30567060241811
C        -4.16430025681916   -2.02891653441624   -1.64342563907015
C        -4.10809255328187   -2.09782985995740   -0.24219406061479
C        -2.89954689603746   -2.04453294212736   -2.32415014154099
C        -3.93719547024382   -0.01585701316795   -2.70923386798769
C        -2.76621719970621   -0.77602246281617   -2.99382023588014
C        -4.64116193787508    1.22985635663117   -0.91519897368293
C        -3.79043117206666    1.27238787477852   -2.09878533686801
C        -4.17772285415753    1.85261875475415    0.22006723617710
C        -4.21955815789573   -0.27571184673738    1.46357944846532
C        -4.03119968670581    1.13166570863944    1.46894016799853
C        -3.28191646353681   -1.00859955322529    2.21671247057828
C        -2.97345116345429   -2.67157826458777    0.39704664551446
C        -2.74325056588344   -2.24954852049888    1.71154620456841
C        -1.77252925461354   -2.62919536276614   -1.74003411291833
C        -1.81816902623732   -3.10354537701119   -0.38178620506777
C        -0.51060253148886   -2.24161729153748   -2.29134905120962
C        -1.53225324187411   -0.13590498140790   -3.05425597121221
C        -0.39410283694164   -0.99082187278848   -2.95477665879740
C        -2.53783740277542    1.90489208852564   -2.09087634734069
C        -1.39336206367454    1.26016979133724   -2.72870236774279
C        -3.09909167616337    2.78280031258568    0.11229560784494
C        -2.26084772565357    2.83612624950928   -1.02073100045514
C        -2.95682255586344    1.72861244299101    2.18928878418731
C        -2.51864848621558    2.85457645466128    1.41649433843010
C        -2.24537779708962   -0.39333229756924    2.96009246377931
C        -1.97960916562650    0.98716243503358    2.90267416440864
C        -1.47574864704954   -2.45335332669252    2.30916662752399
C        -1.15020336470411   -1.30764945377077    3.07769232820740
C        -0.59666310796893   -3.45154521918293    0.26085897117538
C        -0.47719351178274   -3.20646717838096    1.67144262404030
C         0.65685283902473   -2.91213067867567   -1.81015898005553
C         0.62669782290195   -3.55707273037987   -0.51878661867152
C         1.86725852373392   -2.53374071566042   -2.39152418809475
C         0.87617307396688   -0.40195796998493   -3.18329128591391
C         1.96437856935407   -1.29663950167368   -3.12373211284970
C        -0.08822319408625    1.80135042628912   -2.61189559897875
C         1.06296932105837    1.01098106257007   -3.01470882142655
C        -0.94209087387835    3.36833881216696   -0.86945436829742
C         0.10871865725562    2.98363017196673   -1.79012596427270
C        -1.25775838782313    3.33663320225665    1.56620952288882
C        -0.55522423125295    3.80362132766637    0.41775333253624
C        -0.58893238362796    1.43594702627930    2.98241824687081
C        -0.30480449650308    2.69911229767096    2.44398774783219
C         0.18387155295925   -0.88161133560160    3.22793232907993
C         0.52055630480669    0.51366254900371    3.09126556209430
C         0.79527913793395   -3.05178682972868    2.25658395314517
C         1.14519782880357   -1.86045757237127    2.96791314128986
C         1.86333850560894   -3.71215917265174    0.14437031205622
C         1.92909470542312   -3.47398142335155    1.54352258630429
C         3.12183928434915   -2.73124811924299   -1.70289462519588
C         3.09005398468999   -3.17951999398350   -0.39639262659705
C         3.26332541048836   -0.79687456326396   -2.96108811869544
C         3.96913437811227   -1.64884314711733   -2.01411844030949
C         2.39890166512440    1.48447208808656   -2.76469048652396
C         3.47930832141194    0.55294237073738   -2.67367647849663
C         1.41478856641353    3.38542452584020   -1.50141720223305
C         2.56049843613025    2.66401104796933   -1.99898227916907
C         0.81006165001229    3.85166043548727    0.80113842849898
C         0.98847153051320    3.05802977224017    1.99911317729166
C         1.76608145544503    3.85480427343238   -0.18038547344659
C         1.84225175682388    0.85356980955124    2.62516348639298
C         2.07940037029674    2.17191048287798    2.11198580841580
C         2.48890499607316   -1.50827869965060    2.58709798517625
C         3.00630913814761   -2.58391948259838    1.81389204484067
C         3.73116754247686   -2.37214185831472    0.62395644009874
C         2.81297122009724   -0.18440487811370    2.28273375832881
C         4.48325489733548   -0.80312462809557   -1.01732318696847
C         4.37019076573438    0.54583631041785   -1.52524655509310
C         4.23468745427047   -1.07879136249070    0.36016951201356
C         3.83010021204029    0.01675799146519    1.24335123410151
C         3.58171108437359    2.72921372503291   -1.02421653840397
C         3.02764257222651    3.31365669755125    0.15641109373436
C         3.17131289599436    2.39502829748165    1.22367621977844
C         4.30873842235994    1.57416473172666   -0.62823816534921
C         4.00586500670648    1.31682348311538    0.77019865697211
