76
C76 Isomer 16272 Symmetry C1
C         4.47675221273409    0.37822063249244   -1.54369353843396
C         3.66797501284701    0.03029959808395   -2.60036339404001
C         2.85485124991260    1.19162830242993   -2.94738176541523
C         4.12927461850125    1.75162953458804   -1.14380402808048
C         3.07118067092551    2.20734437273536   -1.95228689596013
C         4.03837682545001    1.77483393354542    0.24885833844472
C         4.54455025531513   -0.43199594229483   -0.39048463322636
C         4.51566687923029    0.48586795462839    0.72981656177670
C         3.80236852689569   -1.66034130370757   -0.33717579267048
C         2.81286998325356   -1.11120378508280   -2.51662050323725
C         2.83377272400410   -1.95722200731297   -1.38901593074714
C         1.57791983004783    0.74311661669438   -3.23361194165653
C         1.55897441754754   -0.69912600588038   -3.06533047104524
C         0.44546761559014    1.51654956846134   -2.88158143042365
C         1.95825221627643    2.83673561690238   -1.35870223759989
C         0.68758452396456    2.65340961593242   -2.03132147582025
C         2.96446775248060    2.44598674008851    0.88970355734473
C         1.96016131494206    3.07199277681189    0.06582477257851
C         2.60029237679777    1.95816591704241    2.20746946127388
C         4.13022234293646    0.03542621079278    1.96673321147518
C         3.15162207961720    0.77634962936944    2.72947678168359
C         3.53605516773135   -2.12555450447559    0.96967739153913
C         3.85199970782527   -1.35008984677029    2.09911874037181
C         2.30857881434279   -2.84207305687141    1.26607606101783
C         1.60378309809772   -2.66586978685590   -1.09422857050035
C         1.40771500038729   -3.17481994919076    0.24093775663377
C         0.37605395966105   -1.33565423218219   -2.77325980196255
C         0.42369993058205   -2.46414022429809   -1.88226138307559
C        -0.82661750356803    0.87982624540278   -2.92443486801392
C        -0.84710590997057   -0.57215486564270   -2.99178755087100
C        -1.98854763890165    1.56969137912040   -2.44591587124952
C        -0.44123376627012    3.21083695882907   -1.44892753626385
C        -1.75715731192048    2.77483266771960   -1.75692728065490
C         0.71839982339816    3.49289101865402    0.67816898199016
C        -0.41814790876975    3.71726082003732   -0.11015098926506
C         1.32712073282463    2.28534321273372    2.71594959830108
C         0.45554125861475    3.14570795251604    2.03028005283920
C         0.51496023577665    1.34670976499185    3.44322495534980
C         2.29505779793164   -0.19548546101182    3.37978495649567
C         2.75245245687995   -1.46651571237751    3.01787729317620
C         1.82575893542459   -2.42371756657090    2.53977544433583
C         0.89892190710224    0.01907420765927    3.58837293181466
C         0.44590388277284   -2.25545676133701    2.80071857399698
C        -0.08287150175791   -1.02798219368976    3.34464943339962
C         0.10862357222238   -3.46907851906904    0.69361065178921
C        -0.37135600211836   -3.00726502767201    1.95784674633045
C        -0.84818722328829   -3.01559843128992   -1.49247357538181
C        -0.99780760622797   -3.53899640077438   -0.19344412819702
C        -2.03470132348688   -1.23260493445524   -2.78634294938232
C        -2.03240035364171   -2.50949280117481   -2.09546891332987
C        -3.23787759129390    0.86766635619317   -2.19794029144190
C        -3.25812807048201   -0.52734728488462   -2.46830331297151
C        -4.13246130313743    1.33833921484353   -1.21105611935050
C        -2.59763003587530    3.18746846954849   -0.67009548196315
C        -1.76496478038182    3.64963942142875    0.39022061010949
C        -3.78145343421976    2.49771104436565   -0.40681510595522
C        -0.88477033502510    2.88367052942495    2.48099878747686
C        -0.84707793502722    1.70095209081035    3.26875138575911
C        -2.01484646816956    3.20082624894673    1.71503134427151
C        -1.45510356037237   -0.69013323738742    3.10960023150642
C        -1.84857396990457    0.70780485924958    3.17882493590043
C        -1.76294644266665   -2.75454535427909    1.84631255456294
C        -2.18096464222567   -3.29168025843466    0.57731814199334
C        -2.33890079337083   -1.60074049499783    2.39024788798782
C        -3.25906456173930   -2.59127936584189   -1.42568902672290
C        -4.03124269134596   -1.39691353839773   -1.68678024516431
C        -3.32241809624833   -2.82244338512430   -0.02644240589237
C        -4.79043905818861    0.41030546625179   -0.32411125384949
C        -3.58577107687088   -1.14574835465793    1.77863027412229
C        -4.62216496129259   -0.96122680775637   -0.47637817939536
C        -4.07807902613475   -1.76305201355887    0.60244945199705
C        -4.13036455006703    2.25631343604462    0.93231133311455
C        -3.16817533188851    2.40917254872611    1.95897354729361
C        -3.06308808662404    1.14006379981528    2.62100239688054
C        -4.67158624965362    0.91738762165123    0.99567044589446
C        -3.96800260871765    0.20849705974524    1.97631329638196
