72
C72 Isomer 825 Symmetry C2
C         5.15007938794158   -0.59593038778861    0.31728153759885
C         5.14855692382636    0.60291634936871   -0.37043322557438
C         4.43199282095357    0.41422818235665   -1.63332228585532
C         4.43113333290288   -1.58128131091647   -0.46298224659283
C         3.98636113223107   -0.94116309918961   -1.69689352689841
C         3.45222327441105   -2.12189921573657    0.37592098103785
C         4.45000467723981   -0.40402004030264    1.58889415260059
C         3.46955663004674   -1.40387047363974    1.65752768952335
C         4.44377486755906    1.59149665099531    0.41859793980533
C         4.01134667530059    0.95339059916265    1.65791762755723
C         3.45535983620903    1.41855347508564   -1.68990855094280
C         3.45708217436941    2.13661081066440   -0.40818849890642
C         2.22354112155577    1.18670375357632   -2.31663696334293
C         2.70127467252297   -1.21652585469897   -2.17470415981404
C         1.90317138930189   -0.14459009091329   -2.72133417219173
C         2.21640227686347   -2.57667960026356   -0.14397238021204
C         1.94861108356961   -2.27646122155764   -1.52200966755291
C         1.13084328223443   -2.79819033622863    0.75974261851653
C         2.24663373567052   -1.16643160081729    2.29939878198833
C         1.17094079943035   -2.09487229373488    2.02273866878787
C         2.73352153776225    1.23459840133291    2.15151988522010
C         1.93734139294458    0.16628625511865    2.70799632100143
C         2.22984413890419    2.59699422565930    0.12688274188117
C         1.97768627253272    2.29797033709513    1.50811794747979
C         1.15558477926282    2.12003542408785   -2.02677892466989
C         1.13424193503231    2.82350177452313   -0.76339021234011
C        -0.04970085528411    1.91992499224379   -2.67993276760825
C         0.55635984004168   -0.41197770480549   -3.14193201159553
C        -0.35511305804318    0.64840753270195   -3.27835096088186
C         0.65968574653710   -2.53393221246757   -1.96283799972072
C        -0.01944748864752   -1.67025369962227   -2.90273718852967
C        -0.14369897245474   -3.21855271996208    0.25232102275291
C        -0.31180368671814   -3.15109729624972   -1.14725606717481
C        -1.34079519384966   -3.17090051738926    1.05934176924397
C        -0.02526371540064   -1.88931683233030    2.69073639256345
C        -1.25979938558800   -2.48921505539793    2.29174990753646
C         0.59706866089375    0.43978157196257    3.14518806438693
C        -0.31745708299421   -0.61643538087158    3.29287619889390
C         0.69546563541540    2.56128392164849    1.96482872647082
C         0.02410144540822    1.70069490258809    2.91311743253625
C        -0.13201707571380    3.24965240688185   -0.24030701813872
C        -0.28320335270477    3.18280461985931    1.16125086505875
C        -1.27650763138686    2.52545065763341   -2.26580921789517
C        -1.33920524163947    3.20740444889381   -1.03246570811406
C        -1.76209724717264    0.45964304058256   -3.21861385147462
C        -2.33780491223567    1.68252512508135   -2.72082527638733
C        -1.41435371382388   -1.85184700021255   -2.76051839019874
C        -1.59640930298279   -2.85745267594482   -1.73953222545416
C        -2.34234739184914   -0.78794077992176   -2.89009700690493
C        -2.61889206714068   -3.15824554249823    0.42848829318260
C        -2.73571095562743   -2.90492502239657   -0.99861652086832
C        -3.69665309409550   -2.48928520749156    1.01745553402256
C        -2.31156702451677   -1.64156363648933    2.75993276090623
C        -1.72421001913076   -0.42128667916899    3.25052812435410
C        -3.53332055341261   -1.60916872855062    2.11144530416294
C        -1.37163151951058    1.88859759184160    2.78801531282419
C        -1.56167553744454    2.89495341086504    1.76928878898181
C        -2.30282374264632    0.82894162511030    2.92907602157522
C        -2.60949809957295    3.20056253835911   -0.38594232715281
C        -2.70975386518738    2.94763997936233    1.04247282899216
C        -3.55169727383205    1.65574101170848   -2.05740054965889
C        -3.69754637270601    2.53653417969105   -0.96148171376145
C        -3.57977379900567   -0.82485597243397   -2.11519147292469
C        -3.79325228496970   -1.93908734157055   -1.23965130264159
C        -4.43947161257534   -1.77267504437869   -0.00874579238463
C        -4.18785825054559    0.39046252488461   -1.73497531789744
C        -4.16776772283571   -0.34110023482141    1.79687643441570
C        -3.54946751744365    0.87143535619818    2.16949017107472
C        -3.76886790783065    1.98670666829151    1.29663532913840
C        -4.43098016272505    1.82338039206042    0.07381706733140
C        -4.77843121235566   -0.50036989386113    0.49480259227645
C        -4.78191557527542    0.55258596714784   -0.42549633341807
