72
C72 Isomer 885 Symmetry C1
C        -5.23655042318828    0.59184759931701    0.64771682267976
C        -5.07166539893659    1.41939643036311   -0.44980171260376
C        -4.17187023321986    2.49098155116641   -0.08925074538086
C        -4.38568147353345    1.10182698921130    1.72971386166567
C        -3.71745731897659    2.28563665211627    1.26985954773402
C        -3.58201984680048    0.03843624035853    2.14604643551213
C        -4.78289866221311   -0.72905036095043    0.29312506434327
C        -3.86362557232868   -1.11790038852515    1.28244121968184
C        -4.47390883931977    0.65290671108412   -1.54924700282874
C        -4.31836065703656   -0.69390397367750   -1.09467284773270
C        -3.18573844389959    2.50370912257279   -1.08070689726790
C        -3.32061872807503    1.33104084503888   -1.96218915212237
C        -1.90214819254058    2.92869702395883   -0.76805297851762
C        -2.35728886444205    2.47103550098204    1.57835380170777
C        -1.51590361126910    3.09975621239693    0.59206212378603
C        -2.24591453473899    0.22954286400249    2.55722106213195
C        -1.64565841669296    1.52285193393849    2.39550516342493
C        -1.41696855921336   -0.94870616655561    2.61279134300047
C        -2.84321626580959   -2.02468939808922    0.96839450521152
C        -1.69044967809260   -2.12271847752755    1.81120081266752
C        -3.15919610871997   -1.38937526845596   -1.42069458866001
C        -2.68853331333472   -2.33027715529784   -0.42610322338370
C        -2.14513364598162    0.63276375627236   -2.36197051360295
C        -2.11327083676059   -0.78094462715388   -2.22585200266730
C        -0.88606755156171    2.59785250158098   -1.73183624745955
C        -0.89330870096924    1.33101408287224   -2.40138717973386
C         0.29845402653275    3.25245527376806   -1.55084463955932
C        -0.14461535250948    3.35866289419240    0.86147387278900
C         0.59342820195751    3.83076141952363   -0.25103281695509
C        -0.22070576756178    1.67051023589955    2.57111827081634
C         0.56264305274298    2.70019984320047    1.91453046957449
C        -0.10845618392434   -0.75411880671197    3.01611774700769
C         0.46956535596331    0.56427975473104    3.05828143772740
C         0.92692929407076   -1.69382264866311    2.76995479383315
C        -0.64028347154726   -3.03736578501953    1.47605573623049
C         0.70241031119352   -2.86092448665398    2.00581019845223
C        -1.61626298543193   -3.10187372993382   -0.77091181212155
C        -0.76488553359730   -3.68826181429160    0.20915514210064
C        -0.86281335669981   -1.44790043710506   -2.41954565697160
C        -0.81956322565071   -2.78820338943795   -1.95008958855156
C         0.36794397543093    0.68201207835488   -2.60045005718646
C         0.39037254314961   -0.75946794461823   -2.60984463999604
C         1.50813758820203    2.79871906804766   -2.14400057351374
C         1.60819983080117    1.42253435972259   -2.48323251737909
C         1.96301817119145    3.97170701139023   -0.16589623193666
C         2.54116719274825    3.46905603407522   -1.43205767643421
C         2.00986196408004    2.66000363332960    1.90778921520232
C         2.69782191271675    3.44069560962306    0.91747059646151
C         1.87735009792617    0.42985291719071    2.92244569501110
C         2.15636891553900   -0.96580577830539    2.74700320713630
C         2.67983132524641    1.45445473948620    2.38572953399126
C         3.20502073082200   -1.37484098633170    1.90130972946773
C         1.83780325030147   -3.34159179480251    1.27947309330723
C         2.99120195657608   -2.52952192887335    1.12353682787357
C         0.37751166224296   -4.12230402727868   -0.50632225624959
C         0.37156472465492   -3.47285682782102   -1.83628221869038
C         1.63655524842576   -3.99249435046270    0.01405488084112
C         1.64492357754035   -1.43504222672367   -2.36407104455752
C         3.29563919508920   -2.46481648067578   -0.30652508478721
C         1.61574351752177   -2.82017725343106   -2.02112667391025
C         2.46570180865459   -3.32900188274885   -0.98514389771125
C         2.85577422439861    0.74753262325747   -2.17003440025881
C         2.80750595799354   -0.67554974857389   -1.94211941122930
C         3.64306976842201   -1.23491750914115   -0.91174681171373
C         3.72200951106159    2.85326492364486   -1.15128463986217
C         3.91573928610464    2.95737860790385    0.31802379095499
C         3.91493854706886    1.48774879020270   -1.55066349967375
C         3.88882794117583    0.99692994944596    1.76875110836210
C         4.02796021394307   -0.35991722160881    1.38202681017249
C         4.35546997877607   -0.37556211474728   -0.04562486738143
C         4.46780107912336    1.77559189160373    0.71328191709228
C         4.62377381518836    0.91025731436758   -0.45820972936035
