74
C74 Isomer 5882 Symmetry C1
C         4.26585334764693   -1.72314448063463    1.26089277189252
C         4.45337236463055   -1.05297272279269    0.00178717571122
C         4.34019196670642    0.35332584136524    0.21618941883252
C         3.82677154346572   -0.76153252897320    2.19237838603811
C         3.94065018723523    0.53042915359160    1.59046714094577
C         2.54247403423606   -1.16922944198981    2.71971548551226
C         3.21177162615079   -2.67146813410770    1.09658898015017
C         2.19725226190954   -2.39834095076198    2.07263716046980
C         3.60176388227323   -1.64936340821580   -0.95849004611473
C         2.84936340149564   -2.70018736667946   -0.28089724801898
C         2.98089441419382   -0.88597826299894   -1.96354711768650
C         3.79903842071555    1.16049457782710   -0.80311515725083
C         3.25349782653488    0.53555715155713   -1.99222192780130
C         3.22437540034152    2.37742178063501   -0.36240077585363
C         3.01439877274292    1.51806832910666    1.94609177206914
C         2.85249550034344    2.55550079620595    0.99861194322177
C         1.53527521177513   -0.23747837394193    2.99460713519735
C         1.87877016431692    1.15800261250920    2.78692102016135
C         0.14444955122290   -0.66697257915079    2.96874676476894
C         0.87034278559573   -2.69074614997016    1.77974641800957
C        -0.18911447837007   -1.93919923870115    2.39992780970772
C         1.53306052805917   -2.97601683349244   -0.61924001133256
C         0.63461520498327   -3.26302112643025    0.47690783716601
C         1.74317408172687   -1.41204929396729   -2.52143871887630
C         0.98581968696145   -2.43712941781354   -1.84349049872391
C         1.02088773292831   -0.59655321350707   -3.39873929341422
C         2.43516409049313    1.33829760750711   -2.81795760961383
C         1.43899765219700    0.74473219307889   -3.59843772563544
C         2.26190226519066    3.09607543554865   -1.15475028222720
C         1.90030117956403    2.61812139789769   -2.38482335168393
C         1.70034979204655    3.40957750759194    1.03141085729017
C         1.27378780250595    3.69607614331162   -0.30731434708956
C         0.83695042464727    2.06164523272751    2.86497481647742
C         0.77093537421167    3.23492599284279    2.02566263984645
C        -0.90417987589118    0.30486404798111    3.11795822976323
C        -0.50807261568329    1.65965479741677    3.14148735559359
C        -2.28508779492459   -0.00493840378220    2.78746860525189
C        -1.55382722877006   -2.27519699124706    2.07087010247152
C        -2.62480863380318   -1.32340255779390    2.29319503730181
C        -0.66634032476631   -3.54410671678541    0.16739124511951
C        -1.73652672547557   -3.28908191668062    1.09483635114626
C        -0.40790654141687   -2.57199805184690   -2.08209207670312
C        -1.15643799553207   -3.36973026608115   -1.17381590294240
C        -0.41312273529509   -0.59024729584947   -3.42553894375377
C        -1.16397576931989   -1.55492296924197   -2.77947847382402
C         0.27363578566028    1.58517683880068   -3.60871346485556
C         0.51337994155435    2.70665240022099   -2.78021351615689
C        -0.86585279361247    0.77727384558924   -3.47048896631539
C        -0.09292835336240    3.72613552921778   -0.64111071549924
C        -0.49875942615640    3.13238089689759   -1.90417266346142
C        -0.59331640769205    3.54402715465383    1.77114202755733
C        -1.35694520092729    2.69007691693834    2.63818380765354
C        -1.03545927442969    3.79824743900606    0.44921223548812
C        -3.16619797395588    1.06640786906897    2.50906342744129
C        -2.67745766711936    2.40981823348799    2.35840132409444
C        -4.20213474623660    0.92974353798648    1.50961199199835
C        -3.81632729115075   -1.46011168991869    1.52896346963644
C        -4.44880512310597   -0.29822148999063    0.96388140042922
C        -2.91306713464067   -3.35201305693994    0.30759837986878
C        -2.53891806612275   -3.27512337081675   -1.10669148224700
C        -3.92679431068441   -2.45052796585621    0.51936033498970
C        -2.52548625768038   -1.19969177691807   -2.41462376300196
C        -4.47966516637962   -0.44415028311865   -0.48299207089224
C        -3.25715782846092   -2.17924792802496   -1.69382601239892
C        -4.23527259966907   -1.78575544012038   -0.75547580605163
C        -1.95541944920305    1.20742082105273   -2.70056242455722
C        -1.79690900516997    2.47192120207903   -2.00579216713026
C        -2.88718593087724    0.19148377236366   -2.26499876304233
C        -3.89071800092785    0.56875036016808   -1.30449692617681
C        -2.38495895506673    3.47895467394169    0.16930047251946
C        -3.23282154336118    2.98972513427108    1.18879212391692
C        -4.15905709851019    2.04825945431569    0.63172959485876
C        -2.74009083626873    2.77331335797754   -1.02718454853684
C        -3.82285704624316    1.85631165840239   -0.72558025169844
