76
C76 Isomer 3706 Symmetry C1
C        -5.46947852861713   -0.38802131602848   -0.05164564925848
C        -5.03169614160334    0.49406529504634    1.00236581299285
C        -4.66599322511094    1.70994815598240    0.41795562527439
C        -5.03733018176790    0.19202169385897   -1.30705051722801
C        -4.65526857828979    1.51282758904262   -1.05029207430654
C        -4.06860716489096   -0.67354479697803   -1.92480374589570
C        -4.74125023914000   -1.58043820579707    0.10585284976129
C        -4.00106473850977   -1.85341570026421   -1.08505218622554
C        -4.04782124717756   -0.18671521057466    1.82415830282490
C        -3.96380099967203   -1.52676888736891    1.31279143797368
C        -2.85963449076366    0.45487901530863    2.24835045293450
C        -3.46352572592015    2.32978590921866    0.77861001648579
C        -2.60398600374272    1.79394055400320    1.78356130794539
C        -3.43295784236101    2.00405505696904   -1.53338037468524
C        -2.81680785583299    2.71291804954493   -0.45068690270580
C        -2.86003734241956   -0.17982682821862   -2.48385076801193
C        -2.55020816183932    1.22368613118678   -2.33459311529299
C        -1.76779754798810   -1.10862872924108   -2.66007177348722
C        -2.85247562453554   -2.61561844912343   -1.00633975348842
C        -1.87560959215872   -2.40852312220332   -2.04736103164722
C        -2.78875863462076   -2.26324254021589    1.40060534951546
C        -2.37318809089598   -3.05699781701494    0.27616872808443
C        -1.71847981077762   -0.36841980797539    2.60086749757639
C        -1.76773240821448   -1.76227258145623    2.27995937454070
C        -0.44476291490241    0.23318569323387    2.87509130475180
C        -1.28540458932165    2.31944592638200    1.84178192852346
C        -0.27992365397198    1.63570587671667    2.61132996142684
C        -1.49108136331582    3.06630904976283   -0.47979037730469
C        -0.84278195140536    3.19872441327590    0.79316526724327
C        -1.20105374952729    1.66758512884293   -2.44286249477924
C        -0.71778127429176    2.75435314441157   -1.64080609701538
C        -0.47348009166804   -0.64839461377270   -3.05167744138278
C        -0.22799178283733    0.77429281402662   -3.02506843280375
C         0.66214469624311   -1.54282732393446   -3.04348748446923
C        -0.78578947819188   -3.25238800284501   -2.03704082621812
C         0.44428352796097   -2.87414062107337   -2.64613869492993
C        -1.14629554385697   -3.76711407446018    0.33584421914378
C        -0.49162362274131   -4.08605538100668   -0.88490445318622
C        -0.60005818824767   -2.52418542692588    2.36541714358137
C        -0.33034925642769   -3.62146629187972    1.48110665009185
C         0.74665353748523   -0.57930721449223    2.99452177720714
C         0.62305091156030   -1.96148216515338    2.80050876038022
C         2.06940978967163   -0.01668079622593    2.78096990905148
C         1.02145179943909    2.18348907681560    2.61158696245391
C         2.19862789585496    1.35910119603717    2.62409861370198
C         0.47214030045536    3.64869840508957    0.76033901913450
C         1.32906761243167    3.29816224998762    1.80695601462219
C         0.66198928407483    3.13507777711601   -1.63530170493176
C         1.23589739556026    3.69488483317584   -0.47505588818256
C         1.08328700060710    1.21925617698582   -3.14958802453294
C         1.52876714080577    2.46060684534664   -2.53743444436121
C         2.01685584385408   -1.05747045409353   -2.91852149284898
C         2.19015228879622    0.31525049160484   -3.14322612636495
C         2.99323514142917   -1.71787830102463   -2.07382751098809
C         1.46797766100049   -3.60629069118166   -2.00893681781628
C         0.88210228705905   -4.34485060729903   -0.90709184076470
C         2.66683916595448   -3.00668139724212   -1.59797797435384
C         1.08947773416857   -3.79964222146525    1.42879911373509
C         1.67963613263276   -2.77986472545064    2.25933445056785
C         1.70843445290566   -4.14933283454564    0.22634736793726
C         2.87669470026553   -3.40121271407941   -0.21963118953335
C         3.08730959660816   -0.81090275698048    2.17199674656276
C         2.87559092903721   -2.19738355409837    1.90509264728208
C         3.47029440310408   -2.49725789810239    0.62757686708890
C         3.86304642825195   -0.91168759553957   -1.23715957657892
C         3.91477531427952   -0.28018965082490    1.13952915504999
C         4.02351169459992   -1.27681910349438    0.11409165246514
C         3.19236135956094    1.93985902106115    1.73928489155165
C         2.65800353098874    3.14109300905782    1.25811508840679
C         2.61683847879696    3.43926957736070   -0.13107982559901
C         3.94618403501478    1.10783952231346    0.85988498620224
C         2.89298888727447    2.35323473527347   -2.26430835893736
C         3.29879846576229    1.00707862010796   -2.59871253641286
C         4.00318729646025    0.47303636560394   -1.51857186905801
C         3.41855304805310    2.67514208575944   -0.98444414390860
C         4.08826786954854    1.49613092414079   -0.48824373457749
