70
C70 Isomer 1200 Symmetry C1
C         5.18770033362263   -0.40875306753278   -0.48794212501269
C         4.49750218948862   -1.39936883431483   -1.30639082325672
C         3.89824799990580   -0.70868760670677   -2.35658844843801
C         4.78148679850122    0.91062088828021   -0.92868678992641
C         4.06410871819328    0.74304252645126   -2.10583850405457
C         4.11153430651543    1.58343596765717    0.16118428057081
C         4.70663851014918   -0.56077491423919    0.81408259607289
C         4.12362949510404    0.67345110095684    1.28060823896803
C         3.66971669796776   -2.22274454835033   -0.46653845119840
C         3.90307260255903   -1.76179871685405    0.88924250219342
C         2.34670835761324   -2.55270929872264   -0.85641659639304
C         2.54741806320212   -0.92296722249037   -2.67449708684810
C         1.78665609630663   -1.92417466842132   -2.02715492447551
C         2.80326931813928    1.35926533910138   -2.30198708850981
C         1.91262570870583    0.36311530397587   -2.81922238598040
C         2.95254159063497    2.36035970115699   -0.08289929927766
C         2.26923937357846    2.27784277819722   -1.37126361307464
C         2.11829153655553    2.56732081749202    1.04531203369509
C         3.05322865700213    0.62725780949230    2.20947585759808
C         2.14002398490238    1.70037793670212    2.17541744734680
C         2.88127215275819   -1.79463021501146    1.80930557919730
C         2.49873459219737   -0.62773462547303    2.57818859948460
C         1.39420935888937   -2.88228638518360    0.18515031491130
C         1.69103151036189   -2.52061441642715    1.50521456901374
C         0.01766141582849   -3.08760204475064   -0.12458115609693
C         0.36921644930045   -1.84399215494871   -2.19249970455641
C        -0.44078234194577   -2.74232044291204   -1.42966209435467
C         0.53373842960103    0.51002431814681   -2.77109127813484
C        -0.26865163760392   -0.67594274838450   -2.71135064269554
C         0.86631218101429    2.54582250295848   -1.47950166852293
C         0.00159423353197    1.75472615507755   -2.30860705692628
C         0.80034875515650    3.06596072658996    0.90354008455645
C         0.22266157775887    3.20563972438943   -0.37618780758129
C         0.78873036646098    1.58118769676141    2.64055203215217
C        -0.00940094585259    2.54158985094535    1.95952566655131
C         1.11482467167373   -0.75388323607585    2.87809584995559
C         0.64658766754972   -1.98018211636048    2.31898782616356
C         0.20393738238686    0.34021669312612    2.93151191683354
C        -0.96863931337434   -3.06700890039248    0.93199212097270
C        -0.68981067524979   -2.20980404369271    2.05865595498470
C        -2.31188600322278   -3.26798248275412    0.60496043887868
C        -1.81840690927046   -2.75145974504643   -1.70348522859827
C        -2.71804651599663   -3.27682366499581   -0.75809536994296
C        -1.69500045028790   -0.52730941719201   -2.71278714617461
C        -2.45574577194126   -1.66619532209067   -2.40245495641880
C        -1.42795689294973    1.91538470809424   -2.30893249521258
C        -2.29546631502165    0.78939072798290   -2.62079482479642
C        -1.14987250648999    3.38246272227408   -0.39657477853276
C        -1.94054536889204    2.97233017265239   -1.52175483868785
C        -1.39890441927612    2.42291614206913    1.86355063193438
C        -1.95899429554901    3.18866935540559    0.79243505688527
C        -1.21272051090927    0.12884508187865    2.70714176095911
C        -1.65696644299527   -1.21255225107589    2.47165093846056
C        -2.06613995369372    1.22465769873540    2.29754360492147
C        -3.33130516729404   -2.57722616173420    1.33459390282549
C        -2.99304973663470   -1.44162046832919    2.09185504869276
C        -3.96803213131048   -2.55809445124108   -0.87394103294339
C        -3.80704909599914   -1.57424826066484   -1.90369931186727
C        -4.37134491539042   -2.17373622544583    0.40940902748741
C        -3.66315198820677    0.84371805857888   -2.22751885749690
C        -4.35857285199179   -0.32246051191398   -1.72470079943895
C        -3.28197006588632    2.95212275018488   -1.07251913439716
C        -3.26805881734872    2.98928947863589    0.39344091529107
C        -4.12522635011770    1.93322725589530   -1.44228168292901
C        -3.41729634540553    0.97491066942180    1.81535909496354
C        -3.88023731231674   -0.35270486256916    1.74117841828265
C        -4.73305982154069   -0.82761892937674    0.67554948159245
C        -4.95225840979399    0.01828033614898   -0.42724187147234
C        -4.03197959860015    1.89337155422573    0.89049241687274
C        -4.74697120475783    1.38317841203253   -0.22651433504552
