60
C60 Isomer 694 Symmetry C2
C        -3.70407355551566    2.52360772027622   -0.42577194366043
C        -3.83520956708193    1.41727133167488   -1.36443757418310
C        -4.29097783343294    0.33347791456856   -0.62816186872260
C        -3.80929089885003    1.99865367844892    0.92421609370076
C        -4.29427140021625    0.69934488774002    0.81371910762781
C        -2.55811999065921    2.22614542719897    1.60473110596145
C        -2.42734464562890    3.06209158539762   -0.57825662625478
C        -1.77040634650504    3.04469919638337    0.71191000661307
C        -2.59267553682877    1.27818908672009   -2.07026751485406
C        -1.75428676931136    2.37995151305478   -1.64613946597351
C        -1.96754815463388    0.02708444030583   -2.23187364477921
C        -3.68156818419429   -0.93032287211802   -0.75057190440329
C        -2.58481173767948   -1.14587317820480   -1.62604331708531
C        -3.68467163534692   -0.35103256808600    1.51454182080962
C        -3.59969808423016   -1.46894006435054    0.59176164141083
C        -1.90385103247536    1.18612274428732    2.31460210206021
C        -2.55941561626995   -0.10345389345603    2.37701214199523
C        -0.45773668272968    1.25363944894476    2.46175319000054
C        -0.40469202443113    3.02323528485640    0.74135367901354
C         0.23820921933002    2.33447151403972    1.83840917053738
C        -0.36256028902690    2.30023682548664   -1.61884865658605
C         0.29721904295437    2.99900110855004   -0.53823428032854
C        -0.52470264233489    0.03575393759628   -2.47946285764949
C         0.30648388425514    1.18795879151566   -2.21595299711632
C         0.10876741266174   -1.20782679897207   -2.54019236077091
C        -1.78182471844392   -2.32202115617874   -1.37781952572120
C        -0.51822346674733   -2.38292518958373   -2.01683445053965
C        -2.77231226129777   -2.52297677542256    0.86520861440267
C        -1.92562259378485   -3.06275048094326   -0.17375861872263
C        -1.76178412931601   -1.22631342136882    2.66866264517864
C        -2.03072994590261   -2.47759671183067    2.08034157732916
C         0.34471618450713    0.08800346269605    2.75333385781596
C        -0.31909994604250   -1.13777562040752    2.84403569527238
C         1.78683314953140    0.03766211728850    2.50686746362708
C         1.63139667507651    2.38043666759959    1.86449554740050
C         2.44239565937741    1.26882891192651    2.31511213734619
C         1.66306096132122    2.98731163205695   -0.50881487739504
C         2.32072362298697    3.01983306270199    0.78077370102456
C         1.75041152428806    1.08830750233795   -2.06644175110535
C         2.43020310089722    2.12863457260132   -1.38134385423214
C         1.54886239335740   -1.32774181433329   -2.36210185080410
C         2.37409594172874   -0.21814165441042   -2.09741485068629
C         0.52287247727348   -3.19165888208646   -1.48744365537074
C         1.78730624652202   -2.57076526086141   -1.74391724033216
C        -0.75530504727741   -3.58106530154517    0.49784730803527
C        -0.78204357649394   -3.13541782877272    1.83934439564530
C         0.27870600616608   -2.34015829961577    2.34953160409519
C         0.48557627004890   -3.60395045464561   -0.13565522826307
C         2.37510034181186   -1.16432953324876    1.92979437144245
C         2.52805538066468   -2.60504148569867   -0.52775290960564
C         1.54326642956861   -2.32591446190737    1.70956959573404
C         1.66855208707260   -3.09851287815106    0.52360055457816
C         3.49324585354586   -0.47245518866300   -1.22890333219037
C         3.47668439822478   -0.99692883987041    1.04966949836460
C         3.38143507453267   -1.56556748996613   -0.27931082781181
C         3.68790506434955    1.36033801107592    1.60667895340489
C         3.58374666006865    2.44675310946323    0.64161047949543
C         3.67562477024386    1.88691329498055   -0.69533311132537
C         4.11675821996821    0.24828524822029    0.89697228600678
C         4.12864426035396    0.57921407470408   -0.55339924945655
