76
C76 Isomer 13939 Symmetry C1
C         4.06941728705035    1.34994044309010    1.88080466725447
C         3.99009258069228    2.29716874380719    0.88709465963627
C         4.44763093487723    1.67858581717856   -0.36132938380753
C         4.48569155840644    0.08858897476257    1.27134205968037
C         4.65454779157310    0.29430704527749   -0.13701019268289
C         3.62256822656738   -0.88973357614351    1.74489805910908
C         2.93906715009637    1.11624614441237    2.71222502431151
C         2.73170304307633   -0.29391814447367    2.72852578836637
C         1.82626557257846    1.99738460598696    2.63545274406430
C         2.77865662417179    3.01987229160372    0.63879838854637
C         1.68747938161937    2.92253092305943    1.53458752112708
C         3.58522598262928    2.11929292340372   -1.37084166712342
C         2.57433021036254    2.97960690473498   -0.78188828229870
C         3.19993273992006    1.20562011638883   -2.34934714569636
C         4.11711860136932   -0.67247873237799   -1.02656452168983
C         3.54028012040491   -0.16896037690739   -2.22409016193724
C         3.15124612571723   -1.94457808185783    0.91945253494903
C         3.53705613440491   -1.88840348929782   -0.47243186404504
C         1.95849933965846   -2.64030687210096    1.35855330258379
C         1.47506093727364   -0.84865950844586    2.99736943136236
C         1.05723188749533   -2.07881859461277    2.36345151367050
C         0.64217145904362    1.46139179433299    3.14967076414030
C         0.50857990440601    0.07835063319225    3.42665468009602
C        -0.65408494226149    1.96347273851390    2.81144147682074
C         0.36784407735639    3.22234089744942    1.02536346518505
C        -0.83312094352110    2.85013866267577    1.73742501420473
C         1.29058852498753    3.03644941510633   -1.30080192094102
C         0.24159896687733    3.41479167704141   -0.38561609855062
C         1.88091463476804    1.29446857957191   -2.91130087821325
C         0.95089292085628    2.22583109682695   -2.45037845491651
C         2.50215965631027   -0.88826563491858   -2.92347749628797
C         1.44095941565332    0.00047747030610   -3.30046633510938
C         2.80480648867096   -2.70331632195157   -1.36891476920704
C         2.20678656821968   -2.17096033104412   -2.58381199151648
C         1.41144763632432   -3.56709566960202    0.45785842205562
C         1.88904395674027   -3.62121148983810   -0.87125017349854
C         0.00239338605157   -3.81545506509723    0.41520221309882
C        -0.32607571855748   -2.42132187509454    2.39972831673643
C        -0.84577314824827   -3.33705966492188    1.40513969303010
C        -0.87522612619467   -0.23923632592510    3.39743751542777
C        -1.60819890250538    0.95382632111394    3.09829823049381
C        -1.29861391441946   -1.50354031801392    2.98983150488828
C        -2.87293468192786    0.92291588512921    2.48792801601025
C        -2.15917200173769    2.91183490869368    1.14792129485717
C        -3.20429845855806    1.97421096504306    1.54363395216722
C        -1.02911508425731    3.50671204692910   -0.93440406030695
C        -2.22554645749832    3.47714612594835   -0.14693120475308
C        -0.41517708620671    1.95889068811128   -2.75648921312568
C        -1.31947658724684    2.89423142249652   -2.20938791997134
C         0.08424628597643   -0.38710058509085   -3.25149279442783
C        -0.88954045691654    0.64803758364002   -3.08989714792902
C         0.84178629632487   -2.64226532293031   -2.69810670220839
C         0.72978069739752   -3.66678143676026   -1.74691825074774
C        -0.41442724851807   -3.79347397776476   -0.96880990457603
C        -0.24978392131198   -1.75020439042257   -2.92608179740085
C        -1.59272182593339   -3.10995802866609   -1.36305633969386
C        -1.52464273652402   -2.03345423158216   -2.31991818240462
C        -2.20591930265496   -3.28385139141436    1.00672158378817
C        -2.56500577879210   -3.10634112726230   -0.35870568260026
C        -2.67953119176743   -1.54703644235437    2.64639141162210
C        -3.46078834378293   -0.35680683526473    2.42247116184294
C        -3.14571230499763   -2.53828367302615    1.75623435277411
C        -3.68924069866607   -2.20819652667319   -0.42934325197286
C        -4.38323936511462   -0.66300420626891    1.35081351082542
C        -4.13883750398690   -1.98590721249882    0.89527546511251
C        -4.23157465184449    1.66248223676719    0.61483529012889
C        -4.64734027711387    0.29443787061294    0.41117361219874
C        -3.27651578968409    3.14707122776224   -1.04441039554241
C        -2.68232874298117    2.66161192208075   -2.29009262478247
C        -4.24507322050856    2.24657688215459   -0.67579469817728
C        -2.26225699842444    0.28812293793463   -2.81272648954011
C        -2.56010161744554   -1.02207755393768   -2.29407637830725
C        -3.69083383774677   -1.18262714295598   -1.39415768443519
C        -4.44830387222343   -0.02587014372037   -1.00393345356144
C        -3.17744692912787    1.35621556462556   -2.56108912285750
C        -4.27312243670170    1.16937781345276   -1.67566200532269
