70
C70 Isomer 826 Symmetry C1
C         5.49658134784961   -1.02901061231480    0.51805762922268
C         4.66493731716087   -2.09912784942706    0.08616571767521
C         4.36106230530904   -1.92922900949806   -1.28227255799519
C         5.52171638258964   -0.05009275807031   -0.55870055209699
C         4.82310215042731   -0.59505643990213   -1.67011334923945
C         5.03930703926573    1.16900606675613   -0.04615717308789
C         4.82079587154303   -0.42374771613272    1.62878263381292
C         4.65790881597701    0.94167524307330    1.37197975908338
C         3.54385603519623   -2.24022399503293    0.99822534751076
C         3.61759197398708   -1.16777676872630    1.94278602086350
C         2.28841811196479   -2.64060491617065    0.52330467276077
C         3.04351297705144   -2.09565751596839   -1.73316433146015
C         2.04576738773151   -2.64616114802611   -0.89296306839311
C         3.71833025340735    0.06409260625605   -2.25404930578934
C         2.66523385752253   -0.91027976110104   -2.45436580206334
C         3.97091057742921    1.85470577551579   -0.65081888233812
C         3.27609699519868    1.33777856314941   -1.79883244432369
C         3.43004352906641    1.57744328037107    1.61936596295964
C         3.11684733979741    2.30161688543860    0.42733530774671
C         2.42469781370443   -0.50792570716742    2.34334000957099
C         2.32769956722213    0.91733510621082    2.25101723765583
C         1.15382675884070   -2.34801714668540    1.35762926535746
C         1.19801493369091   -1.23633174336779    2.22920597460037
C        -0.10183222365689   -2.86195017042475    0.93324283246976
C         0.70574286098419   -2.53317137596481   -1.34384211946438
C        -0.30554257180622   -3.05955920757902   -0.47131122483365
C         1.32772120969075   -0.55919244283224   -2.61105048112605
C         0.33353080620375   -1.54848551778098   -2.28995157508538
C         1.90029669131430    1.70271124331207   -1.99423729907395
C         0.92568051003016    0.80820969740180   -2.55808375859006
C         1.84500741345269    2.77579984587455    0.19938387117052
C         1.35156253489750    2.71937554970856   -1.14670151895716
C         1.03801901112129    1.53819970532237    2.15582274335862
C         0.90349875149238    2.66614968548693    1.28368403080793
C        -0.04695964659714   -0.59367372112382    2.56889922332793
C        -0.15827149537522    0.82940212512744    2.50726558215018
C        -1.23212989848341   -2.56419631473887    1.70364021780677
C        -1.21442858817464   -1.36613254412665    2.46924002109302
C        -2.57016871966104   -2.78814719686080    1.23460250002028
C        -1.59595669594454   -3.11751003305860   -0.96059561370946
C        -2.74602257370432   -3.18941969804737   -0.09149590334485
C        -1.04656570174949   -1.26892316754848   -2.51150283476501
C        -1.94471014565897   -2.28184289093970   -2.08835589533947
C        -0.49911134944163    1.11115155284849   -2.58345148819555
C        -1.52061582996231    0.07308003312958   -2.65968499690299
C         0.03529942358160    3.12136495713540   -1.34526404928168
C        -0.89427265128039    2.37546433947747   -2.15394281386725
C        -0.36507953561624    3.19437660070385    1.05864668592808
C        -0.69156389180463    3.62564963133014   -0.25263348426655
C        -1.48137896285977    1.40957604049300    2.30812500616709
C        -1.54538125302411    2.64865755121810    1.65525707906159
C        -2.53840919434452   -0.81310937771309    2.43923933401571
C        -3.41650300819084   -1.76216188154086    1.79498056951165
C        -2.68436282483305    0.58059459329289    2.31385699499152
C        -4.54267069140073   -1.31328740068678    1.08843151300523
C        -3.85110344308673   -2.66275627184341   -0.82414316002604
C        -3.31043285081996   -2.02746199129497   -2.03806700570937
C        -4.75645020428635   -1.80063062264208   -0.25559506718433
C        -2.91399148130072    0.36888057050855   -2.37889709789033
C        -3.81774221776343   -0.71719897973390   -2.15617767923481
C        -4.85915367218802   -0.63362392961562   -1.15626590495267
C        -2.22702831307326    2.60536027536255   -1.64224001160338
C        -2.09053105462727    3.38956384928704   -0.47682696780907
C        -2.64521124429145    2.93450636071725    0.74218732869798
C        -3.23917322909981    1.62797029234968   -1.72595882887655
C        -3.85556306172359    1.00822022540481    1.60555396700712
C        -4.74906681595735    0.08815962522179    1.04709350067670
C        -4.94250058013165    0.47845736705638   -0.35936148151076
C        -3.72134801769284    2.09568165740616    0.65380845348874
C        -4.16338491508914    1.62946092173992   -0.63508126518860
