68
C68 Isomer 4350 Symmetry C1
C        -4.59681892446885   -0.26462699816542   -0.60321588581935
C        -4.15682930019295   -1.55830807409499   -0.35733106652751
C        -3.30782360300877   -1.94081471514029   -1.48159303463524
C        -3.86606929884162    0.23743335491999   -1.78946825264446
C        -2.98377154776227   -0.77267943836720   -2.23583867645944
C        -3.37089295478664    1.51277500043360   -1.47916825469559
C        -4.47274802528322    0.67772685154055    0.41242052979468
C        -3.85105443153613    1.86717103565522   -0.17848958748674
C        -3.77257478435724    0.38550454621079    1.61361776614604
C        -3.44707648613851   -1.87720749402380    0.83787139127493
C        -3.16241492548555   -0.89489865712125    1.82759263117705
C        -2.27676510900557   -2.71907049641017   -0.99330160239505
C        -2.38760847645217   -2.75824063704266    0.44851365371391
C        -0.99954603548405   -2.65959110683787   -1.61794733738365
C        -1.61345578622696   -0.46865927667353   -2.55053518117577
C        -0.61946136865268   -1.50345891658496   -2.39084547992178
C        -2.04844660211528    1.87452194649484   -1.83603056353453
C        -1.19836603760203    0.90571487807807   -2.48413467726648
C        -1.44450588427931    2.90717288144069   -1.03647502985787
C        -3.01542490029466    2.46131893027611    0.75669773787940
C        -3.02170701643087    1.58715067217889    1.91441023187857
C        -1.82480025239123    3.10559236653448    0.33459821219188
C        -1.88042667655830    1.50891977063211    2.65269539207113
C        -1.86203098052146   -0.96476969464824    2.50591522146472
C        -1.32920762496238    0.23485023030769    3.01596764627846
C        -1.23397685722236   -2.94838443372541    1.20726396883924
C        -0.90296858210026   -2.02198887202463    2.26456198895764
C        -0.04019258228431   -3.38228782338921   -0.91952249973173
C        -0.19926985202739   -3.59849096399461    0.49057341406836
C         1.35272259431260   -3.23279294960360   -1.21207616782432
C         0.78865581387620   -1.22413422838112   -2.55203676073526
C         1.77715231234099   -2.16974365713334   -2.05291364898343
C         0.20163054685586    1.19771645063533   -2.66422403252569
C         1.17601705137652    0.13384134976846   -2.81250143261140
C        -0.14560277472384    3.28451344642851   -1.41374067606736
C         0.64649377551592    2.48266718973113   -2.31118134808985
C         0.70794370479612    3.91779159066066   -0.49944481997800
C        -0.78210686856720    3.29549941379939    1.31812280848304
C        -0.80257200809546    2.44451750152439    2.44756746211567
C         0.49445569063975    3.71976384189112    0.88395851262018
C         0.06289597243243    0.44946309483021    3.20546447003080
C         0.38501739663482    1.81886073886731    2.89491540131724
C         0.49362209416714   -1.86159834181009    2.60808076309989
C         0.99571978749690   -0.58017340246612    3.03511896334209
C         1.09254754067116   -3.63534858506272    1.02598775112294
C         2.06583018827045   -3.57161920029493   -0.05084340458819
C         1.46678876218971   -2.73568482320868    2.02851245443560
C         3.16902211204454   -2.81249646397160    0.38807862727609
C         2.82534114045161   -2.30241816973803    1.70963780947523
C         3.11016318541465   -1.74413473394912   -1.80501121161707
C         3.78237597052142   -1.99158998758659   -0.53983250360172
C         2.54943528689370    0.48320055723135   -2.68071370454032
C         3.47969211961379   -0.45400997270219   -2.21134955225709
C         2.02909891669295    2.74802295511959   -1.99353880115153
C         2.06729178230690    3.56294500386779   -0.82168351471860
C         2.95885920754881    1.75441745921704   -2.12485427004748
C         1.71723573049878    3.18833453588196    1.41429547023116
C         1.65744061510027    2.17241358735150    2.38196019279379
C         2.69454913841819    3.09767904341741    0.33906830262061
C         2.33013015945150   -0.17123409814674    2.73984718167026
C         3.24104685597994   -1.04429262594413    2.05156844002246
C         2.64317898078796    1.14932740254785    2.34944383855283
C         4.37044002574114   -0.73548394363383   -0.10763793455434
C         4.29798437174743    0.16771152872149   -1.18853035988701
C         3.90968122294135    1.51016262402799   -1.05082311059690
C         3.64221535741123    2.03289953527485    0.25442063379811
C         4.06550287241169   -0.24613234018171    1.16684204131751
C         3.68133827430509    1.11576380656042    1.33824347384927
