64
C64 Isomer 1485 Symmetry C1
C         4.44543831799028   -0.42734748819876   -1.26592593074897
C         4.49268146663724   -0.07714716478221    0.12397995235419
C         3.84624609305365   -1.09099826252620    0.88639226833559
C         3.73871369336149   -1.64674639924853   -1.41181906564608
C         3.48502833869425   -2.12501706140955   -0.08100225518003
C         2.62424347213575   -1.42282851447148   -2.26985929059358
C         3.72542579447955    0.61297156203739   -1.93846482983061
C         2.61367103784938    0.01610159567457   -2.56757036619497
C         4.09256065036658    1.27960468121398    0.24098757070427
C         3.52310883006483    1.70326171008433   -1.04389151243308
C         3.42894791372537    1.62710357219560    1.40861705470906
C         2.91817677759209   -0.73656506706649    1.91366902740718
C         2.81730375010230    0.62805419595968    2.24831573785748
C         1.74079103246856   -1.56053316473427    2.16367407395770
C         2.32831019109895   -2.82142338211586    0.11855067963405
C         1.58547386245200   -2.68721542756250    1.34987689485584
C         1.41192377792519   -2.10377966139408   -2.05321122442451
C         1.35726830221698   -2.98305917533893   -0.93546659624088
C         0.17278959822364   -1.51529167536113   -2.49693435465082
C         1.38714790284949    0.68759915782649   -2.61779543649621
C         0.22486962397039   -0.13254027372959   -2.88254927738197
C         2.30240948546663    2.41208296243672   -1.09310622256998
C         1.23467120651049    1.96414100577307   -1.96536046914852
C         2.53615858373955    2.72560368136731    1.32813909044221
C         1.92084547368162    3.07218968314150    0.12017344451344
C         1.56771752847415    1.18966261346255    2.73934001176459
C         1.48481210902944    2.51354258446848    2.29394627308658
C         0.52238144051961   -0.99851864826981    2.76358834499233
C         0.37508179503370    0.42868748297201    2.92019171149917
C        -0.65958562392978   -1.74871252586635    2.71969894176618
C         0.30354672528023   -3.24859546899307    1.08603134452820
C         0.11757963427891   -3.32119964995029   -0.34063218157616
C        -0.75592028939522   -2.93112917336726    1.90267708076268
C        -1.08398414485366   -2.08859317056489   -2.07549872671632
C        -1.11977833232708   -2.98435996145322   -0.93435254905065
C        -2.27491666897453   -1.38233940468364   -2.36396866845343
C        -0.97052257000640    0.56960068561284   -3.04163027288786
C        -2.19385749811277   -0.11193126562458   -2.94834877441519
C        -0.10371129701318    2.49085386229863   -1.79113695648824
C        -1.15078945713377    1.88837693736992   -2.49204942131233
C         0.53496890587352    3.35772497553291    0.40371362680095
C         0.27535442310343    2.99274972879354    1.76298272702732
C        -0.45800517979305    3.20446004695130   -0.57084699187934
C        -0.90798458409410    1.07658476816164    2.75327008848737
C        -0.93386110261548    2.38122650602195    2.13212826920089
C        -1.96188991496376   -1.12627106425274    2.70684199538869
C        -2.10885585214913    0.27206052443732    2.64999454006562
C        -2.04559811079939   -2.98074882793756    1.33198802421660
C        -2.25014125296339   -2.95441942594559   -0.06915001046241
C        -2.83136147555578   -1.94939128637052    1.93372555258622
C        -3.41739010194663   -1.33230264497767   -1.45840686894021
C        -3.37519293917451   -2.06933695305844   -0.30477188453734
C        -3.72320377038717   -1.43319149987997    0.96497147178918
C        -3.19179198912998    0.77010371103783   -2.38471604432688
C        -2.54554710318123    1.99083576158111   -2.08260407362261
C        -3.94629678194217    0.03026698901962   -1.44324117977871
C        -1.77662780491195    3.14706724625707   -0.07302294896980
C        -2.00466592497531    2.75148379665401    1.28861835806361
C        -2.86159920713944    2.60526535989930   -0.86605550997742
C        -3.25544350029828    0.75616057201210    1.93358817639857
C        -4.01720499816454   -0.08674606798936    1.01840219771124
C        -4.24588889201115    0.64476090032664   -0.21675161754595
C        -3.20284626659495    2.01440543719753    1.32324756929765
C        -3.77918510371148    1.96368545934559   -0.00418058772359
