78
C78 Isomer 5130 Symmetry C1
C         4.34197808659143   -2.97214503129762    0.72897100414423
C         5.04296582992569   -1.75980798508267    0.40831476099321
C         4.72401691666883   -1.37572421051525   -0.93296071572046
C         3.50897239349253   -3.28453555113504   -0.34957919422811
C         3.73420794772258   -2.32812335645603   -1.40013276690147
C         2.16707594275948   -3.48742360909556    0.13354291501658
C         3.47810545515556   -2.71511811740077    1.86419552455127
C         2.16060434312016   -3.12270876696059    1.53187131263815
C         4.75103676829538   -0.83845842790708    1.44238547194833
C         3.69234133432076   -1.39362850079653    2.29904222897153
C         4.69587807657266    0.50550470078329    1.13747865837972
C         4.60184228874075    0.00449091432926   -1.25391433947735
C         4.75436123384761    0.96527382259472   -0.21134030791557
C         3.66399635554819    0.35363661598410   -2.25321755585091
C         2.63376221120413   -1.90539310608510   -2.15808139325942
C         2.72129008271151   -0.60617425953447   -2.71523196564050
C         1.07733895015064   -3.14696234528540   -0.65803857650437
C         1.30112873934230   -2.41522790597058   -1.88348945501816
C        -0.18462505755493   -3.00411630675871    0.02370639902161
C         1.06803276958342   -2.41026818605334    2.04260219977779
C        -0.18826228863387   -2.64064385163246    1.38560321060448
C         2.60004247854577   -0.58163806996741    2.70108241992959
C         1.29258924634299   -1.16653674314931    2.71420535764223
C         3.81229892871846    1.37440805113864    1.86924282607825
C         2.71613882748283    0.85616273297834    2.57821332191404
C         4.10921913597833    2.25358246166181   -0.25448827699502
C         3.67183100181827    2.55148632557397    1.07713420776123
C         3.04237990199849    1.65634740841523   -2.32537389062013
C         3.29929851519816    2.65452155555209   -1.34551322528113
C         1.55483299244560    0.09575190917946   -3.09825655140927
C         1.74938852113102    1.50758053543859   -2.86846735641991
C         0.17206724806541   -1.77352982294341   -2.42702852052117
C         0.29777657994747   -0.46496251658913   -3.01785627833961
C        -1.36094557633896   -2.78260481720593   -0.74361510831773
C        -1.14123493562247   -2.20078465839276   -2.02445542207146
C        -2.63724591445594   -2.69086706250448   -0.07729327462787
C        -1.36634675110792   -2.08692929909192    1.95722251434867
C        -2.63823676351828   -2.34271849723874    1.33230635877865
C         0.13933549138121   -0.35233186698246    2.93735247959700
C        -1.15351561812336   -0.97428226004544    2.82929703732839
C         1.52683381199281    1.68119999404642    2.69177644364294
C         0.25379339669728    1.06472879111339    2.93223177583303
C         2.60097766998191    3.40729857711921    1.30394179908009
C         1.53320820222393    2.98331740750075    2.16761630542117
C         2.24987742097573    3.58826743821370   -1.10881748655868
C         2.04386541065547    4.08605569426375    0.19926219449441
C         0.65294951350327    2.33184363954226   -2.50944196353086
C         0.94103074667831    3.42770734897246   -1.69102966844971
C        -0.82644371429671    0.44405169720291   -2.99138725935140
C        -0.68367066028026    1.79350888238650   -2.53386117560876
C        -2.22549537426373   -1.53254623218064   -2.62303118547723
C        -2.07655286693240   -0.12625111991487   -2.95819571954210
C        -3.75733713761696   -2.33220097853076   -0.87914548581442
C        -3.50955164307936   -1.72258047653170   -2.13290004285614
C        -4.84710071017095   -1.57941961784746   -0.30789280914060
C        -3.77672210381685   -1.67715253751912    1.87681936006001
C        -4.86164873841733   -1.27059378489045    1.01652722038096
C        -2.27767484207515   -0.16945189441329    3.10127421974849
C        -3.55613183505892   -0.58575314794292    2.74088190757761
C        -0.94010898029798    1.82514623124345    2.66389367292660
C        -2.17062135125387    1.23814299233131    2.83743445891321
C         0.31611659880148    3.56812901315932    1.63063665885902
C         0.62827655396870    4.22093635598301    0.42867142481012
C        -0.06465810820822    3.82991410103746   -0.73313939177190
C        -0.91591380499294    2.94004747718172    1.76040010986774
C        -1.72126246936035    2.30633402442830   -1.69032719077780
C        -1.31232232751717    3.19682789130920   -0.63470989449360
C        -1.85531529974369    2.94516478592223    0.66849914770109
C        -3.21723395730868    0.57247275514721   -2.46206430570510
C        -4.19320809599990   -0.41974010462494   -2.16587795595615
C        -4.99143766267877   -0.31020600338770   -1.06440113651677
C        -3.00128735349950    1.66219025818394   -1.58598722621932
C        -5.02685745821298    0.20103653899907    1.13481026989348
C        -4.25929801939300    0.59153420677270    2.19756323213288
C        -3.31812892475024    1.64187796927358    2.06811119318404
C        -3.09426483836796    2.24419444614403    0.80549145100663
C        -4.84338147123010    0.79305605396644   -0.15891906611110
C        -3.79602126610678    1.74280942478824   -0.36214991595719
