76
C76 Isomer 913 Symmetry C1
C         5.63257687799143    1.36433813775977   -0.28591088755811
C         5.08109746187713    2.34148016348116    0.52021391674616
C         4.55887921939971    1.73659579724424    1.72375307135672
C         5.46854654027488    0.07966014574528    0.39776135291000
C         4.76170085308796    0.29498235033121    1.62490809157247
C         4.87053942922034   -0.78897968892103   -0.52060737197704
C         4.84878649357868    1.32020073689259   -1.50626845468409
C         4.44737856553500    0.00621884651920   -1.69331185747769
C         3.96841736004985    2.98727491499259   -0.18760438455920
C         3.78539570420219    2.32394260617664   -1.42824326343308
C         3.25587796397258    2.22272905272171    1.88963832578502
C         2.89756846506150    3.04153389332248    0.72841629128815
C         2.25446034538689    1.41625441684502    2.47095229080436
C         3.71742368708332   -0.57065548641245    2.00621318259277
C         2.56946160047688    0.02957749749435    2.67134540285282
C         4.03686365375182   -1.82551871589423   -0.06955758074995
C         3.47976683378385   -1.78582518221386    1.25036431274245
C         3.27990985722964   -2.43614744334564   -1.11154738969714
C         3.20124357132284   -0.29915252291091   -2.32377246606043
C         2.80218874457835   -1.62497098282280   -2.23017046731459
C         2.47273183550451    1.99314426701766   -1.83791529950743
C         2.18180361717811    0.71532012249845   -2.45718778458464
C         1.59219464329064    2.97913209761952    0.25652688737563
C         1.39338027885883    2.58314148486574   -1.10245756058541
C         0.88938495357887    1.83072322735621    2.30895974592664
C         0.55030542250284    2.66684802027520    1.20663809894027
C        -0.17468871105458    1.03119337504065    2.81946425591299
C         1.48786442643910   -0.78643969610146    2.98490740066221
C         0.18719538804103   -0.27342596692970    3.20468377860657
C         2.29623118561411   -2.58787283328023    1.51279220797453
C         1.36730112548236   -2.12626975882748    2.46512312021877
C         2.29497506652508   -3.35200278100108   -0.81045447992735
C         1.74603742737878   -3.42688349378185    0.50426350765603
C         1.45818644328826   -2.03008823031876   -2.51748247042451
C         1.20239139844225   -3.19351426119164   -1.74946704760555
C         0.83115183618646    0.30602042524879   -2.63968998222660
C         0.43658432944908   -1.08179387244905   -2.69335713206580
C         0.06941538219663    2.30548854101899   -1.48654402163819
C        -0.21847503938118    1.23350577044576   -2.35703567139981
C        -0.78036261167008    2.77506696332587    0.77777408422855
C        -0.98218899368588    2.82020348137799   -0.64722723023780
C        -1.54679680406797    1.30571395845806    2.51904515022195
C        -1.88381561212083    2.31022279443318    1.56890938734918
C        -2.53336435651995    0.27507550206143    2.74867458838464
C        -0.74451770714245   -1.33751831317231    2.98150671443408
C        -0.01769549410920   -2.43715704763211    2.41424304313206
C        -2.07098848773127   -1.09942697046699    2.71585482670686
C         0.33044023238948   -3.55267324804378    0.34064006541159
C         0.00878633746059   -3.33126588541050   -1.05621415766941
C        -0.57819883143017   -3.07152072040541    1.28547788800406
C        -0.91155813327821   -1.46068828852816   -2.31742717371501
C        -1.10770513447188   -2.55800137485854   -1.43326983432640
C        -1.58559940531237    0.85793854581141   -2.53938974740866
C        -1.97896673431741   -0.51059961097942   -2.42861992800515
C        -2.25732707198213    2.75778378347824   -1.13991625765210
C        -2.54289239672427    1.84293921375489   -2.22035255470811
C        -3.24184345656771    2.47073344237814    1.08405023906926
C        -3.41869151739043    2.83687973157224   -0.28484196963064
C        -3.85779153380285    0.52309426933426    2.42428201707902
C        -4.27575224029364    1.69221523749235    1.67971361202265
C        -4.69984024135240   -0.58124234802486    2.01705547945586
C        -2.73567049866622   -2.00498739949643    1.79498751678007
C        -1.90479651441221   -2.70956688942411    0.86546487475422
C        -2.20398938410902   -2.50971498985927   -0.51001799485237
C        -4.02873250395152   -1.71214550736990    1.40866674939739
C        -3.30048877731036   -0.84944199033987   -1.97380712664065
C        -3.40303390602395   -1.84528072906695   -0.92544199707193
C        -4.43426177012510   -1.75329022009921    0.03359371387297
C        -3.89019700579491    1.51031013413449   -2.12296810191898
C        -4.48718317206584    2.28454627524529   -1.03162424561347
C        -4.31607045453808    0.16203660728218   -2.01352420423031
C        -5.45218644021387    1.31446336438288    0.94595671298593
C        -5.68883242498948   -0.11196159876425    1.16520320228152
C        -5.50660220546743   -0.79617250025977   -0.10459619997254
C        -5.47231561063701    1.50211208204945   -0.44101162206771
C        -5.41702337495999    0.15955527111847   -1.10018918829855
