62
C62 Isomer 2302 Symmetry C1
C         4.18257979848694   -0.33969687746753   -0.52769206228130
C         3.83965847238433    0.59830069043189   -1.47886882221682
C         3.56936879112042    1.86754888849571   -0.80065822301770
C         4.06161181861032    0.28815438517570    0.79577531776006
C         3.65943841605351    1.63481122347845    0.60854669548549
C         3.33256175368155   -0.58593139721578    1.60734057813031
C         3.55127850002237   -1.60203692699140   -0.50945681335219
C         3.23661353000157   -1.83827947442495    0.88541936475383
C         2.58975383405533   -1.93913823653009   -1.51274339712017
C         2.78626627752144    0.33780733469224   -2.40309452678373
C         2.12553903109760   -0.91284166792143   -2.43389223388803
C         2.43129919614088    2.43971552112443   -1.36695744554600
C         2.03226624994484    1.56856321216183   -2.45736665810069
C         1.41992268650434    3.06095339647268   -0.56358396216746
C         2.62070072502509    2.11212129981624    1.40156675964817
C         1.61365418322699    2.96835833877189    0.83082005164886
C         2.21284385506638   -0.13336805550816    2.38851532860424
C         1.95908041776180    1.24791207653151    2.34228576966450
C         1.09057764026437   -1.03543360886005    2.63356563610493
C         2.25052206608992   -2.72053854474707    1.22119506028622
C         1.19776963852103   -2.35093245392475    2.15368155044618
C         1.67929989177918   -2.96211564982570   -1.14942662033791
C         1.66861025245149   -3.46978010237118    0.16102411381653
C         0.31134101194273   -3.01321482490013   -1.64446992234116
C         0.73604310679716   -0.93861390268882   -2.89277181263417
C        -0.16670114347983   -2.02966145025464   -2.52897790006981
C         0.72922963789271    1.52962738565800   -2.84694913024308
C         0.12742661566808    0.28373661227043   -3.20371144084048
C         0.05246673492039    3.11544445508832   -1.07560164732556
C        -0.27118070213764    2.38134842450773   -2.24741733319767
C        -1.01943934861525    3.32014020489771   -0.18515250390725
C         0.47725921584252    2.89639819892384    1.69883131005916
C         0.63089792217032    1.76926418663572    2.55946606184042
C        -0.77893042979184    3.25520007794250    1.22873008996864
C        -0.24821713677842   -0.49490877185962    2.87418033119874
C        -0.46097750359838    0.93410650119962    2.87344252704686
C        -1.37051620999906   -1.30053990011191    2.58157448461704
C         0.03206249693389   -3.08714915679733    1.73374848463920
C         0.30717394161656   -3.74268992910089    0.51706929523536
C        -0.52891848432240   -3.53406730644709   -0.60947253028638
C        -1.23826659437144   -2.54504293316466    1.90729779865925
C        -1.85941154156888   -3.07843329151255   -0.42086568799726
C        -2.24479221337211   -2.66944784450788    0.88817780057196
C        -1.57058053326932   -1.83548949615437   -2.54244834932282
C        -2.42009416692468   -2.37732869407674   -1.51907203857893
C        -1.29367165546737    0.50501541273929   -3.10188666232487
C        -1.53737255533195    1.77849749288852   -2.46675511679405
C        -2.14464029292043   -0.55546318180456   -2.90161551824157
C        -2.34684403622534    2.77888357610953   -0.43312667902531
C        -2.62250109779629    1.95118688908224   -1.55997595097238
C        -1.89296744346269    2.63726033542166    1.82931972001386
C        -1.76232429790917    1.45761585576733    2.56667302165892
C        -2.91657071699473    2.44861630256696    0.80987154674669
C        -2.64062253170023   -0.75523405253051    2.15386401207420
C        -3.16725246681393   -1.58955352954428    1.08806361441730
C        -2.85874585702190    0.59351003850952    2.15493410716164
C        -3.55721649803792    1.21242599590055    1.03669019708852
C        -3.48674320399442   -1.46468620840380   -1.29151806483926
C        -3.31835271483286   -0.33311828985925   -2.13046166592613
C        -3.52278457360857    0.86074773388209   -1.38057214882503
C        -3.82061421321117   -0.99868077207035    0.01369220501955
C        -3.93786754603786    0.44514448443333   -0.05979996586143
