80
C80 Isomer 6720 Symmetry C1
C         5.27862941142464    1.47141604977471   -0.73856249004014
C         5.29862975436360    0.20351005630416   -0.09554090767295
C         4.70139676284435    0.31439145174031    1.19735633774571
C         4.66258630825866    2.41738710742636    0.12634821356006
C         4.37549082462615    1.72524616721254    1.35787671180129
C         3.55818453905156    2.97625500346678   -0.56953653082461
C         4.46402249194522    1.32473205657752   -1.91674025075580
C         3.40870873561963    2.25503339131233   -1.82993724732610
C         4.79095351699756   -0.75591451540007   -1.02858767437451
C         4.14210280845841   -0.04438421243268   -2.12226525139256
C         4.13786789671548   -1.83163420462172   -0.49987676662019
C         3.80523556245141   -0.68859530714213    1.66475308743465
C         3.71224352545845   -1.85997615343305    0.88411183528012
C         2.60430100303503   -0.34869187708041    2.41241198806829
C         3.21793804232639    2.03792056107434    2.02926469454319
C         2.41393769948199    1.02009600519701    2.65647001099148
C         2.40003606507988    3.36034679521035    0.12930352193480
C         2.30867128713672    3.03341209980161    1.51209392696611
C         1.18129378116775    3.43267639406663   -0.59573540695857
C         2.12993580736201    1.90579855649127   -2.28960084109360
C         1.05617179518305    2.72402073558697   -1.83285185887509
C         2.84860257044279   -0.42591262985598   -2.55388168408602
C         1.82515795123060    0.57028864521992   -2.74334996445573
C         3.13029675265258   -2.47469193786736   -1.27814895411275
C         2.41421442424616   -1.77027263885451   -2.26375261716194
C         2.59095301785447   -2.72054800331264    0.96824152086570
C         2.41387995028457   -3.28237916062452   -0.34616643014752
C         1.42764417184760   -1.19617109263594    2.44215033743341
C         1.43952690870070   -2.46092129093605    1.75009062609195
C         0.14553786432637   -0.66077555316250    2.79863251232482
C         1.10862135884595    1.55211235849206    2.79730464301253
C         1.04152299333484    2.79686024731577    2.09246266355395
C        -0.02192049405179    0.76315778721152    2.91550230003423
C        -0.01970306559131    3.68805310736063    0.14429949193992
C        -0.15326230346673    3.21534846950392    1.48992469243476
C        -1.17976613013448    3.84325852983690   -0.58192656974129
C        -0.22108318452249    2.47948498414890   -2.38478376985175
C        -1.23420900364360    3.36377704402725   -1.94568352872613
C         0.44698785244659    0.18297288798704   -2.91847814118649
C        -0.57609655239801    1.19063727082675   -2.90140376520789
C         1.06035732491182   -2.17511280636506   -2.54347377872325
C         0.05342649506832   -1.20246098256693   -2.87975128590544
C         1.24106460890123   -3.83168465207432   -0.72037490892151
C         0.64857649920053   -3.40607034721085   -1.97189462482062
C         0.21530511245960   -3.16232379357814    1.42821303276652
C         0.20114400755701   -3.99273807476805    0.26308744634546
C        -1.04558971876306   -1.45173397371787    2.66693246768299
C        -1.04835873123961   -2.68005813080569    1.90936398095583
C        -2.27288532211713   -0.79112795069294    2.91008720253407
C        -1.28852338238181    1.43362049164346    2.69920711675762
C        -1.39171378481695    2.64596342077989    1.91826687997866
C        -2.41082338514415    0.64934916706831    2.86305392840161
C        -2.47127782961987    3.69946337442189    0.00413147092317
C        -2.61099909941053    2.95236299823638    1.20593988836779
C        -2.55593282578034    3.15119231740449   -2.27560525447724
C        -3.36040760036539    3.48445622209432   -1.09540227559862
C        -1.98154853919061    0.84450226835781   -2.94732220964393
C        -2.95253316751932    1.86831190349379   -2.76010372698021
C        -1.35139502797453   -1.52284733211155   -2.71680336557037
C        -2.36766342874590   -0.50691341485551   -2.64626148364698
C        -0.70470977533601   -3.71265174970051   -1.85429436181818
C        -0.96704866617709   -4.15219814584928   -0.48836990535819
C        -1.70218520706687   -2.79401712011272   -2.19735038745757
C        -2.26709722268740   -3.03958991542908    1.21692172731303
C        -2.18318517182861   -3.61368935687434   -0.07363712914233
C        -2.73407942556159   -2.90280743937729   -1.19245247313301
C        -3.48101822779798   -1.30295828663298    2.40716120943146
C        -3.44090774593209   -2.27490099047946    1.38752729071695
C        -3.66299571317240    0.99477734107188    2.24052496999106
C        -3.76630212860149    2.08051534535593    1.33326874431809
C        -4.33425245061791   -0.21784227541679    2.00055520028047
C        -4.35871988272062    2.55007162429507   -1.00812342550604
C        -4.17344630313664    1.57855647690719   -2.10043068563467
C        -4.60803469003457    1.84812205737708    0.19837902622430
C        -3.59236786882918   -0.76395317684083   -1.91648738800598
C        -3.66835116513097   -1.89240041951660   -1.02346489511871
C        -4.20985161084282   -1.77723211314172    0.28396547791043
C        -4.80693061327830   -0.53147539015748    0.69662289021340
C        -4.43048039437749    0.32282007390523   -1.57782412366061
C        -4.91750064329206    0.49737757004923   -0.20557072739479
