76
C76 Isomer 1142 Symmetry C1
C        -5.30102399904992    0.60467617797984   -0.55849938768357
C        -5.32619320848685   -0.77248684861450   -0.56380367006748
C        -4.69176685816631   -1.23904609503772    0.66615634079253
C        -4.67519448879979    1.05149678636831    0.67881957147639
C        -4.22191722618929   -0.09651821305545    1.42134604560876
C        -3.70871507161050    1.98653876902005    0.31253178412637
C        -4.47010082962641    1.06457177452724   -1.67116705239360
C        -3.55917757513571    1.99496252669499   -1.14986206238096
C        -4.51376366119747   -1.22914305345629   -1.69121008682962
C        -3.92911937664590   -0.07844162175953   -2.34733807151434
C        -3.73307304556867   -2.17370897481814    0.29050392910552
C        -3.63038738423794   -2.17670121213691   -1.18302953307931
C        -2.54158512576573   -2.32461334153483    1.02883057829094
C        -2.91917372388037   -0.10675909287607    1.98112391082654
C        -2.13197728449395   -1.31765668705569    1.94817429213050
C        -2.54254635275339    2.12124460804720    1.07609053470776
C        -2.14352634938212    1.10651424560448    1.98573755430935
C        -1.55901656110057    2.96782251594217    0.47627015768129
C        -2.26934664245969    2.12197088529359   -1.69397490856779
C        -1.35471795055198    2.92368305583581   -0.93173435601896
C        -2.55968441218874   -0.09214113122289   -2.71217382996910
C        -1.76259021495584    1.10424351664258   -2.56324587494536
C        -2.36111165300765   -2.34192949220094   -1.76090378501207
C        -1.83224920657171   -1.32873621961883   -2.61710030525333
C        -1.56741855566407   -3.17444888982016    0.41197878489424
C        -1.47149551189388   -3.18255119367118   -1.02454368684372
C        -0.41630739489154   -3.42588416646791    1.13908568712366
C        -0.75128796157029   -1.31802203075110    2.37590188456490
C        -0.01113971583302   -2.48280823520256    2.14627079856154
C        -0.76366712646111    1.10978566511584    2.42315220316431
C        -0.02114047599908   -0.10136181903738    2.62822001194852
C        -0.48175177041172    3.27820238764895    1.30488656942410
C        -0.04219662863169    2.29244258178062    2.26753455876419
C         0.63456102890502    3.89248993892610    0.75062649297095
C        -0.06412980480024    3.18112554207624   -1.46982359574695
C         0.87132845862994    3.84437298107975   -0.64132949669490
C        -0.35720783664565    1.09272741391245   -2.82920093784038
C         0.41812087688946    2.26529045778267   -2.48641696378488
C        -0.43126040712420   -1.34967369063914   -2.89616458751474
C         0.31459716808161   -0.14369466915600   -3.11072030779542
C        -0.23085650678450   -3.43238592367300   -1.59554416026582
C         0.29077792566721   -2.51103464810500   -2.56964568283400
C         0.76442295664566   -3.96014486509135    0.54277946434837
C         0.86060366223057   -3.95368774698929   -0.84636555563276
C         1.40984161287246   -2.51619358555096    2.23379665468384
C         1.88439425551365   -3.52399879078828    1.32214772595056
C         1.41952155474684   -0.08822406980801    2.60944278035722
C         2.13624374257638   -1.32765380914952    2.46724525555253
C         1.38988675069259    2.31713460552718    2.26776341052516
C         1.80912891125861    3.38223649507793    1.41813764075389
C         2.14159195463920    1.13848975608787    2.32688677534031
C         2.28634274500755    3.62778483343271   -0.79793233447297
C         2.84651789332872    3.24895763987512    0.49335815300642
C         1.78669211238607    2.23413876561619   -2.74599951142880
C         2.72661977386546    2.97698183823482   -1.92522889610932
C         1.75090517928014   -0.21485297585909   -3.15965123851907
C         2.44334922847837    1.01200384475932   -3.12378881233714
C         1.70752231362575   -2.54403589264999   -2.49403929031517
C         2.07542985087758   -3.50312921174377   -1.47524497311797
C         2.48178445476817   -1.40825262888519   -2.77229941638168
C         3.12484351184134   -3.37666204399268    0.71586966369023
C         3.21732290941958   -3.32581491009979   -0.73409010262602
C         3.47993393773309   -1.30166121675198    1.99885322012548
C         3.96514493814127   -2.35992939543761    1.20480335683797
C         3.42673790095106    1.14138493968432    1.62912557015656
C         3.74619763276596    2.16355493666607    0.63214410140032
C         4.08492811068870   -0.08135347599155    1.51810010280798
C         3.91171677290352    2.21394120774410   -1.81315635610602
C         3.77280981207199    1.05416934529649   -2.64288119392807
C         4.42309685499903    1.78647291884939   -0.55787207366712
C         3.78698757682993   -1.32598849047599   -2.13518745629995
C         4.11833824598561   -2.25600685714653   -1.09989840181325
C         4.70030659304479   -1.78546644804958    0.09225541255902
C         4.87031105404588   -0.41076374706839    0.34618214173230
C         4.38226395316130   -0.05254080277138   -2.01298668139594
C         4.87369368298745    0.43869525708171   -0.74307848311302
