70
C70 Isomer 5060 Symmetry C1
C         4.53514877492812   -1.84071909639900   -0.05488432157352
C         4.29561255404030   -1.50101059258713   -1.39949606782460
C         4.41797759045640   -0.06475524948698   -1.49758497781166
C         4.57534783546779   -0.59056890266605    0.72658522776273
C         4.49061043012067    0.48424458664511   -0.17661215736005
C         3.64105472712885   -0.70538486437031    1.80328817791426
C         3.66654203430939   -2.71019360350112    0.58336788131785
C         3.19976323291014   -2.04975194324340    1.82012720044984
C         2.52336151884740   -3.21220667188047   -0.07922186893988
C         3.07580558555389   -1.87358501455659   -2.03414741676446
C         2.17206504690271   -2.74876033458988   -1.38742814998158
C         3.41293389536965    0.39447826291670   -2.37176031058099
C         2.53181035506185   -0.69844304954508   -2.68755689752188
C         2.87864307991460    1.64842948153078   -2.14157511790372
C         3.71462676249544    1.62604951140355    0.17093689443028
C         3.15973023935700    2.34309470017390   -0.90807688160067
C         2.71041696483394    0.33030687751955    2.09275296695628
C         2.93981202313962    1.58800552122729    1.40924050831894
C         1.36754949669271   -0.01158184020828    2.52526403747724
C         1.85750593396993   -2.34914453718735    2.00447629436759
C         1.48002325538234   -3.20807592800318    0.90879532525892
C         0.92254032724127   -1.37082921648775    2.44044409539986
C         0.16198420180397   -3.32937779853249    0.56306905104753
C         0.77393401019050   -2.62373695134672   -1.70479729882550
C        -0.15897097395160   -3.27296816499900   -0.83541364765092
C         1.15631621050350   -0.47268427090501   -2.83684024961838
C         0.26012469470931   -1.54643271851237   -2.49771241921810
C         1.53262070439691    1.92945132573809   -2.50583888840582
C         0.64397113392232    0.89137735641715   -2.83999938419108
C         2.09795591221284    3.26915164524765   -0.71532412842588
C         1.10348868646542    3.06242496633651   -1.72540111953845
C         1.99292174417101    2.58224974244556    1.60842978054530
C         1.68798816478262    3.55602846409417    0.58541721083538
C         0.34639579993584    1.00227478731742    2.60412823152402
C         0.76846635110474    2.32295833458332    2.33275099063541
C        -1.06648463903489    0.69299375813904    2.53870493014655
C        -0.46081371021324   -1.69943866493016    2.30832707580771
C        -0.80950912650055   -2.87020061840130    1.53099805624365
C        -1.46297589633892   -0.68902496723825    2.49462363363267
C        -2.13914510373659   -3.13253702142691    1.20914769936826
C        -1.51307301855617   -3.23851517106547   -1.15928655189057
C        -2.47471503707893   -3.46374063543148   -0.14813292147177
C        -1.15707623955095   -1.31008622285728   -2.60074387442402
C        -2.03056006817027   -2.29715930042895   -2.10727454990032
C        -0.76738772159420    1.15510624011694   -2.71836492419819
C        -1.67403138611086    0.03441874221156   -2.78450119531862
C        -0.25300791846563    3.29893044078734   -1.50520553903012
C        -1.19363402868036    2.41317108643440   -2.15546371035396
C         0.35912453576473    3.97180395266345    0.76443618451479
C        -0.18196131907464    3.27382828180430    1.93028194319080
C        -0.59897170060149    3.89766954276187   -0.24913805007412
C        -2.01899098661295    1.67924240798385    2.07617226354053
C        -1.51631993488530    2.94784257157519    1.70865084504819
C        -1.83502495783540    3.50107508584810    0.39807436698440
C        -3.26943118240790    1.29021607272612    1.44584348755483
C        -2.81280499675354   -1.00691277584083    2.18293631809798
C        -3.15884611652944   -2.27158250016357    1.68331333250327
C        -3.70282651396769   -0.03181572443749    1.57757147198232
C        -3.67763397793147   -2.75790590868805   -0.51016567544168
C        -3.40201833742911   -2.03267160442692   -1.72084125991151
C        -4.13873633570864   -2.08210316122224    0.62187272358433
C        -4.47149025065598   -0.70626234495040    0.55806968496121
C        -3.04440276924067    0.24630143655443   -2.49088135480793
C        -3.88332897574687   -0.75078132601017   -1.84757532732389
C        -4.55723172074720   -0.11656222068436   -0.71760828184262
C        -2.53193799103193    2.51543308798176   -1.71147838263027
C        -2.81363129244012    2.94428489356417   -0.34733298106796
C        -3.70444824602085    1.97848525600510    0.26484091399004
C        -3.43277607432855    1.49424003935816   -1.97230886238288
C        -4.26397526615483    1.25094245709943   -0.79096405958542
