70
C70 Isomer 4177 Symmetry C1
C         5.00444097306012    0.46726099982741    0.92315358361567
C         4.90128796029111    1.33916089199938   -0.14762847456969
C         4.54462723330334    0.56474970607147   -1.36009225573934
C         4.91184371897173   -0.89003141687037    0.35817699657332
C         4.43313727665865   -0.79339888781429   -1.00849534318990
C         4.25168533737959   -1.67158439857271    1.26602584030533
C         4.08139311380819    0.54581274456871    2.01846674024506
C         3.74751715281524   -0.80762652671910    2.33804917900483
C         3.01675520301767    1.49951109444758    2.01174183168487
C         4.02669940713620    2.42136049415528   -0.06317975616544
C         3.09214136518774    2.50455802266599    0.99987382568060
C         3.49639215872217    1.23220131194487   -2.01665010472939
C         3.26801143793445    2.46749924788151   -1.31325536670042
C         2.37829092125838    0.50933514538824   -2.49998206680292
C         3.29609596416199   -1.54298565830421   -1.42515883481522
C         2.32333914325172   -0.91272425608655   -2.29619136123861
C         3.20857285891223   -2.54157828734354    0.85547119840766
C         2.80728456652439   -2.56938569044673   -0.51236626783920
C         2.45528603805414   -1.21689124547520    2.61377350175386
C         2.19215226797328   -2.42895580875454    1.84827076577068
C         1.68388968929395    1.08404905980309    2.44510379684819
C         1.38888215473614   -0.28023584143521    2.77858637681617
C         0.54001894073183    1.86816129007699    2.09363732262611
C         1.86935849660798    2.97950815647029    0.40296380283835
C         1.98015537242829    2.88827913588093   -1.03869997374798
C         0.64398321637117    2.76854429672963    0.97277767944661
C         1.13458831498992    1.25541088741115   -2.61932038020292
C         0.88570859191327    2.40840293701113   -1.80311498559576
C        -0.00616559750777    0.58245888662156   -3.03869773050295
C         1.05813533061480   -1.57600697884826   -2.54741521956044
C        -0.04351246623372   -0.85540960529473   -3.05672874878527
C         1.53050362985802   -3.10613741534413   -0.71644451365633
C         0.70383967197631   -2.73666810061204   -1.83448210806941
C         0.89370355122157   -2.84253633812684    1.61723170519490
C         0.66059792702115   -3.44028799858377    0.35553800612191
C         0.04802056473729   -0.79634302153768    2.76575117512398
C        -0.18314318263952   -2.14130636701628    2.28035494574361
C        -0.76353361080970    1.46488691521844    2.47694206758766
C        -1.05940219985528    0.10536205847393    2.82019252880169
C        -1.83717268616103    2.28244470248728    2.00843383922583
C        -0.50085266958601    2.98541355555749    0.10664866756368
C        -0.41493564693541    2.68293399276572   -1.30087808788816
C        -1.72009925964229    2.95153525563915    0.72420252374403
C        -1.31695293850289    1.07976010021448   -2.82620231856192
C        -1.57952968920382    2.12642009278986   -1.92154433155742
C        -1.39349517969727   -1.25298315141822   -2.88295600013075
C        -2.19974396900279   -0.05306503034479   -2.88148973737196
C        -0.65091073561289   -3.05685280862367   -1.53599304818029
C        -0.66220918066183   -3.50534771415453   -0.16579157849121
C        -1.75149728309768   -2.32938146476854   -2.03792235805989
C        -1.47183398698236   -2.49226911318684    1.89746118124653
C        -1.71728437849785   -3.17800543552689    0.64380229028727
C        -2.42424403322567   -0.37419275683955    2.68479914768616
C        -2.59972470049919   -1.66874094587283    2.15888608764175
C        -3.15828671742968    1.90370388794707    2.15095848514671
C        -3.49781185969998    0.54615614145567    2.43804828401725
C        -2.95949668858300    2.77643808202047    0.00248382419164
C        -2.89306728743684    2.20839450547029   -1.30292178007019
C        -3.89929475658620    2.32545952548938    0.95424709123517
C        -3.41996847198464   -0.01040396177085   -2.27689129593717
C        -3.86135812392266    1.20592016323176   -1.61085970169193
C        -2.97474604232594   -2.23423348501555   -1.25550145042932
C        -2.93714210702872   -2.67407620477817    0.09209207283878
C        -3.58487716275923   -1.93708722164085    1.13660457616514
C        -3.88251938013055   -1.16450332181463   -1.52423328071568
C        -4.58472565308976    0.20595694408515    1.59806771759544
C        -4.80323080087136    1.31034747239895    0.64992200570153
C        -4.81224043755103    0.78829768259238   -0.64882563648333
C        -4.56501850602855   -0.99315890983738    0.83715313719328
C        -4.74731216114089   -0.66930001801324   -0.54297970419083
