48
C48 Isomer 90 Symmetry C1
C         3.58708503935799   -1.32879834975937    0.22447591640344
C         3.77668190946654    0.07129378685957    0.01867274210912
C         3.35855122471979    0.72745487592328    1.18699973989773
C         2.86967479622436   -1.54414112092215    1.45832077883752
C         2.76310119434478   -0.26978339632573    2.08857528756672
C         1.69248305426354   -2.25183258797020    1.15018521938093
C         2.81179219766263   -1.83764308379254   -0.85157200039890
C         1.69200558519678   -2.51719662013085   -0.30497406993419
C         3.20517277264327    0.42649393918771   -1.26740418474603
C         2.61610278562354   -0.79681469512765   -1.82138304572225
C         2.49673116116907    1.60879150614096   -1.36526108593047
C         2.48735062034887    1.83740652167051    1.11466948492412
C         2.20977388944352    2.39249335359342   -0.15530343892770
C         1.52692932439666    0.21870112634293    2.50403362292434
C         1.38789555131730    1.59426483072334    2.01711355794787
C         0.46524205929561   -1.91082626885508    1.79023268744459
C         0.37916752438320   -0.64493204264982    2.52670347452395
C        -0.70883222329199   -2.39607287884399    1.18583460505166
C         0.48648920517545   -2.54249925403893   -1.01523826127686
C        -0.69377116082290   -2.76283506738285   -0.23781314371947
C         1.39148905300721   -0.74868884354720   -2.46920889224625
C         0.36136757189563   -1.71544113466136   -2.18067654690266
C         1.30320757076790    1.67682180446472   -2.20366751847293
C         0.73940289521086    0.51331699817868   -2.73275948741452
C         0.95603980541816    2.98778117938114   -0.33004870507433
C         0.41262926226209    2.60807637572014   -1.62733554782068
C         0.11894327646600    2.14706722253069    1.80971962543575
C        -0.09084031496335    2.92250546520899    0.61563596114830
C        -0.86830614495995   -0.02218775631010    2.62319117705840
C        -1.00034118517947    1.40517316728416    2.31220467141977
C        -2.00310565387784   -1.87963867406724    1.49901026151551
C        -2.08943649569374   -0.67832463981352    2.23703659751361
C        -1.94225826878496   -2.49233661600104   -0.76804271622857
C        -2.81496168267515   -2.02522631468573    0.32096759898951
C        -0.89072507846124   -1.10772552848384   -2.47877631951365
C        -0.68209665911712    0.31010284231808   -2.70735138289073
C        -2.06683388091171   -1.56932925394305   -1.86335119814718
C        -0.96852451645940    2.40162123524832   -1.50867099906377
C        -1.30977563847549    2.75758941088163   -0.13068379156061
C        -1.56701861531329    1.25788436672258   -2.12208698492883
C        -2.27224619236758    1.61142801021021    1.78973038596188
C        -2.99309695337862    0.33528483146048    1.79514473749004
C        -2.42088563341861    2.18961056185750    0.48086727435475
C        -3.57818123193272   -0.97921751480032   -0.16496469592720
C        -3.05768594433764   -0.62817053161510   -1.50246092675585
C        -2.77974551321885    0.76305526868204   -1.52173819006971
C        -3.67286916182512    0.21732162521966    0.58175853466657
C        -3.23477118059401    1.30712186791699   -0.28231080889277
