74
C74 Isomer 9001 Symmetry C1
C         5.07699244327172    0.09368556847883    0.44828809949068
C         4.91844165628886   -1.22385111087512    0.02929478742698
C         4.53540816596286   -1.19864669172185   -1.38756496033988
C         4.83410537728282    0.96176197612221   -0.69371324532533
C         4.48470172676160    0.14943942838712   -1.82250078145538
C         3.98957715675510    2.00607951142321   -0.28748606425856
C         4.31701461756636    0.60180179224067    1.54367063398512
C         3.66838761494227    1.82216550273063    1.11480456254898
C         3.57570354840124   -0.28316339963457    2.30905411066733
C         4.04326323245430   -2.10166026189435    0.71264930160335
C         3.47725654140902   -1.66465724531539    1.91838803936178
C         3.43075359184686   -2.05136202822530   -1.54403719427283
C         3.15848487968581   -2.68873809917378   -0.27519796849698
C         2.33472422333939   -1.67575202055566   -2.36967756467753
C         3.39480402030071    0.54355480961838   -2.61356861062487
C         2.39016341923241   -0.40262281893162   -2.97093822352762
C         3.00673762506324    2.51612051597364   -1.19140029997580
C         2.73873784041885    1.80160246139261   -2.38016582934171
C         1.91900444099620    3.18450601874107   -0.60393587531048
C         2.41513658972371    2.20677441373585    1.62028881033812
C         1.66951123599001    3.07540095282396    0.79119779285157
C         2.27884743730029    0.11090716500988    2.82453159891312
C         1.66663192164469    1.33353269523842    2.52152799171876
C         2.17165739383820   -2.11347896918103    2.25806148492033
C         1.47648743293948   -1.05300225796110    2.93263340640229
C         1.87184551351175   -3.11067261629811    0.03450665047941
C         1.43685490975845   -2.96470437258814    1.40930527483484
C         1.04787617835914   -2.26359380323633   -2.13178039328263
C         0.85091970782056   -3.09168966826579   -0.99410624579242
C        -0.11332367652916   -1.65563639336111   -2.75847401716799
C         1.16824656072910    0.33030662439845   -3.19724910455389
C         1.38223067035201    1.68119903300275   -2.83130176974803
C        -0.08727264212771   -0.25110874776550   -3.11962128760192
C         0.63952675582049    3.28035705995021   -1.24069553705775
C         0.30311622172566    2.42374821659815   -2.30119033992837
C         0.28094386251953    3.28203988491240    1.01855437007817
C        -0.34014496632738    3.51726372516967   -0.23338488431813
C         0.22418251913987    1.42832642938583    2.63079234484994
C        -0.42194089906077    2.55961748716622    2.00656659088244
C         0.07723126118113   -0.98312820151724    2.97357227203181
C        -0.58848798320824    0.28035644661456    2.89817296479275
C         0.07069508493292   -3.05452448668852    1.68906818755747
C        -0.60266455375105   -2.13124695020992    2.52968013481122
C        -0.48808406733191   -3.49625424887379   -0.64304841132363
C        -0.86770071506040   -3.52677157090050    0.71605301843534
C        -1.34570520294579   -2.23924595092741   -2.56776270192827
C        -1.53122890136737   -3.25802561310071   -1.57123771922358
C        -2.56986619678360   -1.47395172368543   -2.69276763813795
C        -1.24471513081472    0.59215847303668   -2.91164573143302
C        -1.04849187952441    1.91901663690410   -2.41826834545962
C        -2.52626836270137   -0.04754840712007   -2.76998980942245
C        -1.70174168464590    3.29204429894239   -0.46132280317013
C        -2.09256944190894    2.55474120683946   -1.64371846413480
C        -1.80655489766048    2.60214688123211    1.89652717591965
C        -2.45730625281383    3.16584419616483    0.73652499043103
C        -2.02584402234851    0.27086481202978    2.64595758240709
C        -2.62702073968555    1.50777010580528    2.34480649122799
C        -1.97885278953171   -2.10514667241019    2.15625575827439
C        -2.16480995076788   -3.09458427417138    1.13397441351404
C        -2.73266485126639   -0.92394691630981    2.21766806710694
C        -2.86960979810901   -3.16100429850604   -1.14766841003336
C        -3.52736853312086   -2.11584458842959   -1.90006296218098
C        -3.18570392903963   -2.93446333040156    0.20902217962568
C        -3.91529191056410   -0.84436925172246    1.34927701017737
C        -4.37128647350946   -1.37844978927492   -1.03103365542077
C        -4.08104569714228   -1.80430857205444    0.32267034502113
C        -3.59158383092274    0.65613641928182   -2.18547346090372
C        -3.38132100344230    1.97456893520025   -1.64520672556644
C        -4.53654526204291   -0.02758954116942   -1.31964098811615
C        -3.75575246288959    2.63239850208821    0.67712176431743
C        -3.86692839963096    1.58357312671876    1.67650024645321
C        -4.47124412949438    0.44185945527064    1.08670826709571
C        -4.24518613291648    2.12647266488499   -0.52286644880024
C        -4.82607600827884    0.82360145894415   -0.23897224824031
