76
C76 Isomer 14571 Symmetry C1
C         2.97773959312635   -3.03017465184703    1.47703981905941
C         3.82244304615334   -1.95504253121305    1.67581611523239
C         4.43493541602468   -1.63029067806506    0.39173327119679
C         2.94384438788022   -3.31248544825577    0.03667072416697
C         3.70681856518484   -2.31714440505118   -0.62329649218332
C         1.62136816226210   -3.54329931879535   -0.30990371877234
C         1.65851522926440   -2.99210834777220    1.96302763776616
C         0.86494783696998   -3.57598504557423    0.92606959918551
C         1.13597823215702   -1.84054025470850    2.61180477902310
C         3.32278385666008   -0.75448693481786    2.24521992060100
C         1.97297207284550   -0.66671313095012    2.70018308530985
C         4.59158561503082   -0.24457755819233    0.34417456565652
C         3.92967831621773    0.32631696772615    1.50401405798175
C         4.42153206600882    0.36645718529573   -0.90554558948799
C         3.07970004198169   -1.57198848820276   -1.68816052764051
C         3.58475484074118   -0.28088317146653   -1.89197876660202
C         0.98461165931682   -2.89684059872764   -1.40933462346953
C         1.69410010574185   -1.83848563469591   -2.06515674448338
C        -0.44668469642488   -3.02741990888113   -1.46797100737353
C        -0.49573172544002   -3.48486100505507    0.93177585788808
C        -1.15105616936315   -3.60508200425248   -0.34944581279739
C        -0.29160655551559   -1.72155712077193    2.64576880178180
C        -1.08963486181944   -2.74118954713977    2.00727666326738
C        -0.90169569357699   -0.46686620112557    2.95303871862984
C         1.34061528780379    0.62391566212693    2.72493643444618
C        -0.07847371607919    0.71932253509778    2.96148133410210
C         3.31002271489006    1.57439459116563    1.44216762962656
C         2.06631693656860    1.75348440207260    2.17297254808470
C         4.07680821927621    1.72415341674943   -0.88914822348010
C         3.55852053098568    2.34664858749008    0.25901310788399
C         2.76248279929122    0.74897112429736   -2.48978099848169
C         3.15259878938875    1.99352267778179   -1.98151592269087
C         0.89647541504126   -0.81048030009604   -2.69035096851805
C         1.40761141794037    0.53115856475447   -2.80915259668034
C        -1.17823579534363   -2.19799336046089   -2.36643865669906
C        -0.51234498587983   -1.02074366990391   -2.86208388995034
C        -2.60438152325970   -2.20815424921004   -2.28743542833723
C        -2.54642176451693   -3.60812988052733   -0.30798772337941
C        -3.27048227317106   -2.99763197519707   -1.35440556385140
C        -2.48469325921829   -2.64279418059832    1.95846012080213
C        -3.20706497268792   -3.25584950354721    0.91603443352000
C        -2.35009946476627   -0.35577010798386    2.82150482484787
C        -3.13157280361068   -1.42411810333136    2.33797328192554
C        -2.95535026370798    0.89835473857083    2.67030393548695
C        -0.73834834961850    2.00218187155537    2.82911290204479
C        -2.15064833418129    2.08710215219367    2.72705435769381
C         1.33469970073887    2.90704692669058    1.87246605720267
C        -0.03178030444430    3.05966705742357    2.21615184297654
C         2.55220858307840    3.26806200665974   -0.20905689291350
C         2.21925424156051    2.96856154173816   -1.57948269372307
C         1.53988832736749    3.61054744137200    0.63195041388673
C         0.52963210372205    1.67600171437015   -2.71799354265586
C         0.87721409037696    2.86307013063430   -1.98116440540586
C        -1.31761907991418    0.11251396328879   -3.10371181742332
C        -0.83420258716422    1.42328990583470   -2.89051147614031
C        -3.37297739560072   -0.97853530154774   -2.39311204817587
C        -2.71667395813795    0.14895682820543   -2.77598839614397
C        -4.37099858083064   -2.20383961900350   -0.76685258755443
C        -4.31262736198219   -2.37567579920697    0.60841010680247
C        -4.24218110294821   -1.22768652182009    1.44618232421975
C        -4.36547087135364   -0.91774829216710   -1.34463456145000
C        -4.01339343389249    1.09839449109108    1.72268454721541
C        -4.48991350821946    0.05322061876663    0.89831085876980
C        -4.47996271776165    0.25383225177854   -0.53985713228042
C        -2.76735422323930    3.04468815090011    1.90364559689900
C        -3.84298524453450    2.39279854809667    1.19418805858148
C        -0.65582002928405    3.87438629058539    1.20101389018173
C         0.25315021826620    3.95833673710803    0.10175709672129
C        -0.13552812748458    3.52860198825605   -1.17689716121422
C        -2.00853228175375    3.77861113116177    0.96560265415654
C        -1.87044718022613    2.22027898890979   -2.30408606007613
C        -3.03564920533821    1.41304654821906   -2.18096135748559
C        -3.89570119242587    1.47630109570620   -1.06114696153650
C        -3.62970629415515    2.56515953450327   -0.18352317572100
C        -1.54211297505980    3.23254893959334   -1.37503235148234
C        -2.48364355593148    3.44526554239168   -0.35288609856364
