80
C80 Isomer 20734 Symmetry C1
C        -4.88603319974708   -0.25578741273716   -0.37480875006890
C        -4.56864331645760   -1.59337912104050   -0.26114779245790
C        -4.32972347311776   -1.87676741796213    1.15205349011411
C        -4.73813020864312    0.35398092280890    0.94914763824962
C        -4.24132310681237   -0.62754018447919    1.83955256489250
C        -4.09322031021298    1.57900550121466    0.78973212116678
C        -4.23481627407795    0.56111978299101   -1.32583013379175
C        -4.03379940239594    1.81127388968321   -0.64271882384200
C        -3.18616999247150    0.05725430536209   -2.13890913451947
C        -3.49831641234923   -2.13344076700510   -1.02293489939327
C        -2.78200537608912   -1.32249898299639   -1.95434316555937
C        -3.28758898631103   -2.80431998566487    1.20947785430294
C        -2.79336701310193   -3.02513489407043   -0.13256013029546
C        -2.34104470487890   -2.66012920112199    2.21852081981673
C        -3.07916502369521   -0.30976162944728    2.61374321103579
C        -2.25357186013060   -1.40942622512600    2.92015442242166
C        -2.98327604176590    1.97040925268538    1.59281265974415
C        -2.44740434552723    1.00112435596444    2.51631461080133
C        -2.15586059806785    3.04234738082247    1.08443125686209
C        -3.14369592041168    2.69861432878682   -1.13597405647083
C        -2.35403935317809    3.49213258704972   -0.24088489404943
C        -2.22230088498591    1.00589338862876   -2.64878584310719
C        -2.35763086365794    2.36457532510043   -2.28941237848512
C        -0.91342831260717    0.56617851804869   -3.06506953598822
C        -1.43671801958761   -1.71698122030762   -2.26262793898975
C        -0.51169564318593   -0.80218754838076   -2.88576044717722
C        -1.47009226177988   -3.35414270904891   -0.35625946041731
C        -0.89443371578135   -2.86508529390956   -1.58358553010210
C        -1.02565860733382   -3.14874388700948    2.01654284015115
C        -0.58511218135734   -3.59714046808145    0.76431841146728
C        -0.88606033880886   -1.23073792982669    3.25782398954851
C        -0.12854579712722   -2.34188041647562    2.79296160270013
C        -1.09511077124133    1.17793564659833    2.97893809160438
C        -0.30768642490301    0.03363170474029    3.36660590300206
C        -0.88562974491521    3.32119663621410    1.69453482926533
C        -0.38932371931237    2.40185390009610    2.69467402801316
C         0.04180555562723    4.11441903421348    0.97900264556432
C        -1.28569465060866    4.00354591232992   -1.03173021378360
C        -1.26179441721224    3.27718128510310   -2.27901997395512
C        -0.10723486682152    4.35964448488517   -0.41897382364692
C         0.11064201961871    1.52479327485756   -3.20268882642842
C        -0.04620719999134    2.88414812038504   -2.79640231587590
C         1.48279550235184    1.19313011972327   -2.97794364348200
C         0.88267715806754   -1.12999796125341   -2.96872909434276
C         1.91167440921056   -0.12245508912860   -2.87202225520914
C         0.42109453326330   -3.23420635863689   -1.80001951500987
C         1.28220066547139   -2.43671893359594   -2.61895034573072
C         0.82653367804156   -3.73045584063136    0.56676615307177
C         1.22626612622254   -3.86984866669208   -0.78354786349090
C         1.23902885777972   -2.27825783844415    2.53459621580586
C         1.76107256908897   -3.17092121987663    1.52094988729757
C         1.13058579344694    0.03862188707561    3.40774059324632
C         1.91267964413759   -1.08571686360216    2.96050502222732
C         0.96771104234948    2.47670679490806    3.05504198530670
C         1.72116072271370    1.31456145255962    3.43939560202826
C         1.44957010321726    4.01001038058934    1.21607265235866
C         1.88362399183908    3.33580809776089    2.33968927045386
C         1.16269688345070    4.09481526135507   -1.05099367493324
C         1.18697566705787    3.32750820360848   -2.19819267832959
C         2.14224653081628    2.26260656883234   -2.30990115820211
C         2.14256042288585    3.86795653557398   -0.03289827807142
C         3.12695137158694    2.01055659551761   -1.33853305110109
C         3.16944744957045    2.89826203200090   -0.19059607449808
C         3.16488090895746   -0.33747270184279   -2.18501809328715
C         3.66435538510168    0.67127406893502   -1.28961071902646
C         2.61178142762400   -2.71875167728868   -2.28220727535265
C         2.57073248035981   -3.66709129325590   -1.15954787478306
C         3.53925224498313   -1.69626102645681   -1.97954475421698
C         3.08700080556877   -2.94199369387768    1.09959282700970
C         3.49731695565458   -3.25590778107287   -0.22565998659803
C         4.19202565304416   -2.08560051269796   -0.77402806823815
C         3.22402417024376   -0.84443949624736    2.41161398789370
C         4.26180401509963    0.23359045858025   -0.04543993968639
C         3.73174338931907   -1.71411301431163    1.44725267262031
C         4.34320851893296   -1.16422156846598    0.24468596757536
C         3.06322737926793    1.48993034477748    3.02590128287907
C         3.14078247505048    2.70724609004709    2.25841269330026
C         3.72642861998930    2.40083275425504    1.01382945111189
C         3.72941103563998    0.47692055085643    2.34081540915321
C         4.18657717800958    1.04191909654386    1.08360774793120
