78
C78 Isomer 17709 Symmetry C1
C         4.94056936646095    0.19485432503993    1.26866960323235
C         5.03950064624158   -0.96844648545859    0.53807551859342
C         5.02790600983833   -0.60207685374657   -0.89531925433746
C         4.94201169853653    1.32631747493952    0.33425497275455
C         4.92601261437835    0.81360280127549   -0.99678071522699
C         3.97094012511264    2.22901840109813    0.76467601445289
C         3.87514097664466    0.37063147622097    2.18918776854761
C         3.34459101681330    1.68532124189009    1.95956220397962
C         2.98615616968922   -0.68303142328355    2.48810679582709
C         4.13410698577184   -2.02446713968740    0.76370519637294
C         3.15389895785512   -1.93995558717529    1.79091672715324
C         4.12388344292198   -1.45075173358922   -1.52675073782463
C         3.72492799281995   -2.45473224828638   -0.55304883164639
C         3.13101575035966   -0.94438376226293   -2.43868622891564
C         3.97941300206177    1.33112753511530   -1.89865021316412
C         3.14457968243704    0.43900272202428   -2.65522422465859
C         3.17055190647498    2.91743808127329   -0.19925628050933
C         3.17744407249558    2.45567873969185   -1.53617901761713
C         1.96295890780912    3.43750008889983    0.28192406996823
C         2.03151705837778    2.02304247729218    2.30848655749452
C         1.46754110478305    3.08009720142992    1.56071846399685
C         1.67521575734695   -0.30204020990809    2.99396494352943
C         1.16139866483033    1.04171955076722    2.92590926370575
C         0.73299593614352   -1.32102324006321    3.13859321674622
C         2.01090066929980   -2.80944543529232    1.64498561932363
C         0.88437565625002   -2.57272386476289    2.43953142424233
C         2.54346152547248   -3.10758152227330   -0.72640310722082
C         1.74436455208243   -3.45922075530132    0.41463264087286
C         1.86931462269296   -1.63963699752700   -2.58648026313575
C         1.66533292551875   -2.79916386565214   -1.81798915272544
C         0.68252620366275   -0.96702284138409   -3.03520917033254
C         1.90706378271326    1.12441958856850   -2.92046257111970
C         1.92471640250344    2.36813857102507   -2.25410554969624
C         0.69685098488906    0.46054601291225   -3.15445078847120
C         0.81437488572336    3.62252087257799   -0.56204718252397
C         0.72063162407256    2.96502234090209   -1.79611710557568
C         0.05599721092430    3.27307891700809    1.56593540877664
C        -0.33853019325473    3.67636399691422    0.26062569516180
C        -0.25259454172011    1.29398751719374    3.00239780560684
C        -0.78030944242985    2.48534007428797    2.36790622328234
C        -0.64958989666203   -1.06467280370043    3.30371205152944
C        -1.19180413517294    0.22781722887697    3.23186455969474
C        -0.41296134162948   -3.02798730893504    2.08582092237264
C        -1.35292241489808   -2.18716764503752    2.75557851509762
C         0.41985167413090   -3.65565800327084   -0.04562226542788
C         0.36617547608223   -3.23344455555146   -1.42098171365683
C        -0.70386528340999   -3.48261147110979    0.77831042865143
C        -0.59100955595961   -1.61819116173119   -2.90195538099665
C        -0.79213289781596   -2.71494962221252   -1.98179404239936
C        -1.72039268593096   -0.87087172540900   -3.24851937872863
C        -0.51584745761613    1.24013557949416   -3.01444293567556
C        -0.55307841613042    2.44589232446105   -2.23006632120834
C        -1.70523960199014    0.56136405528307   -3.24338320643746
C        -1.61751303547426    3.40565407600009   -0.23664316161182
C        -1.76430595185279    2.78798555559215   -1.52920616848553
C        -2.14204300623196    2.59366590536862    2.03812780633046
C        -2.55768627539906    3.14736491000495    0.78880100837400
C        -2.60552355364684    0.33454354532189    2.89298668039447
C        -3.09377073161712    1.57333701866633    2.41486647348700
C        -2.62009473538521   -2.04687025671848    2.25777772492743
C        -3.32047091361928   -0.80928567310695    2.43830217625355
C        -1.97542123228463   -3.17631397428327    0.16593723012943
C        -2.03564702174988   -2.87664474897006   -1.24602683649944
C        -2.97743832267241   -2.62763615954325    0.99269229451766
C        -2.99861957263895   -1.27359310307627   -2.79956794322852
C        -3.16679453385140   -2.19942174847604   -1.73317276368390
C        -2.96445330033241    1.02391943456675   -2.73113549446020
C        -2.99761160447189    2.07581496864003   -1.80082541875779
C        -3.79783951961171   -0.12121105473422   -2.56758471002733
C        -3.79670610848649    2.55769010912769    0.45995191633185
C        -4.16650986909662    1.63345084600344    1.51227494410396
C        -4.01470028384165    1.97261462393607   -0.78608385249243
C        -4.31090783657892   -0.74592218720275    1.40344831041983
C        -4.05820507632446   -1.83938723015158    0.48613307333493
C        -4.18915580237499   -1.65779004861020   -0.87562466023932
C        -4.56116538723424   -0.34224684161357   -1.39226564711766
C        -4.71409734420166    0.48619110722719    0.90159944623089
C        -4.73125715862329    0.72036999218030   -0.53188939996621
