80
C80 Isomer 14243 Symmetry C1
C         5.21715091323113   -0.32022722170787   -0.35013968191447
C         4.85489062993947   -0.97585387242679    0.79734994253991
C         4.39098824969118    0.02057353512450    1.77478798814580
C         5.04919582154826    1.12376644983196   -0.09450383499938
C         4.37277107495474    1.29838826939977    1.16453216935089
C         4.48979907849987    1.65052077972150   -1.23271508316598
C         4.56171464542955   -0.65730740327434   -1.59302776449267
C         4.23716913704535    0.56860452847911   -2.20156383681548
C         3.60612267190243   -1.70708431811054   -1.64688319498875
C         3.92539364352350   -2.04936989768724    0.77372747736065
C         3.37562708485648   -2.49610398330435   -0.45902480214615
C         3.26284299292313   -0.50850817312883    2.38428194977424
C         3.03447109425443   -1.84361510371674    1.87338451387439
C         2.15049669466765    0.30817659373945    2.67325168969346
C         3.18497089097242    2.07725751995700    1.25669377115723
C         2.14357234551361    1.64672804985553    2.16566127122447
C         3.34029400835923    2.47322615726675   -1.16931628852552
C         2.73049423912250    2.77209613949193    0.07433980180757
C         2.97816306640091    0.81278396133872   -2.77088015041349
C         2.49506617552429    2.05506674102927   -2.25161968583682
C         2.46838694078688   -1.52034518524206   -2.52826360056522
C         2.05429278237876   -0.22790340642643   -2.99499913830064
C         1.46955881771000   -2.49145621743539   -2.49757074360067
C         2.20501984145775   -3.30606054278551   -0.34089133150588
C         1.43564678608065   -3.50373938613532   -1.49930700788599
C         1.78123193125302   -2.44184142671627    1.93674202790318
C         1.50505862132725   -3.42227610559392    0.91903396426721
C         0.92743073759305   -0.38562360840396    2.96644838106851
C         0.71926260533409   -1.76784684392019    2.62720613327424
C        -0.19868742662948    0.40250807625144    3.16693278492082
C         0.90417838410454    2.37183832351167    2.19349111473895
C        -0.18416105142326    1.79143245376108    2.86911672934955
C         1.40288687129251    3.29036378052635   -0.00419990136754
C         0.59777991291200    3.34603820658389    1.18119624765858
C         1.14767455226082    2.34484190245496   -2.26807644659769
C         0.72630663781985    3.27860932038892   -1.26666283507027
C         0.65214031746691    0.10270623464333   -3.14104680226905
C         0.21736876168306    1.43223657156179   -2.87218950134506
C         0.12701220586303   -2.25007774987283   -2.92065369388782
C        -0.33772887446277   -0.94874413219491   -3.15759021497322
C         0.11487101073103   -4.03435650350979   -1.46197902153014
C        -0.70688922567493   -3.26751913597557   -2.34901911668220
C         0.25028982658419   -4.01385591216198    0.95810315337560
C        -0.40354371675554   -4.47159529910002   -0.24707181060649
C        -0.61139027895090   -2.28413164501119    2.53194309850134
C        -0.76585277819453   -3.51173058155825    1.84687424666006
C        -1.53081350911979   -0.09333513674430    2.99982690596190
C        -1.77242873180722   -1.42018914052461    2.63286487328542
C        -1.54609502090023    2.16466685912494    2.61649098898052
C        -2.37505024101337    0.98412991076476    2.63073113440891
C        -0.72870814316584    3.81599510181540    1.06553420496716
C        -1.82914915784257    3.20926414344716    1.78159453012169
C        -0.60371144328604    3.67441708125095   -1.35322433222985
C        -1.25076560934997    4.14479188804404   -0.20007499265474
C        -1.18574356924865    1.73711050147661   -2.78803924294143
C        -1.54629100304796    2.95420553878713   -2.17724095880533
C        -1.74964306115892   -0.68697366233888   -3.00512173722212
C        -2.17402650102110    0.68559571996170   -2.92460200320770
C        -2.06366577421637   -3.02128069656340   -2.09425685410302
C        -2.60775943938393   -1.75326627218986   -2.52622736510807
C        -1.78978579218351   -4.36008833680620   -0.05572717272068
C        -2.01864731581262   -3.81414716949373    1.28182386579436
C        -2.62135253700928   -3.68158866951527   -0.95210122340719
C        -2.99986739951814   -1.65982673839174    1.91674216514303
C        -3.07752679586198   -2.90698806860105    1.23669497149235
C        -3.57352274182780   -2.96609582214212   -0.12283428843889
C        -3.47421412840928    0.81063268459519    1.76720362057359
C        -3.80285609527618   -0.55925582450263    1.43557916226508
C        -2.98839584105282    3.09992926876075    0.92032398004395
C        -2.63489306871423    3.74750598793950   -0.27791450371976
C        -2.82534240594585    3.11416100378421   -1.53461488585230
C        -3.79607470023985    1.92631205895223    0.88837392160965
C        -3.48294652472060    0.97097860766202   -2.45669983937735
C        -3.74757192561709    2.10216691731030   -1.60030568565745
C        -4.36082810810307    1.62228517768840   -0.38058676166146
C        -3.85037361473089   -1.39404558320303   -1.95123263901252
C        -4.21530102669944   -1.89569648493644   -0.63184898907307
C        -4.52601224593180   -0.76522344828642    0.22324993951466
C        -4.27790722967827   -0.07577704372688   -1.97068223086383
C        -4.75806794901343    0.30303970708264   -0.64260152526555
