72
C72 Isomer 6887 Symmetry C1
C         4.90419415840208    0.35120924223372    0.06170285803028
C         4.45176903822177    1.21526591840764   -0.93815506413113
C         3.74746315375685    2.30562755282225   -0.27383397433177
C         4.27574540940051    0.75975999232420    1.33325762753924
C         3.53575286456066    1.92390907792483    1.09357870793739
C         3.62634905200236   -0.36858692870196    1.89426287354962
C         4.68627165638539   -1.01104735613407   -0.09915322188975
C         4.03819130072473   -1.49658766815843    1.13049081506741
C         3.95351338124865   -1.51419481780533   -1.19925766508735
C         3.62149650750066    0.74741428820634   -1.99711196887863
C         3.32222974459754   -0.63169820452686   -2.13957381015707
C         2.65693043585958    2.65310801533590   -1.05982671097005
C         2.55207169989520    1.70627185172451   -2.14480085162053
C         1.51057501011470    3.19482869173922   -0.44582574804410
C         2.23861165731900    2.07267011175864    1.64981692362441
C         1.39941955261481    3.02274993026121    0.97447449183101
C         2.27238197640199   -0.29462400600941    2.35185815490082
C         1.61454479437030    0.98697645081478    2.35663480831171
C         1.45582023500481   -1.47658048601426    2.27362767564045
C         3.13110020737453   -2.48446227965869    0.79355637836215
C         3.17840877076332   -2.60795050231070   -0.65926421363998
C         1.88622318473499   -2.57829439604871    1.45697995272808
C         2.07536819581898   -3.04103865649082   -1.31874899404510
C         2.00953054680385   -0.97949716477649   -2.67258780627154
C         1.52105188686068   -2.27860719863946   -2.40982463941363
C         1.28720893151854    1.38638333294989   -2.63476607478170
C         1.01215814182610    0.01365233254197   -2.98801999352356
C         0.33987670745984    3.27457297312565   -1.25648570904381
C         0.21952382536327    2.32693178946024   -2.34680469812162
C        -0.83095383432641    3.76130635916392   -0.63698485181155
C         0.14372556238042    3.24247819899024    1.53972763297914
C        -0.86046387591992    3.84250149950378    0.77238035265181
C         0.19153313946047    1.05157626164461    2.63170148200045
C        -0.46655495954644    2.25897762828748    2.39535197236046
C         0.05710910629355   -1.39738177480172    2.63423229065438
C        -0.61367802748691   -0.14111619249224    2.80144897566799
C        -0.72510361414929   -2.54884061121476    2.39169309445616
C         0.90887501324195   -3.42575796945078    0.80618917522308
C         1.00196477288030   -3.65437013118773   -0.59424885082604
C        -0.35739109462467   -3.49057702852060    1.36167227397826
C         0.15488241493052   -2.62813972190978   -2.46780764514904
C        -0.15682980391045   -3.54661905227375   -1.39650414707983
C        -0.36079742922032   -0.37330665698974   -3.19599232412093
C        -0.81250264394003   -1.72160885163184   -2.93254979818752
C        -1.06511422249367    1.96942414919125   -2.74864827516605
C        -1.34980786500420    0.63274191088597   -3.17882441599922
C        -2.15080990408074    3.36668708735164   -1.06481431409157
C        -2.25440774087100    2.50111338212225   -2.13063569955575
C        -2.13942283643182    3.35098434618069    1.23512969527052
C        -1.89372686978932    2.33802129313654    2.18353130438196
C        -2.96249858514076    3.12365342642887    0.11569572926085
C        -2.05268968955131   -0.05207886591214    2.65178393156494
C        -2.68306929167275    1.17200664442482    2.20197242300410
C        -2.12089670536439   -2.46293250901221    2.37043384952968
C        -2.78697762802921   -1.23799244100772    2.41289923141743
C        -1.52819798235232   -3.78757615774277    0.57058850819381
C        -1.45262512346689   -3.64276571988098   -0.84813860592438
C        -2.62983237823450   -3.25303780281728    1.25419823807512
C        -2.14988526550324   -1.98494718437627   -2.55427181751315
C        -2.48068458784260   -2.92457070046046   -1.50278997685808
C        -2.71572823585565    0.35089445760259   -2.85698240672601
C        -3.26633091321697    1.47522564918438   -2.15100650371674
C        -3.10805673249512   -0.93891657828830   -2.52150001449283
C        -3.81688261485929    2.02499602816882    0.16277799824634
C        -3.75616663402930    1.11886530062226    1.26870146975579
C        -4.06515441166361    1.25764460138116   -1.03475755971675
C        -3.84029216106816   -1.30460408471210    1.40746028203679
C        -3.63484911324857   -2.50725224767204    0.61584060630272
C        -3.60101507599538   -2.40091240495406   -0.78501602127315
C        -3.99638254688172   -1.16552812760263   -1.40875479999133
C        -4.24718515048838   -0.14904195475116    0.79709402492330
C        -4.39590648733757   -0.08538534096401   -0.64047663730639
