76
C76 Isomer 11021 Symmetry C1
C         5.03655405671803   -1.01338909627076   -0.65466797277302
C         4.53441041461538   -2.08415624300045    0.08204816304137
C         4.19122989473312   -1.55896415488716    1.39895337364128
C         4.91677518236002    0.21362766729338    0.17112201505517
C         4.29564911022094   -0.13434293410324    1.38519805758571
C         4.36293613792714    1.23718101428887   -0.64103346731966
C         4.47944139439523   -0.73995427617592   -1.90214721245865
C         4.16906830946105    0.69073185724367   -1.93251739286684
C         3.33344530190568   -1.43664068341366   -2.36165704204146
C         3.41437019376374   -2.82574955535192   -0.37623550388961
C         2.75987608544166   -2.49842494122877   -1.59720176864709
C         3.01041029842499   -2.14931984979161    1.82020315103806
C         2.56486872887337   -3.03912263286320    0.77058625438441
C         2.06104059652994   -1.38567597591356    2.55833333809009
C         3.23531896046017    0.67472157319535    1.91816489372303
C         2.14389876752175    0.05037920159707    2.60946108464850
C         3.39941996710959    2.12822142248521   -0.11762767023516
C         3.00967403057070    1.94035642201078    1.26624841699367
C         2.41091172864710    2.64745690067557   -1.03497361638217
C         2.94671596627886    0.86873562737273   -2.59022510681298
C         2.44994444468669   -0.43503649424860   -2.91816531316652
C         2.06054177594674    1.89525330360832   -2.21084975536613
C         1.09076570913559   -0.63565204904200   -3.05475163714639
C         1.33544472858771   -2.72190362615168   -1.71063551067763
C         0.58487363237077   -1.91934362813694   -2.63583939965916
C         1.22339149449112   -3.35538775166854    0.64135820262968
C         0.58654712820467   -3.34376605109955   -0.65439073753028
C         0.81087163347954   -1.98386403813535    2.65060145666687
C         0.42099242711252   -3.03473874110386    1.76962274818232
C        -0.38205650708031   -1.26489272331273    2.99604578033493
C         0.90223002678114    0.77194148141610    2.85121436866450
C        -0.39679737781739    0.11969459094424    3.00375202010008
C         1.92285157756417    2.68764683739119    1.73287014120093
C         0.87715768491198    2.11643586811484    2.52383621682165
C         1.41112224506044    3.48070474359274   -0.49676571478844
C         1.31173055416443    3.64330238927539    0.89008941531987
C         0.08802531347987    3.56065367750821   -1.05705631814905
C         0.69177899461592    1.77028135944036   -2.63362276170084
C         0.21489748204519    0.51165777183375   -3.11678852123412
C        -0.27349513694622    2.71556954873246   -2.12716059476256
C        -1.20140844633704    0.26507768721865   -3.23193114335503
C        -0.78663980378694   -2.10059455816720   -2.71993466013620
C        -1.68244786917721   -1.06195274859571   -3.13197721392959
C        -0.84260268141728   -3.43881493019435   -0.70336472538726
C        -1.49454842096143   -2.97556422991970   -1.85703186888129
C        -0.98668124168255   -3.06605693383918    1.70513389069899
C        -1.49689529794964   -2.02919341694051    2.54225361601138
C        -1.64918650511293   -3.41678848436827    0.50934791283987
C        -2.75059207510381   -1.46172170159448    2.34921064205695
C        -1.66451869696874    0.76800917155672    2.67223815467230
C        -2.85059496846441   -0.02231922417242    2.45881158405350
C        -0.37677781965612    2.77373006589828    2.17232270188777
C        -0.08649411043309    3.74826610061726    1.22167133104538
C        -0.83901125999978    3.79023217323533    0.00944433358213
C        -1.62317050001201    2.09771936763308    2.15525482914486
C        -2.13042970662666    3.26194070537884    0.00514032858946
C        -2.59217711855603    2.53774918618022    1.17630358835083
C        -1.64473887568987    2.45673875720141   -2.25892587545974
C        -2.12912259311341    1.26502551397900   -2.89646669298198
C        -2.58890398657187    2.81415200956481   -1.26008260916983
C        -3.43550336364751    0.97119106964895   -2.41168060649379
C        -3.71230865467757    1.95282071405244   -1.38940296011013
C        -2.99139968042322   -1.37507979428095   -2.66338081974585
C        -2.87590493977782   -2.59198087814610   -1.89712632097768
C        -3.91508060233357   -0.35746174642398   -2.29427967766019
C        -3.00659716532815   -3.07541560253359    0.46934911025010
C        -3.59245476804421   -2.20836707691218    1.46620120649713
C        -3.67570056811368   -2.77676212106791   -0.78091390658024
C        -4.83742496706999   -0.63951348132896   -1.22739242786647
C        -4.71283089644811   -1.57806789976975    0.89771287722741
C        -4.73022922309182   -1.86533858757854   -0.53210732702011
C        -3.94798251330898    0.58706548215442    1.79206694252525
C        -3.75627264376463    1.78407888340333    1.04469773483400
C        -4.41609341700770    1.59717169211932   -0.24714811549985
C        -4.89950225308409   -0.21111294248656    1.07534871003859
C        -5.09360532301113    0.36790996635753   -0.23075862356500
