78
C78 Isomer 14024 Symmetry C1
C         5.15092647293495   -0.71641548636537   -0.00775418488458
C         5.15302989381774    0.63949435485374    0.27168251055873
C         4.78143495072858    1.36244055472751   -0.94156458597664
C         4.76604976258540   -0.90140950575943   -1.40697689519972
C         4.54628207635792    0.39335373446270   -1.97373330375325
C         3.77767125609160   -1.88646052652339   -1.46087599002736
C         4.39153821106160   -1.62161760877805    0.79142945128892
C         3.59726018005715   -2.41201466403844   -0.11100015976910
C         3.78183271070956   -1.14524428849188    1.95105734118946
C         4.38411565416591    1.16094361195469    1.35661611324905
C         3.77152927337806    0.26931210641921    2.23241263787545
C         3.81508757626912    2.31146548875354   -0.60674337405070
C         3.59698783297355    2.24797519206426    0.83562793710640
C         2.70456131752549    2.56194816334152   -1.47155089133921
C         3.42330850615444    0.56449435404190   -2.76629159914801
C         2.59571698474277    1.72754054830598   -2.60212988882155
C         2.63841225193652   -1.74267888388976   -2.31978050967160
C         2.54041072243436   -0.54001866524071   -3.03818256280409
C         1.42828424898463   -2.44858980635430   -2.02144797306869
C         2.37048100835828   -2.92355577152546    0.25819304678279
C         1.41675294250410   -3.20089920751093   -0.79720489618226
C         2.50140447018080   -1.65799546408632    2.32617117463216
C         1.83825028187344   -2.62206440370130    1.57020581949432
C         2.47913948151122    0.58564096807539    2.76162923280965
C         1.71023563471899   -0.61552726421740    2.91049194384541
C         2.35493394809528    2.56590066867034    1.35517838050166
C         1.80292179475045    1.75162310051609    2.41857779910787
C         1.51316991816891    3.14709694018438   -0.93855060055430
C         1.43122058602444    3.28983532624743    0.49974817379563
C         0.28366373407924    3.09212658557306   -1.66323468639229
C         1.29878919026305    1.39530801311178   -3.07015957176006
C         1.24575958570896   -0.01528496593289   -3.31824119392593
C         0.16468780371324    2.09115200457538   -2.69006009555897
C         0.15781048858849   -2.05016367370841   -2.56108863393946
C         0.06546437295207   -0.73397645362732   -3.13527707529631
C        -1.05582800008223   -2.71868237714017   -2.16815574696123
C         0.24496261992154   -3.79171828354373   -0.40305222486852
C        -0.93375226834135   -3.75624113112010   -1.21193478384946
C         0.45143452237255   -2.82262370927119    1.84851731698110
C        -0.17469862703690   -3.75629634181016    0.99298438277729
C         0.30971869932418   -0.63218704907266    2.90101857673037
C        -0.35602202622507   -1.83913640502943    2.50081292625718
C         0.39863932407665    1.79714555635667    2.70975450936893
C        -0.38956375212301    0.62099107854517    2.92475152033196
C         0.23613526745969    3.64892243218779    1.07688162206294
C        -0.24133203177522    2.96831951560624    2.27196419938123
C        -0.92692244187069    3.62013658513577   -1.08149735563027
C        -0.91316753740844    3.99875740147688    0.29032251263021
C        -2.16565357144184    3.23857882615230   -1.62568512240909
C        -1.08937258781790    1.44763172177264   -2.98564083813283
C        -1.16770082903710    0.01599487932087   -3.12580261424693
C        -2.22989648056242    2.18294408218393   -2.62556210972838
C        -2.33491253198124   -2.04167960755330   -2.30191668697806
C        -2.37939745458607   -0.67824415359565   -2.80682452112892
C        -3.39451433671497   -2.44271839111824   -1.44936708531735
C        -2.00714847247664   -4.08575938844819   -0.33709773258292
C        -1.53859074059094   -3.93426872417934    1.04261019062094
C        -3.19792636140308   -3.41851297763126   -0.44347936801749
C        -1.78938983133487   -1.83448387496291    2.31102104711695
C        -2.37127444443505   -2.97835220726373    1.70585373284762
C        -3.50270613739703   -2.80933716455446    0.86578746602053
C        -1.80846525858937    0.63315575780801    2.65651261794598
C        -2.49599732623505   -0.56859216909972    2.24215089187354
C        -1.62467311905881    3.03408708771768    2.26373901149585
C        -2.05131663035031    3.77940423273819    1.09237375339336
C        -2.42104300901167    1.87274830835183    2.37251554638602
C        -3.34062580852019    3.10590163088441   -0.80214842519924
C        -3.21271690849307    3.18239610762272    0.59486513028182
C        -3.48485107808929    2.00298221544074    1.40284888720933
C        -3.44169587751478    1.51003145695368   -2.49042900745954
C        -3.51539275594539    0.11062768917439   -2.50522875360703
C        -4.10699612117152    2.03394807472471   -1.29983597832876
C        -4.21222458570801   -1.43580015260268   -0.80379157945503
C        -4.05791940042870   -1.56628092862134    0.64301452012794
C        -3.65630016637569   -0.43028237561191    1.40119336985124
C        -4.05487613071686    0.85384558713847    0.85841676470869
C        -4.34409622318332   -0.21959014379619   -1.36499418594938
C        -4.48405469352084    0.94650225260574   -0.51363926666407
