80
C80 Isomer 13294 Symmetry C1
C         5.57391624291824    0.50280367416515   -0.12332879088401
C         5.52027321702715   -0.81278718260332    0.29678596625464
C         4.90795489923295   -1.63082058298901   -0.78254004941145
C         5.15539135611996    0.49009028427373   -1.54177003501556
C         4.52531814661688   -0.77666838995536   -1.82982379410058
C         4.47281830067718    1.64445455127269   -1.78034144323233
C         4.81709788032871    1.51448806007897    0.55138401330256
C         4.33080672315741    2.35338741473856   -0.49842305310870
C         3.90489170650159    1.16790100640534    1.61594848203780
C         4.86170533346439   -1.11890866911156    1.48758850771723
C         4.01187518503689   -0.15971839993677    2.11806256803671
C         3.97878365633008   -2.50351252739070   -0.18770250331821
C         4.05700203067819   -2.30278326039928    1.22761308836200
C         2.70916826497936   -2.69482950006243   -0.79035556445011
C         3.17931339714003   -0.81988573392093   -2.35077931951995
C         2.32444424457251   -1.88665388918027   -1.92709332076179
C         3.19889115415058    1.62741722566946   -2.41995846796577
C         2.52590338125121    0.41716844341408   -2.73122950168290
C         3.06675756348387    2.89156740876030   -0.46733066175039
C         2.43689971937667    2.61743415172962   -1.75610355021188
C         2.58608147493940    1.78506898129974    1.67249798094348
C         2.23481887555055    2.75002195803142    0.68200502202211
C         1.45172973295946    1.13955379836733    2.31263536089636
C         2.81429812743943   -0.85866645403195    2.51043455908579
C         2.87889567758050   -2.18399324456419    1.94820257495845
C         1.56736709935354   -0.24743965067826    2.64433486497818
C         1.66299482812592   -3.13542266230488    0.07562177246835
C         1.71361342685978   -2.77581174916533    1.45098356530252
C         0.40036146235216   -3.44424547937086   -0.49874884938716
C         0.94116957937163   -1.88185382479047   -2.31871422446108
C         0.08630380337577   -2.92398853995643   -1.79932697871842
C         1.09272319962611    0.48516624626144   -2.86198482406356
C         0.32656526644245   -0.72145716162789   -2.86159286340428
C         1.07612848568143    2.68395362626158   -1.87797117307164
C         0.36954945757584    1.69015461738325   -2.61419321902703
C         0.90085612850646    3.18124971763191    0.51470958440341
C         0.41605895756288    3.39568904414629   -0.81996815665295
C         0.13427679490810    1.69289836268272    2.28099730470752
C        -0.07432118563073    2.88937338138796    1.51826665250734
C        -1.03462024537838    0.91561912753074    2.65608910764605
C         0.38896646700075   -1.08339033773650    2.65144024848005
C         0.50705587205465   -2.39356695838641    2.09684246115364
C        -0.90666115080345   -0.50843237108056    2.76112576188820
C        -0.64643703903447   -3.73016372780839    0.37789291316295
C        -0.62542512727555   -3.08480902712322    1.66482876572707
C        -2.00269220146425   -3.78128936826939   -0.04449296313336
C        -1.23407363033476   -2.98566148024981   -2.21926974083076
C        -2.28228675251214   -3.55370212867487   -1.39476798260261
C        -1.10952731820528   -0.65299141679650   -3.02616944555897
C        -1.80666787954444   -1.87094711777998   -2.93528038592923
C        -1.07196711029181    1.74769918044503   -2.59347677170232
C        -1.85494008440205    0.56763609006002   -2.84670187600380
C        -0.91336520981126    3.65272153049399   -1.04270092908570
C        -1.67747897900472    2.84943680154691   -1.97751088827028
C        -1.37364648761554    3.38190065548816    1.31624878850838
C        -1.73108774280063    3.93173303935574    0.06643370639808
C        -2.36524142878964    1.47374444092282    2.50124424133803
C        -2.53268858300582    2.71157613966955    1.84501103117664
C        -3.49994674139490    0.60610819841574    2.46312652794280
C        -2.07083151449013   -1.36716942479245    2.56150460829554
C        -1.91476578581165   -2.64711368744593    1.96582253815153
C        -2.81970465821925   -3.16492161136562    0.95738447859312
C        -3.33862148962684   -0.81384997412283    2.42351301417555
C        -3.99971960326955   -2.47379083686251    0.64147905893968
C        -4.31833605193486   -1.38489200802920    1.50713058383237
C        -3.48973937668264   -2.90028922345539   -1.71035448140110
C        -3.18766911502096   -1.87182888763790   -2.69104823655909
C        -4.34730892016486   -2.34600784259338   -0.74518551210114
C        -3.24443038893572    0.54759547738437   -2.45930844875702
C        -3.89192692121801   -0.70875842875132   -2.36855527936528
C        -4.75911316476079   -1.04650348038996   -1.25685625942222
C        -3.01747999807602    2.78036134515577   -1.46168579593421
C        -3.06208385625576    3.50482188399366   -0.24812659156154
C        -3.61362819467246    2.91064187403060    0.90723335747114
C        -3.80455365564941    1.61073107558795   -1.64260678529508
C        -4.62479348822548    0.89711917331130    1.65987372588959
C        -5.07432920163843   -0.31873357912296    1.02201834386102
C        -5.14369650000759   -0.05867457598563   -0.38338547875235
C        -4.55999163645282    1.91540042453300    0.69291354760531
C        -4.72722870189760    1.30824598461372   -0.61446448175547
