80
C80 Isomer 19891 Symmetry C1
C         4.69979523024007    0.77328321519581   -1.48330660558125
C         4.95707968963480    0.40615022152682   -0.17043313985174
C         4.65627414644384    1.54095559377292    0.69356152190072
C         4.17481639013537    2.13015653175229   -1.44236962959207
C         4.03543031944438    2.55214485034841   -0.07940038706309
C         3.07086892256972    2.19087581682172   -2.27886511158469
C         3.82823943051357   -0.01072779856805   -2.27974673849988
C         2.89491177688531    0.89393692116226   -2.90282399548740
C         3.32553102127810   -1.23505054030468   -1.82137986317460
C         4.34546782906861   -0.74726862106119    0.37555409067088
C         3.61546112863795   -1.61915386202817   -0.44974355848101
C         4.01881117521276    1.01329091689396    1.83436987179138
C         3.79571825387322   -0.40458321913311    1.66659685632073
C         3.01780529757095    1.77211025591949    2.40323472693572
C         2.80915990666143    3.16120147185618    0.35946536269056
C         2.44632393465169    2.88859720541857    1.68851026138513
C         1.93324923015497    2.97336281810910   -1.91741878265722
C         1.72335168106522    3.43191953656170   -0.56729411763336
C         0.82378071678375    2.72490210807138   -2.71082969093472
C         1.63675597017393    0.47502007293473   -3.33826063368468
C         0.67972682027586    1.49368931344395   -3.45629103412566
C         2.09543163974354   -1.71548854082472   -2.42530547124508
C         1.17942989402143   -0.87042347341350   -3.13979163004363
C         1.60445291954037   -2.91322719635272   -1.94147800766397
C         2.72473202396252   -2.50741813027207    0.22697996776928
C         2.02105753872169   -3.38504219479902   -0.62782681308017
C         2.64137999551251   -1.02665973942489    2.16980546098746
C         2.17633511474870   -2.22058749559618    1.51703744052143
C         1.97538992855236    1.11503192153110    3.11529713546933
C         1.72705794084313   -0.26554934746732    2.98633819693810
C         1.10032919005921    3.03968744269721    2.13004865339269
C         0.89557552176699    2.04614669750968    3.14001849799753
C         0.36389180080848    3.62107497998225   -0.10702486093668
C         0.04657602327814    3.42910489414697    1.28590325726416
C        -0.46083306635878    3.16810165241878   -2.34144985208492
C        -0.75194195707416    3.57713607401880   -1.02884033468561
C        -0.68155810127294    1.19231562579755   -3.57343577571547
C        -1.37607226516673    2.35164911440888   -3.08574644936383
C        -0.22881750106341   -1.16731859050390   -3.14257102481983
C        -1.19080653107116   -0.11124151085707   -3.35357178939252
C         0.26599342802500   -3.34123140311506   -2.16849054976121
C        -0.71128740569758   -2.40564606759687   -2.59017928443898
C         1.03894347230829   -4.20666125063540   -0.12445822232459
C        -0.01608017024106   -4.29372423352417   -1.14152265832001
C         0.90601425586804   -2.80169187498306    1.89389212740056
C         0.43966560698905   -3.90781047350652    1.13878181233219
C         0.36713201288020   -0.73544481844536    3.15488650594344
C        -0.06904960759898   -1.98168992424809    2.58814189434787
C        -0.36089609741149    1.60757735596532    3.41021098926555
C        -0.62076685005144    0.20201762163416    3.49872739303200
C        -1.31323494688751    3.12451253845949    1.70701836455631
C        -1.47088436306278    2.28129870296263    2.82323301525531
C        -2.14048020204116    3.46940939645543   -0.60035981490202
C        -2.43158283474579    3.23633122156487    0.79380684604874
C        -2.66504542553755    2.27609330535385   -2.71255674625117
C        -3.10164735066664    3.02508455355328   -1.55862544642198
C        -2.54277923815879   -0.21554963486062   -2.87165125916397
C        -3.32007310937348    0.98062051292520   -2.75761440756875
C        -2.02215717070422   -2.44670650168156   -1.96684344343409
C        -2.90186674445977   -1.31431485833165   -2.01869366717785
C        -1.22028381114454   -4.26705799504007   -0.49510046821281
C        -0.95452002352125   -4.09097522222091    0.94193876448883
C        -2.22591886793889   -3.34667359774207   -0.88956619473263
C        -1.47360293818937   -2.14772911364292    2.31542867344923
C        -1.86725047501412   -3.16223185086879    1.40981894414325
C        -2.77297791268742   -2.83007681096075    0.32472113910887
C        -2.00049695686641    0.03846656952035    3.17253029486092
C        -2.54068126446167    1.33785391074020    2.90017709396691
C        -2.43216311290999   -1.08810379977981    2.47084289588973
C        -3.64611835425536    2.57606772576313    1.14514739484085
C        -3.62772897256836    1.49464420223012    2.09570693719158
C        -4.29606169622908    2.37903054319000   -1.17811656267549
C        -4.39028138369589    1.08267341922055   -1.88196584429184
C        -4.57098064540742    2.15583992449917    0.15244696320296
C        -3.84992070330036   -1.10249764976653   -0.94844143313344
C        -3.55031829034905   -1.69123875652473    0.33784910779895
C        -3.54901067750870   -0.92194712182338    1.55609333461277
C        -4.21626022443305    0.31560110924609    1.50727304015335
C        -4.62682790629858    0.07387721981535   -0.91610263206715
C        -4.85168202348026    0.73189813450520    0.32309909833582
