76
C76 Isomer 12261 Symmetry C1
C         4.97419211758449   -0.17003055872809    0.95444808545484
C         4.72810853058665   -1.51298608032240    0.76026200993486
C         3.77167646150518   -1.94015701238770    1.77983027274281
C         4.13094640473603    0.26897348540214    2.06642015643926
C         3.32299661505609   -0.81271632026956    2.52441824410616
C         3.51649027366505    1.44659092030813    1.67403385747921
C         4.84344047474311    0.76603506103672   -0.11866137231875
C         3.97769862829424    1.82113156160931    0.34175469441939
C         4.66019224409723    0.25179335011680   -1.41514051953328
C         4.25559971869702   -1.99502695935417   -0.50874849908264
C         4.26642240700166   -1.14055011156194   -1.59642037520934
C         2.81873356707051   -2.73094362586021    1.15564342309484
C         3.07713831736740   -2.78943368252208   -0.26653751101501
C         1.49379103504124   -2.72424967477970    1.63166939535834
C         1.93732288526680   -0.61804958882823    2.77311775899068
C         1.03001443652991   -1.69105649527936    2.49149879249164
C         2.19507054313717    1.72187926555010    2.08924684129900
C         1.39436160075200    0.71036624788102    2.70678486231660
C         1.55911104657625    2.80298934653024    1.39921113524410
C         3.08420830081230    2.48800394512867   -0.51473421136027
C         1.88266547763495    3.06543241695143    0.02929983721494
C         3.86141277668647    1.01406647709134   -2.29797082024449
C         3.08095871623568    2.09949586329931   -1.88161878754341
C         3.13235360764578   -1.17087470793468   -2.51346885780996
C         2.99297857230893    0.11880845369407   -3.03811428829894
C         1.98157830868264   -2.81086972065414   -1.13887412706982
C         1.95775213167860   -1.93108359539527   -2.27799081369443
C         0.57742463606449   -3.39790867770421    0.77936741685470
C         0.74801961539926   -3.32248802177528   -0.62887933956364
C        -0.70468195672938   -3.56174428586040    1.31795733309153
C        -0.40245100759218   -1.49652634819781    2.60481668588551
C        -1.22229576859700   -2.55446207377356    2.22157201537440
C        -0.04316299372220    0.90214348795331    2.79490862210587
C        -0.99120432841589   -0.19695962226603    2.72383465631212
C         0.29920252923490    3.14646425670605    1.88576329090718
C        -0.51659934328952    2.18761128095334    2.58831333007503
C        -0.55874307194931    3.91780353036079    1.09604685361725
C         0.78417390409617    3.37311720168281   -0.84687277612459
C        -0.40257148434891    3.87182141000460   -0.29997126325036
C         1.79868554752693    1.99823223816741   -2.55446696405664
C         1.73237759035371    0.71403358514780   -3.18169226638787
C         0.66100009608396    2.59806897188307   -2.06450810158182
C         0.67490290644854   -1.42652084036535   -2.69864053548100
C         0.55740387573773   -0.05004329612226   -3.08560002351020
C        -0.43175537684476   -3.25397572702850   -1.44360498565088
C        -0.52490414864155   -2.14312480128965   -2.36043687761777
C        -1.72465627591705   -4.02307402254425    0.51057622552613
C        -1.61507268487503   -3.81766597496964   -0.90523263807139
C        -2.61138966610736   -2.38882244669540    1.93517355013489
C        -2.95759494443726   -3.40679811403483    0.97985141832716
C        -2.36288769335240    0.00944569060410    2.34631217830606
C        -3.17040112793878   -1.09872109385396    1.85870210539760
C        -1.89683921667841    2.43532095279334    2.24614511727669
C        -1.92366981541436    3.56340386370547    1.40784015047237
C        -2.81338645244610    1.36094625045856    2.06201693212330
C        -1.70422264143436    3.58820853943042   -0.88055774267392
C        -2.65570247874242    3.53059047125737    0.20312901338935
C        -0.61550538154188    2.03449563136373   -2.44536179139345
C        -0.66036462078463    0.68144104126125   -2.89168915841148
C        -1.80551040380366    2.65989709802215   -1.93363696136896
C        -1.79625450914817   -1.52534109157809   -2.61228926839313
C        -1.87621702907277   -0.08975487506605   -2.83019027978112
C        -2.86669615053914   -3.32210517936488   -1.32099911930202
C        -3.70291961662273   -3.08498640688754   -0.13001683628598
C        -2.96088006910216   -2.17679394878442   -2.11326484199973
C        -4.18242975695022   -0.87257650368974    0.83281676143443
C        -4.31731004430232   -1.82113547964830   -0.23043901125999
C        -4.06315625126658   -1.39111903231703   -1.58553165987154
C        -3.84814978610662    1.58431914804010    1.13096005523065
C        -3.73037828845461    2.64861443809830    0.15939963354065
C        -4.46918195696241    0.45919520955206    0.46513667200473
C        -3.03335197472786    1.95626566983663   -2.07496547892325
C        -3.06286535681344    0.60143624689892   -2.56681127406299
C        -4.15635478306465   -0.06599983486397   -1.89790392651510
C        -4.04296099720674    2.09150633473104   -1.09856009247582
C        -4.64372644639421    0.80172688904683   -0.88887598677932
