80
C80 Isomer 23539 Symmetry C1
C         3.99998852623339   -2.49835817121328    0.41859086328893
C         4.11955107929684   -1.67459625244140    1.51815244144597
C         4.68450861023650   -0.40094187072403    1.06885289987826
C         4.42347236825142   -1.75122383130272   -0.77299898675131
C         4.84083950169259   -0.46220025714047   -0.35620072428501
C         3.41295010252908   -1.90240747373267   -1.72897887931222
C         2.76896467135544   -3.14300180508153    0.15011621646840
C         2.47273098223013   -2.87668827530819   -1.22727075201349
C         1.70920969160036   -3.10191949889848    1.08220909779541
C         2.97816780908154   -1.41697265498200    2.33424992750575
C         1.78876508677005   -2.17973754322297    2.18184314530478
C         3.92501810845866    0.61075002215389    1.64962460215948
C         2.91058714470878   -0.00255548911605    2.48897743429774
C         3.58987045942018    1.79674812224708    0.93979213168024
C         4.39026907838234    0.62812125008746   -1.09869081142157
C         3.96655356573873    1.82130622034068   -0.41919130448509
C         2.89369563088088   -0.79814620204343   -2.46946065050194
C         3.49772192960177    0.44697707051562   -2.21310784610375
C         1.53052670140941   -0.83050789698348   -2.94604708129841
C         1.17872376963776   -2.93369725741027   -1.69468528575934
C         0.72752234016775   -1.98320951879394   -2.68835391403480
C         0.43250842822927   -3.50350902125585    0.59198600265944
C         0.24016362908057   -3.58470931013189   -0.81957055223970
C        -0.71431661442004   -3.34969780333553    1.45045372000529
C         0.57599588947659   -1.60875863231506    2.67277683656168
C        -0.67760811748529   -2.28470252498151    2.41511221125412
C         1.70498443805624    0.63960517309538    2.76457330695657
C         0.59350653444730   -0.22946010169833    3.06416431550505
C         2.44256420909694    2.56032751826654    1.38848287966651
C         1.50873348882003    2.00879374612565    2.34842047763892
C         1.95190348570843    3.55057096792996    0.52836544140822
C         3.13950224252959    2.53794251813358   -1.33959451765074
C         2.75100621052583    1.66454439802979   -2.39464570139290
C         2.25117242739285    3.46770051541190   -0.87358747693238
C         0.87305215477199    0.42298455178055   -3.28255822647841
C         1.45346853245577    1.69798428896127   -2.91371490558110
C        -0.50114133532745    0.40958574357725   -3.51472389492400
C        -0.67888137827384   -1.97097045137050   -2.96193716349434
C        -1.27914116245559   -0.77300921970976   -3.37774877011730
C        -1.06130545113223   -3.76593164277386   -1.31474924578945
C        -1.55219482736696   -2.89936756809138   -2.36916754183773
C        -1.96699987139267   -3.79399977834529    0.94433596093963
C        -2.09928148456975   -4.08301105294207   -0.45278713029770
C        -3.16536750439443   -3.14195418659754    1.31582340381276
C        -1.90587262040002   -1.60414593814346    2.71911035723239
C        -3.12002358906904   -1.98258937143662    2.08050215380087
C        -0.61909396384185    0.42298907001597    3.29420204137715
C        -1.86808097628104   -0.25942858930384    3.11261400115633
C         0.21571202940088    2.60541787639793    2.49349956812187
C        -0.79336084732709    1.80032990880878    3.07081794778239
C         0.64339862798592    4.11477079442283    0.64004230906222
C        -0.22583169377212    3.71436211640285    1.67304325287875
C         1.06277206985291    3.73651164695831   -1.61153428304960
C         0.60494363555125    2.83438233373493   -2.58665780161433
C         0.15913296086972    4.36347591122667   -0.68859220940595
C        -1.35384532304433    1.52919109916377   -3.23479086537420
C        -0.83259901654284    2.74366515564294   -2.75862145138437
C        -2.57665226136971   -0.40556661531491   -2.93503509427702
C        -2.60511012562816    1.01589451409059   -2.80894678548037
C        -2.91359761707932   -2.58775379442522   -2.07183776855042
C        -3.28769312016253   -3.40833936609324   -0.96628847061200
C        -3.93301912561663   -2.83433060345855    0.10404880442212
C        -3.37510149805103   -1.23787172567620   -2.13502604929232
C        -3.93726350129542   -0.97585278931277    1.43121555538483
C        -4.27675269969506   -1.45006493682585    0.12148172990327
C        -4.05241867773320   -0.62511816619150   -1.00200795238732
C        -2.83308610641453    0.69213429194992    2.70911368733419
C        -2.19343291467993    1.97057264720324    2.74873634373071
C        -3.75117183298110    0.37732505533906    1.67179849760322
C        -1.62077076273587    3.90515501279299    1.42445508035777
C        -2.60306104101747    2.95667769399615    1.90115101511670
C        -1.19781101555802    4.36891888215768   -0.94885130063377
C        -1.71952883819203    3.52346083175203   -1.99406196720554
C        -2.06690969918635    4.30460828299223    0.15749626598886
C        -3.35881713645974    1.63602605634951   -1.79169300299254
C        -3.95080297597797    0.80482866614077   -0.76980810671154
C        -3.95279091921466    1.30286190895874    0.58107836775167
C        -3.54031319205290    2.63624475426422    0.82640279185206
C        -2.96402401569307    2.96840029990153   -1.51481770349497
C        -3.20408329804442    3.48316027080540   -0.22637091192161
