78
C78 Isomer 18067 Symmetry C1
C         4.59536048052207   -1.01435381729079    1.65223286769801
C         4.21289037156777   -2.21131493828624    1.08733893562354
C         4.40504703406286   -2.11304828404667   -0.36868569589949
C         5.07325102923875   -0.12594529116564    0.58394386503247
C         4.88752774208782   -0.80288512210185   -0.65880908065596
C         4.55206795953315    1.14695883039376    0.81186491648083
C         3.69065742848164   -0.29985961963407    2.47912449829673
C         3.82819509345961    1.07889337712912    2.07236982788499
C         2.40816505805459   -0.82375786412098    2.79440964465358
C         2.92949344783347   -2.74073871900101    1.35397015419733
C         2.02314574344239   -2.09396977428900    2.23621758745660
C         3.25346085283625   -2.60971257082493   -0.97247885072453
C         2.42811736440284   -3.16415126815994    0.08036237337958
C         2.58926347795093   -1.90642534333267   -2.03039867737823
C         4.25606674824133   -0.09395379127976   -1.68200450474097
C         3.15972613151015   -0.68793719550337   -2.41781924920903
C         4.01162787448895    1.93705102383942   -0.25507083672429
C         3.95560057468930    1.29666000013750   -1.51548663587437
C         2.99977578905619    2.93048278045784    0.05986339352712
C         2.80278846649052    1.94027045582901    2.30985938791700
C         2.45245646708129    2.97311045031561    1.36574337095291
C         1.34720184973618    0.10688927219310    3.10123414205268
C         1.61303806000469    1.48128585234176    2.95812976881874
C        -0.02996926580959   -0.29314969613492    3.12209172036023
C         0.63316048396203   -2.43211303830839    2.10876942288093
C        -0.38987957943477   -1.61892218541102    2.70494774996592
C         1.09383961735022   -3.39002279417154   -0.11724842967277
C         0.24270685454259   -3.31491564620935    1.04721131138252
C         1.18118688685677   -2.10574197246547   -2.23729125501240
C         0.54499348999177   -3.10558665486959   -1.42444853700111
C         0.34938157670060   -1.10599671715499   -2.83924236003980
C         2.30645254845757    0.35200540355561   -2.89463611538822
C         2.86717538281230    1.57981021548784   -2.40780008020743
C         0.92291409426550    0.19125339374019   -3.08590936283073
C         2.11185624673503    3.36844893755307   -0.94954744499141
C         2.03729267176734    2.64421978478248   -2.19256312887642
C         0.79873665482635    3.84257887103139   -0.67486043491237
C         1.09872923191946    3.30766392646693    1.61421490821318
C         0.58988014332428    2.40194069722765    2.61021854356093
C         0.22700650428659    3.77952624999897    0.61575911851111
C        -1.04519817990177    0.73067712109689    3.15719338304811
C        -0.75603051918499    2.07742147457447    2.72004130665016
C        -2.39137826031002    0.33783651569196    3.09901393834099
C        -1.78776553893280   -1.94242515765762    2.46159331550354
C        -2.77792031101751   -0.97860248109679    2.71032427909077
C        -1.10460582639191   -3.60732773943056    0.82645233176199
C        -2.14535413811446   -2.95689914004456    1.55000675023024
C        -0.81017406511902   -3.32854632777976   -1.58655284773836
C        -1.56399807540132   -3.83012454154145   -0.49258616465277
C        -1.09426480599960   -1.23551496125139   -2.81763874528607
C        -1.64257512011885   -2.43253576916332   -2.33738938903982
C        -1.95489021007211   -0.06380480620736   -2.85292917332239
C         0.07922713386578    1.37047494599777   -3.03933300621361
C         0.68050762779483    2.57676050955172   -2.63100737570734
C        -0.02753480489032    3.49292677347854   -1.79484569836419
C        -1.35126178318361    1.24288034482625   -2.89824929227908
C        -1.37722911896607    3.36652932477252   -1.64169158163753
C        -2.07180431699812    2.32398117806171   -2.33898243260812
C        -1.19510755864752    3.58544917549040    0.79034060255410
C        -1.69367221490148    2.84877392350469    1.92987458827583
C        -1.99986777788008    3.57738895523197   -0.36632659137667
C        -3.36740861891460    1.23299951892534    2.61670107594245
C        -3.02908789088852    2.40447625526932    1.91160382331754
C        -3.98275419627845   -0.87657166005032    1.90192746374641
C        -4.34936452821500    0.47703150188142    1.87067942691141
C        -3.28680098756208   -2.81158475364205    0.66675299136960
C        -2.89839380227806   -3.32263530921266   -0.58897735120164
C        -2.96027956937795   -2.49811119785757   -1.74450163649040
C        -4.12920601075233   -1.67458970170863    0.73490764142366
C        -3.26706643115092   -0.17370355694780   -2.33999078305006
C        -3.73571743521345   -1.35942520847623   -1.68976300750192
C        -4.44414049963229   -1.00236014849891   -0.48411409670109
C        -3.30918098578410    2.14742671653376   -1.65627471807654
C        -3.26632286061552    2.91139222422070   -0.42833739923489
C        -3.84079484791852    2.40756569191913    0.71463327494422
C        -4.59748611804244    1.16548823855962    0.66042022055983
C        -3.92601674259700    0.91738089800631   -1.67951481180505
C        -4.62246919773461    0.41935395425340   -0.52103714009069
