80
C80 Isomer 30816 Symmetry C1
C         4.53108739632923   -0.78069454136094    0.90496150642686
C         4.41589640782943   -1.09402349456121   -0.46371751208869
C         3.77370485058290   -2.38641927905231   -0.52726621455543
C         3.80657568242065   -1.76928827641636    1.67017231211845
C         3.32619046980214   -2.76225753842417    0.80677301781282
C         2.94375286030961   -1.10181218992578    2.55291839089065
C         4.20181760693690    0.48774988157546    1.41657054415479
C         3.19987123064487    0.31395718346931    2.45755365773380
C         4.08323245144975    1.51896887140919    0.49919503406527
C         4.10571498785653   -0.06710259314046   -1.40900594258391
C         4.08042370777095    1.25332650544325   -0.90624102969037
C         3.20404215610479   -0.39019296030440   -2.50392206352175
C         2.96685194486587   -2.68912887150169   -1.59447690337623
C         2.67506030111372   -1.69433828537124   -2.59536071499903
C         1.81861864658079   -3.51426135610125   -1.40736138066594
C         2.06532883561120   -3.33517754688275    1.04385032671279
C         1.40108406744358   -3.90832505403969   -0.11380755363108
C         1.64788708562467   -1.59910203815095    2.77277495149005
C         1.25859914189394   -2.82625681070830    2.12611526749053
C         0.66297126535122   -0.62911251264413    3.18203532256741
C         2.18990105731975    1.24851133630102    2.64707117389515
C         0.88662246044013    0.78658747841881    3.09159037254860
C         3.16557392553168    2.58140405373106    0.78445165064844
C         2.30061491141509    2.49142407812824    1.90341877278202
C         3.22369156456896    2.26131943324431   -1.48094267976725
C         2.70226460832569    3.11501744695901   -0.44757861864540
C         2.37066852559318    0.61521897589770   -3.04373111346165
C         2.39827489458731    1.96076475231804   -2.53340174348162
C         1.03907359899697    0.36146570785103   -3.46320513371751
C         1.34774761090338   -1.94324430830105   -3.03356621352539
C         0.84275710246619   -3.09958355417773   -2.35888309226646
C         0.45826673455458   -0.91743784649065   -3.39685777398167
C        -0.52987532702628   -3.29408868743974   -2.17559315871996
C         0.07451545590148   -4.30606879018907   -0.01090024399589
C        -0.85258392891187   -4.14511178874272   -1.08720782517795
C        -0.11824415846859   -3.24131727074854    2.21606386212828
C        -0.64637111541423   -4.13336608483261    1.23646553375545
C        -0.66191867380394   -1.07435789488318    3.25619329335290
C        -1.04470249397652   -2.39648782907133    2.85439273265278
C        -1.76402239736031   -0.20481766423229    3.08248798619701
C        -0.24279396856669    1.66814529334903    3.01465787620242
C        -1.59715604446644    1.16234440819796    2.88652808343305
C         1.20181185666025    3.33840758963147    1.86798111945101
C        -0.02392908466480    2.99063447758642    2.56011891878224
C         1.44636254481430    3.74597283557567   -0.55385014193092
C         0.85870716911007    4.06824017987912    0.68961683856263
C         1.07640860911397    2.52182629348320   -2.61279503040143
C         0.25206406824497    1.53838013981242   -3.21820608799652
C         0.56821391887898    3.42412096117593   -1.66241115985620
C        -1.12471352650390    1.47219398406307   -3.01949171187812
C        -0.96123627019077   -1.05379079246041   -3.16940090529804
C        -1.46856461988695   -2.26840251078097   -2.60024199086764
C        -1.75001202867067    0.15932096106192   -3.13602867267500
C        -2.76488085338848   -2.26069789725624   -1.96458912429866
C        -2.14211661271895   -4.10461017724337   -0.50612189288632
C        -2.00873056532243   -4.13459627325445    0.93633622176903
C        -3.05274258696878   -3.11930687305022   -0.85577536221503
C        -2.42605045095185   -2.32815813411665    2.46322380137837
C        -2.84349950042465   -0.95926490616893    2.50320297862882
C        -2.90086227239299   -3.16604789182341    1.46396605157710
C        -3.62407473544853   -2.57784996316131    0.37604132764838
C        -3.68117735831904   -0.39113085715989    1.53946583608701
C        -4.06717930813023   -1.25542646500493    0.43132345055022
C        -2.62778000850259    1.82879999107133    2.11893496972804
C        -3.60726024116351    1.05190377874761    1.37664149282952
C        -1.06161051016838    3.69316137938880    1.95258040239589
C        -0.52869372897108    4.30545941075831    0.74688042461324
C        -2.31550333014376    3.11898751033645    1.65173966242318
C        -0.86733627102217    3.47648048823716   -1.52936564124828
C        -1.70423770714789    2.55528439507156   -2.25629939445868
C        -1.38622956533440    4.02476465636681   -0.31641527134216
C        -2.59529035703066    3.49151180759498    0.28915554349724
C        -4.08637538613870    1.58966201290975    0.16575755304518
C        -3.03503498831994    2.35798580649221   -1.79933494592206
C        -3.42934385260295    2.71551815812142   -0.44565710362579
C        -3.07305682422934    0.05587466924339   -2.69610684650391
C        -3.52949657430050   -1.10176100983193   -2.00476017553038
C        -4.28171007713781   -0.65620172836070   -0.83960821217427
C        -3.70470944608091    1.18016394217346   -2.09658550569770
C        -4.40414496367717    0.71875971229204   -0.91713617336630
