74
C74 Isomer 8447 Symmetry Cs
C         4.75714169867847   -1.89631938961540    0.08253617212597
C         4.66933312559370   -1.20082285469361   -1.12534188648332
C         3.64196959418384   -1.85956148765276   -1.92853363300409
C         3.71490703585831   -2.93097854287705    0.08837370111967
C         2.99816314623836   -2.84874536543029   -1.12888740253916
C         2.98667611958799   -2.81426096464730    1.29300397400039
C         4.65432309354661   -1.17299834608266    1.28690573847661
C         3.62082338203939   -1.82017217267844    2.08859962577438
C         4.42381071058803    0.21453502312510    1.29779940241615
C         4.44043804497051    0.19778420451858   -1.16522986414101
C         4.38941904478778    0.93754356981769    0.06052954808407
C         2.88331558944175   -0.87034081888658   -2.54113696274288
C         3.39279728446628    0.42474325832721   -2.14236151367156
C         1.50682300049736   -1.05777628486582   -2.74483398146453
C         1.58315184059958   -2.94247598103426   -1.15162031271667
C         0.87679707380034   -2.20182013110586   -2.15811045616167
C         1.56527172232838   -2.91038178388641    1.30425147135801
C         0.86741704297474   -3.18099293213463    0.07648557398689
C         0.85080755530516   -2.16550073559554    2.29625601396995
C         2.85227414791417   -0.82436192153715    2.68479255961393
C         3.35922235619806    0.46142717087498    2.27128370991083
C         1.47447535016840   -1.01160872866184    2.87822722088512
C         2.51129195703298    1.56627414902650    2.21118598148239
C         3.60547977545524    2.10175632356367    0.04724960769408
C         2.83159866788585    2.51986067424387    1.19779929700095
C         2.54323623765220    1.53649846083614   -2.10701239674907
C         2.85615465130073    2.50027608929020   -1.10778536003667
C         0.72117577592691    0.11781845113647   -2.98806305230710
C         1.16999143790811    1.41767491243855   -2.57534244885654
C        -0.63908057849329   -0.09416027000011   -3.18474596102580
C        -0.54343426441696   -2.31810442666445   -2.20362321818473
C        -1.24894976471588   -1.36729488180373   -2.95436012718114
C        -0.55798962932329   -3.21270865248954    0.06913194909548
C        -1.25386800787634   -3.02466935861958   -1.17350658085830
C        -0.56968591580623   -2.28463730303731    2.33044116409187
C        -1.26610652454398   -3.00399992039068    1.30082510358625
C        -1.28475766517497   -1.32788520628776    3.06450163612178
C         0.68553041886326    0.16410413070705    3.09552323303785
C         1.13623203810989    1.45822662723843    2.67783438691653
C        -0.68075938012104   -0.04880948141621    3.28293118293169
C         0.12772624961167    2.36872570983674    2.21338937846780
C         1.83316772474867    3.39231991880516    0.76059110091438
C         1.84006663079442    3.38254468433762   -0.68067524170090
C         0.49464466243305    3.28672533894940    1.19623490689849
C         0.15840004251375    2.32667946082387   -2.12370474525898
C         0.51958596321442    3.26147341542611   -1.11490771473770
C        -0.34161900364131    3.39049773745298    0.04039521174884
C        -1.62628693263125    0.91054123938354   -2.95839342015802
C        -1.24822541982665    2.03993599876266   -2.22094486499702
C        -2.65725888820656   -1.16214925086316   -2.80269601590400
C        -2.89471328229496    0.26345875863141   -2.81279094084765
C        -2.66259124289765   -2.94149620432407   -1.16671267729836
C        -3.38974592964723   -1.98900644945406   -1.98211609826972
C        -2.67605959948151   -2.92261439628400    1.27796291807752
C        -3.35612073607912   -3.02610093657356    0.05345572374107
C        -2.69103506328227   -1.12881931507529    2.89788889700704
C        -3.41421634666280   -1.96469549830160    2.07810471143308
C        -1.66288891270224    0.94922469957225    3.04272761506014
C        -1.28029633628330    2.07765785125904    2.29893882566654
C        -2.93116568615647    0.29774782310738    2.89031165667457
C        -1.66422408803757    2.97041443704728    0.03242372105116
C        -2.19749830696605    2.50691113233019   -1.22482614139298
C        -2.21374028502968    2.52610395669464    1.28847681525358
C        -3.86439202620420    0.80931303022322   -2.00273696654884
C        -3.48895510101688    1.95976924227288   -1.20533253931226
C        -4.48796787722551   -1.44227861022220   -1.20078774575386
C        -4.48591320909594   -2.11422916780999    0.04238820774676
C        -4.50557586971174   -1.42880784516748    1.28085324862711
C        -4.71982359387881   -0.05329594243337   -1.21261730377234
C        -3.89205919789400    0.83074893273619    2.06559038909234
C        -3.50864010705344    1.97433305733851    1.25656428349545
C        -4.17770280164062    1.83843968203722    0.02583552092648
C        -4.73922976874530   -0.04197784004919    1.27566928174564
C        -4.92706285045330    0.60077024648018    0.02646690676804
