80
C80 Isomer 31562 Symmetry C1
C         4.47239886664188    0.87021167282172    0.93655952506769
C         3.54330009030684    1.58405729375135    1.73687960460514
C         2.93201722138282    0.64857702031144    2.64712824726674
C         4.41254883578209   -0.50908491030631    1.29954424057360
C         3.55909348646692   -0.62891425839038    2.42514902098354
C         4.16388591869342   -1.27985497012085    0.14000945831994
C         4.37488480708872    0.93303456236112   -0.47845238402226
C         4.04936372503086   -0.38250631196846   -0.98461209092734
C         3.78424778504289    2.04059104436431   -1.01725382707834
C         2.80904305767567    2.65451989691946    1.19244955849771
C         3.16631019125882    3.02297328472572   -0.14445604176583
C         1.45943727312149    2.86939550624797    1.65771026201324
C         1.56986831366044    0.73832918379234    2.96342017570888
C         0.84517487439933    1.91932813205047    2.55329607561878
C         0.84148353535004   -0.49076279524801    3.23956400914208
C         2.82340552484831   -1.78670449819885    2.53300557394420
C         1.48298060812456   -1.72543644165709    3.04428895328343
C         3.37179688339194   -2.43915514314519    0.22078041313299
C         2.87492648340135   -2.77714696132378    1.50327221835795
C         2.61083044049823   -2.81121484636316   -0.94942793518981
C         3.03805684915486   -0.55841016562671   -1.94380857994862
C         2.34800020011299   -1.83389466311503   -1.97968974531291
C         2.95518655218325    1.88830675893510   -2.18747520166599
C         2.44252421724894    0.62127254687200   -2.56211344909726
C         2.25008895113489    3.71182704320191   -0.94373591126885
C         2.12776029733723    3.02237879686937   -2.22025238292619
C         0.59870987042159    3.69023671819411    0.84171934430076
C         0.96640106774813    4.02353421865674   -0.49092570995423
C        -0.77798408720926    3.65874207990970    1.06741921390932
C        -0.57677343169243    1.92275998994717    2.77578469315897
C        -1.34514077797418    2.91137591057224    2.12837781236364
C        -0.59081329585061   -0.51581973347536    3.27585932287765
C        -1.28555449603621    0.74088325282019    3.22957933452906
C        -1.27404476178788   -1.73487072528055    2.93568546619273
C         0.78769112215701   -2.87093364394647    2.55096755134990
C         1.66369198895209   -3.52999284422799    1.62874032461128
C        -0.59440511016330   -2.85524500783239    2.36094116728688
C         1.69526457048067   -3.87332728940072   -0.76650111568595
C         1.14319400878852   -4.17080133447411    0.54215044620632
C         0.65078208011741   -4.04681797061350   -1.67127522940295
C         1.15090227834843   -1.92253792995626   -2.76858393919719
C         0.34959465076820   -3.08768897935817   -2.64605941910230
C         1.09920136840405    0.57664238623652   -3.07817926353223
C         0.49472539171975   -0.71557289540844   -3.24150238928883
C         0.77709002582958    2.95080821552857   -2.54576940285258
C         0.04830928502163    3.71778988012437   -1.56145102962348
C         0.24155397035097    1.74317873934600   -3.03721768925848
C        -1.74203161012225    3.72754541779900   -0.00034318243289
C        -1.30300887801118    3.49291005326397   -1.32548251780828
C        -2.74404342970816    2.74991364864177    1.83091636436229
C        -2.96169118043125    3.18793111667741    0.47273862132724
C        -2.69836493063634    0.70959949806407    3.10963452168040
C        -3.43614749044061    1.68746936962131    2.33704709893568
C        -2.65151352859343   -1.69019174994635    2.66123858862920
C        -3.35651907391698   -0.51323639001262    2.90014000158374
C        -3.19865494251226   -2.30082355487535    1.47847805054115
C        -1.17565704533797   -3.59826853450002    1.26336226899309
C        -0.29118513892346   -4.30626729093229    0.42268137733578
C        -0.57281110073757   -4.37734812176074   -0.95126856353787
C        -2.42533946425977   -3.14580406896441    0.68435547777800
C        -1.09383607741054   -3.02753706319397   -2.69623181961065
C        -1.64982582337770   -3.70148042511563   -1.54737338566965
C        -2.63853287036912   -3.09102021586575   -0.74620194967366
C        -0.88882966879173   -0.74599469092165   -3.47474396185491
C        -1.69034503148468   -1.88135065852005   -3.11485911039193
C        -1.19342485146157    1.63971892837641   -2.96741196969790
C        -1.99380559240973    2.52961193661081   -2.14754139525248
C        -1.72667514058800    0.39461535102622   -3.29649474161244
C        -3.75103485696040    2.42713791319145   -0.38059117153188
C        -3.24956969193721    2.09498833739109   -1.68982096114606
C        -4.40442012160785    0.99577403447068    1.49759304643137
C        -4.36533181254064   -0.35844103707026    1.86143185968193
C        -4.18473684454871   -1.39802895597237    0.93096592613726
C        -4.47624562405952    1.29718364622923    0.13329203360335
C        -3.39014482724576   -1.98375817578368   -1.30920893305046
C        -2.92027341736117   -1.44677497408960   -2.52169469288075
C        -2.99135836667076   -0.04614616775522   -2.78471238480516
C        -3.72943103802573    0.78024605519172   -1.97308468321603
C        -4.18476787325601   -1.11868414100999   -0.46110082687404
C        -4.40545336399494    0.23445109461270   -0.82924826217427
