66
C66 Isomer 1543 Symmetry C1
C         4.54766006834671    0.22236675590305    1.26625603339398
C         4.56319018112193   -0.30347627640079   -0.04944883261355
C         3.88093222404373   -1.56269816369405   -0.06327345412370
C         3.66178127679906   -0.58854956784551    2.03174063804685
C         3.33661373258249   -1.74578096242425    1.26149845741878
C         2.58540755559739    0.21442685951913    2.48388701851782
C         4.00355638180866    1.54813029329110    1.20514170708054
C         2.84349629895440    1.57456917347350    2.01705882328474
C         4.17984808568595    0.73223973557053   -0.96803601165793
C         3.89830813104121    1.92851990726782   -0.17134805098759
C         3.32122425324546    0.41026645273375   -2.01526110106133
C         3.08379804056758   -1.90919162966379   -1.18340904488479
C         2.78787175491823   -0.91455737762279   -2.16460341452810
C         2.08116644563329   -2.86187507694430   -0.96160095145876
C         2.09381742712936   -2.36027712100742    1.45816948980934
C         1.71774235376624   -3.21135854428432    0.38242215599766
C         1.26486721890043   -0.29617847069658    2.56077515663074
C         1.04321468601269   -1.67936273007428    2.19452723209232
C         0.16713738319567    0.63982528470005    2.55441692577039
C         1.75831536878717    2.39218393811869    1.67458454974992
C         0.44250838011894    1.99904936367215    2.14438437453803
C         2.83983190107534    2.74502619735918   -0.51836719828357
C         1.87914499381945    3.13524019463168    0.46894739305627
C         2.28516709132051    1.33086936281141   -2.42803364979158
C         2.08610188058805    2.51133236355058   -1.74119115657798
C         1.46672070591311   -0.80992617632896   -2.69733255137927
C         1.14326120253156    0.57887941315688   -2.84936798472998
C         0.87611652939887   -2.91849565413098   -1.75848079189577
C         0.45043596067094   -1.77505924579194   -2.48799173086289
C         0.41658890419308   -3.71244723283599    0.35311796115347
C        -0.09033269584384   -3.61344234023354   -1.01913293582528
C        -0.30833695029727   -2.13026242328296    2.07986380276684
C        -0.56794812988898   -3.24402993445845    1.21123566401382
C        -1.19166349968588    0.16116996021661    2.56836112968776
C        -1.40556915451614   -1.25140176533021    2.38349058110436
C        -2.29751317100186    1.07993672835779    2.33176112075862
C        -0.63074109053192    2.75821634091556    1.67252088447009
C        -1.98553379739060    2.34076300707653    1.78878624716599
C         0.68239301819380    3.48129067710445   -0.23244563045034
C         0.75424869770022    2.98607852027832   -1.57832835386370
C        -0.51158358255358    3.46966266805260    0.43243632776884
C        -0.17433042799687    1.03308199768327   -2.71951250522979
C        -0.37332137952780    2.33480203105566   -2.12472040962089
C        -0.93703505986399   -1.37025744109386   -2.47343754932465
C        -1.23641690904414    0.03714924567793   -2.67869584759223
C        -1.42598231278605   -3.24149440068983   -0.98859266465438
C        -1.78800117492308   -3.26410603884009    0.42110302167642
C        -1.92147132199065   -2.16608907242230   -1.78212690717039
C        -2.71700215391649   -1.67409447033295    1.98586977063630
C        -2.85365291450938   -2.57321688713748    0.84722067263670
C        -3.61352962682173    0.60149506955467    2.01144479429616
C        -3.78544185780633   -0.80205173784947    1.87834850520078
C        -4.41046822313089    1.21376405602555    1.00933566705512
C        -2.70937814616680    2.86264827049272    0.65468522352577
C        -1.72756544401233    3.28139553167438   -0.29505912916536
C        -1.65862177869450    2.66067465744476   -1.56676410260520
C        -3.87811175041328    2.25002247083108    0.21163256602283
C        -2.52865123675674    0.48775159020065   -2.42397029360245
C        -2.75978052888613    1.84089109841156   -1.92789041650225
C        -3.92217788362694    1.82678495764689   -1.15982995828235
C        -3.21336620169531   -1.63489651835284   -1.39877764153424
C        -3.76379019740799   -1.98898166083823   -0.12147712816545
C        -4.52050061513129   -1.07337854155383    0.62704629102014
C        -4.89772479971004    0.15876634703309    0.09976470030771
C        -3.56949583435124   -0.35707158139851   -1.89978935753271
C        -4.47942828278149    0.48173852206695   -1.19453813069667
