68
C68 Isomer 4507 Symmetry C1
C         4.21026926736089   -1.79831866104240   -0.46885718115226
C         4.69776919909759   -0.57591480720708   -0.04136140345732
C         4.40780609417614    0.41541356638945   -1.07984887988971
C         3.57209741662765   -1.57890870685120   -1.76316807085200
C         3.58840923765218   -0.18749624127112   -2.07785203565415
C         2.36672241372940   -2.27156713771888   -1.78013205462258
C         3.30225248609352   -2.55063110295037    0.33387742518439
C         2.21672626605359   -2.96560962531959   -0.51687482249997
C         2.97673379466084   -2.07925863552486    1.60457997467854
C         4.31804642155764   -0.03084766527831    1.22160551302090
C         3.50083997885036   -0.80851825104615    2.05377013808320
C         4.02294469700185    1.60068921421309   -0.43618300344034
C         3.98362630573214    1.36416986169748    1.00220699642396
C         3.01501039891548    2.35055784043819   -1.03737161302595
C         2.39318245425373    0.45824491706394   -2.53270958714022
C         2.24456377636057    1.79670806716961   -2.11618232747687
C         1.23173939075222   -1.70810509670372   -2.43132849086972
C         1.17913245336864   -0.31734427530136   -2.78436851187473
C         0.03885672751785   -2.36574756736669   -2.13573891389163
C         0.93552923305613   -3.21799894437096   -0.00945930901768
C        -0.09960513848680   -3.16501267356664   -0.96010693340573
C         1.61547669500157   -2.20022319294638    2.07535805282895
C         0.59636339832388   -2.83889585681747    1.34293601222519
C         2.44702729969755   -0.16890213385565    2.79447272082155
C         1.31137625626357   -1.04279824908025    2.84740488750864
C         2.98005502046949    1.96619116415312    1.74294166578144
C         2.21479585268579    1.18947336488028    2.68149525723129
C         2.11010204435360    3.11416231717707   -0.22764870544449
C         2.06338970686503    2.90597070943571    1.14322480931051
C         0.94749755434524    2.39004673873387   -2.07258093311830
C         0.87554461472430    3.23862756013200   -0.93074085512859
C        -0.11757250201378    0.31069666906423   -2.85869752760775
C        -0.19789423374824    1.71858467143190   -2.55739081071578
C        -1.23183045671081   -1.80891246255692   -2.43454065034375
C        -1.35482169166477   -0.45036906437940   -2.75220772528116
C        -1.46282318020883   -3.16050855855746   -0.57516261927529
C        -2.19072231322291   -2.48885196358650   -1.61296889746551
C        -0.77377967963492   -2.56718126158123    1.68537952203688
C        -1.83557744271318   -2.98933354653685    0.78107918645654
C        -0.00399146270628   -0.57174985153389    2.94715959711755
C        -1.04473507553584   -1.47443500972200    2.56273011566383
C         0.86576094893391    1.68391214938281    2.69490612322299
C         0.77786600234600    2.78053262200104    1.78304681085888
C        -0.24222841173316    0.85079525929433    2.90172102753966
C        -0.34469431324575    3.42408076597674   -0.26242317331200
C        -0.43290633036537    3.09709848599326    1.14130629557253
C        -1.42079747592278    2.29676471259447   -2.18225038056280
C        -1.47363798785495    3.19787716019634   -1.06995573283865
C        -2.64945571589113    0.16800030458935   -2.43994844983968
C        -2.66686883065771    1.56895520894777   -2.21993407712895
C        -3.42381443085275   -1.92598998045991   -1.35450009718425
C        -3.67829327585051   -0.56507588689138   -1.79119658530487
C        -3.16805162742196   -2.55786984666151    1.00017326102917
C        -3.99679929914641   -2.15978116669323   -0.08935230005860
C        -2.36393622081048   -0.95449184826396    2.64825515508364
C        -3.43276035706842   -1.61881040986122    2.04396815521078
C        -1.53624279714918    1.36442459675036    2.52899358547558
C        -1.64569366658659    2.51147241204587    1.66309803807637
C        -2.61411701398030    0.46869087852449    2.61736841271141
C        -2.72454416725540    3.03536323745603   -0.45522617949066
C        -3.52312843376493    2.13206602003725   -1.25561429888704
C        -2.83349296720614    2.63753568625192    0.89066453579113
C        -4.52964716839273    0.02261948240681   -0.78042868120728
C        -4.70213304117274   -0.93825468282128    0.26777720108065
C        -4.38108484949255   -0.61913601600203    1.57829059128433
C        -3.85402231511798    0.67205937742493    1.90773906348855
C        -4.32628943161539    1.35308798201424   -0.39974639809561
C        -3.92252010162667    1.68297737645995    0.96452808576281
