80
C80 Isomer 21151 Symmetry C1
C         4.76969993821738    0.41543048161018    1.31231677188998
C         4.81566440388259    1.11207909861390    0.10793712152748
C         4.77611080780732    0.13303744598864   -0.97932939015428
C         4.61760475447447   -0.98477603178378    1.00557313147092
C         4.52569111177761   -1.14011511105320   -0.41659240510713
C         3.59460569654018   -1.47236094399547    1.82401580485345
C         3.80807482961842    0.78633925409544    2.29410694192833
C         3.14439104614480   -0.40630566155963    2.70327623924821
C         3.05930065917929    1.98315384815241    2.11831590175272
C         3.89411480654361    2.14724802452375   -0.17492325468111
C         3.02719625689980    2.65298651455621    0.83614371343418
C         3.93060610874567    0.65131959972415   -1.97571603313117
C         3.40472026150016    1.91943804926224   -1.51748419456271
C         3.07173369878283   -0.22016886214586   -2.63424380933706
C         3.49762600573438   -1.97472824408589   -0.94816514143325
C         2.89610734867032   -1.55452053053717   -2.15358974096098
C         2.64540839449516   -2.38769069930117    1.34758126516891
C         2.64867028470263   -2.72487321830853   -0.05099732498349
C         1.42417993132419   -2.51746072529650    2.12004075000869
C         1.83006554315555   -0.38547160078482    3.20802190811053
C         0.91516879247735   -1.46357322053166    2.96096171403597
C         1.88885411743103    2.04382551550254    2.88387463468883
C         1.30960081510542    0.88124123964250    3.47807502533518
C         0.83930843518944    2.94889601049645    2.58005340613015
C         1.83651262725061    3.33200421172239    0.41290517359071
C         0.77188320057153    3.61965948346316    1.34705382828428
C         2.14242879972352    2.34963248125442   -1.88280672172787
C         1.48142689756086    3.26913088498651   -0.98237971982062
C         1.79548822776416    0.24947525445321   -3.07009332992783
C         1.33627188142451    1.52555384643887   -2.76519802263087
C         1.55512542586140   -1.94069147260222   -2.49116606533495
C         0.86951541678621   -0.84345170430202   -3.07395057989847
C         1.48804539385385   -3.36811584668521   -0.57620283601458
C         0.86333482165817   -2.92440269524387   -1.79457250515335
C         0.54064095061935   -3.48223671393504    1.70055514861443
C         0.64647396558004   -4.00398086447195    0.35739998377000
C        -0.84256393615759   -3.47899004421128    2.08482613040859
C        -0.50041797314949   -1.27815277637064    3.07968444772421
C        -1.41310607267705   -2.28929213707586    2.59300882631186
C        -0.09698017608355    1.07589113915686    3.58854712855077
C        -0.34609147001247    2.42683212619334    3.19260397681799
C        -1.01903063527381    0.04890705732876    3.35027661577288
C        -1.58054570176364    2.78703532686414    2.73794160041832
C        -0.53686748135243    4.06608847710238    0.90841522483159
C        -1.69838069922165    3.71517633869970    1.65039453309439
C         0.23316602210852    3.70408988713305   -1.39091364343624
C        -0.73058000482165    4.25262076488008   -0.48336186637367
C        -0.07224484925076    1.74284615113243   -2.88436509828786
C        -0.49537048685481    3.00916009501024   -2.44627262246490
C        -0.51709415376351   -0.68239946219576   -2.94883294492359
C        -1.02589023973015    0.66203681648650   -2.96207574991988
C        -0.57007283991431   -2.98147246659930   -1.98864856084120
C        -1.27859836025627   -1.80746617124658   -2.46592420554483
C        -0.61081058061454   -4.45088112465943   -0.02521027175713
C        -1.51029393798481   -4.27049766801128    1.10820943123353
C        -1.25640494873994   -3.93542861072840   -1.20014836258240
C        -2.72626655899934   -3.86154051765584    0.61455610591165
C        -2.60004720626397   -3.70367281077395   -0.84426255265402
C        -2.74641383992637   -1.91519581043214    2.14431473157452
C        -3.36178379630533   -2.71549621027155    1.14377080154043
C        -2.34849412468500    0.43431127687745    2.91301043671161
C        -2.61896622107315    1.80271513998253    2.69134202347043
C        -3.17279192855305   -0.53730168145578    2.23845383506747
C        -2.95594065144533    3.42620534365703    1.02941998422860
C        -3.52120843333937    2.26755349508354    1.67745252902249
C        -2.00205381252731    4.07059323753359   -1.06701349167454
C        -1.84603636477323    3.26030847479466   -2.25969676416428
C        -3.10652371027066    3.57652639713521   -0.35333846726884
C        -2.38903966184428    0.89196537324588   -2.57066680099077
C        -2.79316559522912    2.21441135808199   -2.24856213095380
C        -3.67325572966664    2.49441801578431   -1.13837861373267
C        -2.62773070711307   -1.55738076578990   -2.04745572818038
C        -3.24518304910976   -2.52215758538073   -1.19973120277619
C        -3.93038380326699   -2.06509835442843   -0.00832037425658
C        -3.14645177208103   -0.20692047973714   -2.01886320933166
C        -4.10552688316682   -0.04619582862395    1.29735180701498
C        -4.21265961784440    1.32846117118338    0.94602850192287
C        -4.25328837090989    1.42658336164592   -0.50215393925488
C        -4.29955512653988   -0.76853733107560    0.07270878083858
C        -4.11670616660588    0.11481391386760   -1.04091824008067
