80
C80 Isomer 27291 Symmetry C1
C        -2.33049872810631   -3.99859369640585    0.71071997330156
C        -1.97217514782337   -3.38606224197806    1.95119896540972
C        -3.07033216490783   -2.55297554986947    2.29499551008694
C        -3.53097342731388   -3.35482144271307    0.19517752514112
C        -4.01570966371379   -2.51780310106364    1.17452348781564
C        -3.25012559915333   -2.83806457584597   -1.10659915639648
C        -1.40793147401129   -4.02417583455046   -0.32425691826006
C        -1.97056018172416   -3.36409632387304   -1.48521944081571
C        -0.04572182350316   -3.88113762413759   -0.02906776761914
C        -0.65967742078875   -2.91814839292907    2.15861539832789
C         0.34725387989157   -3.40876852862622    1.25536421098391
C        -0.43843080673215   -1.61687589873853    2.77328471728018
C        -2.86560243790986   -1.25208811383852    2.73666314580061
C        -1.55926104171955   -0.74561535063700    2.99627442060279
C        -4.33598281238817   -1.16259959028753    0.89249337109500
C        -3.82811102039540   -0.43211781612101    2.02791225364544
C        -3.60468217240401   -1.49297709945893   -1.42283919512673
C        -4.17390468313131   -0.61525718711045   -0.40228208430275
C        -2.80479136787056   -0.89062556836315   -2.41628084777432
C        -1.10141736312890   -2.66863250089312   -2.33460884906598
C        -1.59269262895558   -1.47233102448170   -2.87708357552223
C         0.81855765155614   -3.61961294370700   -1.14654407335486
C         0.32166067209403   -2.83244389507651   -2.23564118194278
C         2.17287967207035   -3.61674292955691   -0.85083258829992
C         1.70169644318687   -3.00723352273231    1.46520937836330
C         2.64142355107390   -3.39513784221723    0.50130500318811
C         0.87602738255243   -1.06273390962158    2.80099774814694
C         1.98428898874933   -1.89170725583280    2.34917352547839
C         1.06607311900047    0.35549026249455    2.98925116810750
C        -1.37332443946891    0.68159450659444    2.96080977392092
C        -0.06160019580947    1.24821049601485    2.93228356609566
C        -3.60121355993441    0.89437450177513    1.91402989333953
C        -2.44650013951795    1.49833472014673    2.52663398858553
C        -3.98094041450818    0.82504522510839   -0.50211331957965
C        -3.87865982079122    1.56835808735182    0.68558469223213
C        -2.67534680703877    0.53246547854192   -2.54337855392701
C        -3.31561002381562    1.41275689043882   -1.65520791770400
C        -0.69411679014967   -0.41372301057860   -3.21109669378030
C        -1.38120837633556    0.81456686233805   -3.05786376673296
C         1.19336902827319   -1.82237337490904   -2.76416004692225
C         0.68845560560946   -0.50155043242091   -3.05540078581325
C         3.06649610978049   -2.95756470839400   -1.71311744765798
C         2.56707097355213   -1.91748568787150   -2.51428394915955
C         3.92709381905839   -2.75992942861725    0.41192281032384
C         4.18679294111218   -2.46850783223448   -0.95313835466117
C         3.28054996358270   -1.37734242997285    2.33376842729948
C         4.26937154857903   -1.81274687953194    1.37727034425382
C         2.39051139562264    0.89587736776912    2.83566285624985
C         3.48729817703781    0.03572922352542    2.57563787779659
C         2.52149427451678    2.21885839853255    2.36488673123124
C         0.09067488042677    2.62092177888001    2.49584271659805
C         1.38604421174249    3.04276267883737    2.16575246276871
C        -2.26410606009646    2.74913194471912    1.89868344927881
C        -3.17220761567555    2.81269992727244    0.77044781963317
C        -0.99550533671237    3.35945015190756    1.88111441554975
C        -2.75792389091907    2.70393288378665   -1.60353928243378
C        -2.79072242728169    3.47136658601891   -0.37938439003269
C        -0.67493130674585    1.99661291303202   -2.78624051698592
C        -1.49335774860441    3.00892535060812   -2.23018652334359
C         1.44368338624117    0.68695675616833   -2.72158721924470
C         0.75082570057317    1.93249383462296   -2.54338476185812
C         3.38467469926830   -0.74362545804078   -2.28041900530075
C         4.43384833652697   -1.13858651508239   -1.36898361202108
C         2.80421576959440    0.53122447772222   -2.23980970520035
C         4.96754099408220   -0.65767514364303    0.94165059054418
C         4.55329494274074    0.45099644558266    1.76193999326441
C         4.88997415678496   -0.23338838377063   -0.41032447674581
C         3.44777036940427    2.50121157528234    1.30022727999148
C         3.38045645613038    1.51700578707864   -1.33529976857823
C         4.38083506747963    1.58003638361978    0.91759493378910
C         4.40802555513517    1.12739892623952   -0.45399327180834
C         1.60970612473612    3.79750090288195    0.96417026986656
C         1.34923837447106    2.95103955702953   -1.70653013369310
C         2.72989330863785    3.21583865719112    0.29208951422593
C         2.58005394709860    2.66853124817699   -0.99257759780927
C        -0.74498887494100    4.23996135035397    0.79200132012271
C        -1.62805839145120    4.27615692773429   -0.31107959012751
C        -0.86052975890249    4.02785692427474   -1.49479498539027
C         0.57676542917520    4.28415300027760    0.22894322708047
C         0.51554703723192    3.96105005580352   -1.17995740182442
