78
C78 Isomer 4703 Symmetry C1
C         4.88712337498766   -2.41097237094245    0.32511223426856
C         5.35378648840214   -1.10105144129507    0.15929876916506
C         4.94219311904826   -0.30711574269283    1.28496441437172
C         4.05077031978823   -2.43748473415866    1.49285743756506
C         4.05829904311597   -1.13378125327440    2.07931229295038
C         2.79406202770613   -2.96672940290673    1.13248405772610
C         4.03250159478733   -2.70046080260149   -0.80410638345266
C         2.80874893193394   -3.18128201240164   -0.30635181807248
C         4.96221115502586   -0.65571852400852   -1.16887934017403
C         4.01421835526299   -1.61275480264188   -1.72147551836787
C         4.73088418255852    0.66771947553291   -1.35754359450793
C         4.69679135478155    1.06864427163335    1.10350477670976
C         4.81918934822609    1.59618331378898   -0.23391535827302
C         3.70064057578135    1.64792643546428    1.92996797301843
C         2.85970675578021   -0.59548848920452    2.61786632892490
C         2.78617017145663    0.80789729955542    2.65906536514201
C         1.59908996684504   -2.50403990619757    1.73546060440483
C         1.60604662726730   -1.31932375366098    2.53026740882980
C         0.39389157728350   -2.90584242973741    1.09916359590721
C         1.64609096827964   -2.93567570054396   -1.02843979694578
C         0.45175636549867   -3.21377808113092   -0.29390258796458
C         2.78978544569892   -1.17199036114584   -2.29026815918464
C         1.61807668609456   -1.96145057479898   -2.07099707823728
C         3.64266365454821    1.10294185107765   -2.22726646598909
C         2.57932178713810    0.23514494279379   -2.57986191259601
C         4.06984618788460    2.70750432577532   -0.60448773254833
C         3.38122363853937    2.42976075320526   -1.86474616517835
C         2.96666627955940    2.81132358073441    1.53481262417419
C         3.13845615427151    3.34244406702274    0.24949093078331
C         1.52497123187320    1.46614619629549    2.75799945083984
C         1.64780224127164    2.72424282026070    2.07356345984341
C         0.34842345955443   -0.65382056870339    2.71544852076753
C         0.31029084719482    0.77648408285666    2.82326084559526
C        -0.85859820028481   -2.50683265938655    1.64002403031438
C        -0.88362932366684   -1.32064202132778    2.42925996192437
C        -2.05625745127738   -2.95474751770792    0.97928972066522
C        -0.71065471160901   -3.14687428346951   -1.03032664772037
C        -1.97501734029303   -3.22754641531550   -0.41034220570735
C         0.33154109283013   -1.45908982769758   -2.46820904006773
C        -0.77764892737302   -2.25573992188995   -2.15165488750743
C         1.24333860780887    0.79052025332159   -2.68146860257617
C         0.08715163714339   -0.07591575521190   -2.72970808153574
C         2.08527774190684    2.93000887839482   -1.80185875841667
C         1.95948083683311    3.60720352579254   -0.52316211016074
C         1.01436950748188    2.15260277248669   -2.30903959237334
C         0.53429685246586    3.23102004560627    1.41929710320462
C         0.70743643494795    3.64745386505778    0.05467911052579
C        -0.90718138949384    1.50622126355038    2.53493805678878
C        -0.75885076584769    2.76692589701883    1.85316842235206
C        -2.14218711469844   -0.61065792310659    2.58524907401474
C        -2.15863856202788    0.84269092681046    2.54290449865518
C        -3.28687809472348   -2.48708351889416    1.45601519619386
C        -3.32051543551984   -1.31203759747609    2.30263261069695
C        -4.38938886673963   -2.38267131353248    0.55743372199988
C        -2.89634213576336   -2.59529855449434   -1.30136124404662
C        -2.11266309553757   -1.80326255055124   -2.23314119961760
C        -4.10898510683676   -2.17155368004821   -0.82624665554989
C        -1.26242282209774    0.43180760489709   -2.65117707774987
C        -2.40375697907522   -0.44990087309167   -2.45239284084167
C        -0.29683714698600    2.59389436275916   -1.95742236083280
C        -0.40003726981452    3.47585175662653   -0.84041903251641
C        -1.44508112198534    1.82458074763635   -2.34631870074948
C        -1.83821845891904    3.28170721637382    1.14747477708850
C        -1.64069701987784    3.66435527159078   -0.24231253607306
C        -3.33861551338773    1.52529013270736    2.02729391770881
C        -3.13870610087542    2.71802363560937    1.27421063228766
C        -4.53859841388668   -0.60635083632627    1.98878458663669
C        -5.22419221424799   -1.29561706743345    0.97244942257644
C        -4.48949648013764    0.79001022399584    1.67671546490207
C        -4.58288839607252   -0.84693749166953   -1.21079960003265
C        -3.69990615012275    0.02388976595700   -1.95983819372766
C        -5.35732730701904   -0.36997473175703   -0.12999743422755
C        -5.10261450507660    0.93762807188390    0.37085247453311
C        -2.71374465924847    2.27899313105429   -1.92307085870607
C        -2.78605250337199    3.28409006757715   -0.93541585828965
C        -3.79164785334174    2.88075100213922    0.02654024441270
C        -3.84081317225144    1.39051549378407   -1.71206664790582
C        -4.55150201937549    1.84509616380674   -0.52912204004477
