72
C72 Isomer 5631 Symmetry C1
C         4.94068084501172    1.46650624742388    0.02368293228525
C         5.20083727369368    0.22389087531045   -0.51531922817976
C         4.52242818424363    0.11564128047785   -1.83424934615468
C         4.30036621104728    2.23832637286540   -1.04501247426462
C         3.84094111021040    1.32061698696279   -2.06902568664232
C         3.40825297256841    3.09564144195965   -0.45070205916906
C         4.11135852102767    1.59074209802247    1.20466941414416
C         3.32075556311945    2.73792065323479    0.97680406222082
C         3.46482453778589    0.43626601720340    1.78751226393912
C         4.86753595456608   -0.90982994539197    0.22110481657231
C         3.98508788368393   -0.81341263701430    1.34683013909664
C         3.85365491139226   -1.12479056571066   -1.88432241676320
C         4.25221190428622   -1.84071303753991   -0.70890995120310
C         2.49730170004281   -1.20750948416002   -2.33588973844328
C         2.45919109004429    1.28954530938280   -2.44308219192075
C         1.80989051626482    0.01363866270032   -2.67473367292422
C         2.10087655785367    3.22818976989778   -0.95233424848450
C         1.61785804146200    2.36842119440742   -1.98868713695149
C         1.97871163706087    2.78980559051441    1.32971427031685
C         1.26403071378811    3.34535180912343    0.20823224853370
C         2.04403040908404    0.49675053615571    2.17560340932499
C         1.32209555154200    1.71983037002409    2.00031016531285
C         1.23232283880852   -0.70643307013739    2.29347425579180
C         3.10209552787097   -1.93684658651133    1.26381947825394
C         3.28099982192888   -2.55017603247140   -0.02225714748742
C         1.82316105432738   -1.94199774104259    1.84435106862581
C         1.72934012361396   -2.35559683233799   -1.91230689946266
C         2.17077940022449   -3.04802446654683   -0.73446513599971
C         0.34712999534164   -2.45446851324029   -2.27363141865679
C         0.38301693662812   -0.03078610079341   -2.87399995975522
C        -0.30267063890799   -1.29784579025708   -2.83906176993933
C         0.20887396771807    2.28244465601298   -2.12030089038030
C        -0.40631436951793    1.16721704407811   -2.76562155542649
C        -0.08868955263481    3.24866820211644    0.11004405252763
C        -0.61613298624815    3.04456134409004   -1.21187562270667
C        -0.11089632140279    1.77565183299021    2.01862488378735
C        -0.82516283403655    2.72803330690157    1.22248332204007
C        -0.19640755250939   -0.65703665128326    2.41807951493393
C        -0.84956247602380    0.62482295957159    2.43913002543486
C        -1.03416346517151   -1.81026210536084    2.11191302853738
C         1.00216800348169   -2.99953872407424    1.42124584427956
C         1.22601076537669   -3.61211260771786    0.13182733776058
C        -0.40666238885853   -2.97856661270379    1.64540370068352
C        -0.46063763275587   -3.41885731193905   -1.60033538795466
C        -0.01450007828217   -3.97368998236216   -0.38609163696752
C        -1.03213174242190   -3.73592584727430    0.62193806430426
C        -1.87698100391188   -3.20818814397030   -1.41662869207059
C        -2.20015633771197   -3.31367392775325   -0.00394949198106
C        -1.71515122060671   -1.28840475925237   -2.88242756087534
C        -2.49580142887916   -2.23076506141100   -2.13177992750478
C        -1.84709457548544    1.14293783344812   -2.85212723719483
C        -2.49354401518021   -0.10199406595363   -2.94877778201099
C        -1.97994139197991    3.02997400721694   -1.30555708076021
C        -2.62632037817535    2.19409069538444   -2.27673278052246
C        -2.24550684123254    2.75633401305144    1.12529417828221
C        -2.82154200403492    3.13932046733715   -0.12954811363605
C        -2.24585732635481    0.70301117717974    2.42720605642999
C        -2.96616890913893    1.84251742779154    1.93674733413725
C        -2.42769231731405   -1.66186720602765    1.75218423669542
C        -3.00966656516499   -2.34316584404718    0.62160062072799
C        -3.05440024826307   -0.46251392214816    2.14741249591685
C        -3.66455433323820   -1.57411433317935   -1.60597494319617
C        -3.77626166033701   -0.34059815146076   -2.31212241358588
C        -3.97028835373573   -1.65370248781365   -0.22244997219510
C        -3.94336427889849    2.01173592880145   -1.83078742887273
C        -4.08432064070542    2.64644047970529   -0.52137000305363
C        -4.51927012607549    0.70808726985316   -1.75728521338673
C        -4.26222169193916    1.39609187606779    1.54058718325727
C        -4.27095294205844   -0.05153153813094    1.60317940722390
C        -4.70069780069903   -0.56601458062606    0.33188052891392
C        -4.79645204020293    1.76439429597218    0.30377400021474
C        -5.07968005500438    0.53653463440815   -0.46293012382261
