78
C78 Isomer 21346 Symmetry C1
C        -4.49950285073015   -1.89074284596712   -0.70207116178127
C        -4.55827787215457   -1.42733769115679    0.63632231941997
C        -3.58261072314476   -2.15830721653692    1.41137481907620
C        -3.51169969505315   -2.93304384940695   -0.74936583264511
C        -3.00679017728602   -3.15858035554924    0.55815256441674
C        -2.59607218630045   -2.64296631837288   -1.77519126595416
C        -4.23502586653731   -0.98483811351323   -1.76411550120732
C        -2.99932652518915   -1.39626145762905   -2.38598471401135
C        -4.46374308416900    0.36798147186155   -1.54994129238916
C        -4.71500208502314   -0.06484786905766    0.86937101658622
C        -4.89614205395313    0.77695785855568   -0.25361590277277
C        -3.84072617818566    0.63088208704648    1.80682689863096
C        -2.76084124026641   -1.48283296433983    2.33894133576604
C        -2.81102901127151   -0.03497744091647    2.48094148317530
C        -1.55888363932379   -2.13427303594173    2.65815379540145
C        -1.68632691942020   -3.60597522856890    0.70698239163219
C        -1.08234916772895   -3.24882817467306    1.93666423322356
C        -1.24431566108375   -3.00755680246654   -1.65572181637543
C        -0.83894888412159   -3.69812714735485   -0.45855815132179
C        -0.29257100531584   -2.24709855722948   -2.41101758353985
C        -2.02028597538890   -0.47370972379548   -2.76081362807912
C        -0.66608000119888   -0.94809736980768   -2.89274936841358
C        -3.50513948672225    1.33755067939842   -2.03294462682993
C        -2.27791960919774    0.94819245346826   -2.59391430589984
C        -4.28016002042717    2.03972371697030    0.03823003506549
C        -3.64357133315043    1.96438942311321    1.29755902551609
C        -3.53721937257303    2.44093064483199   -1.09691974750543
C        -2.43928492254012    2.65636404615586    1.52845100379075
C        -1.60344645936432    0.69652641235585    2.84929814456492
C        -1.47380238547795    2.06015884926124    2.42689002854450
C        -0.41631658636582   -1.42174730165633    3.18026680013183
C        -0.40698346906470   -0.01691069240888    3.23548978807459
C         0.33833039762070   -3.29064839682673    2.11108260167876
C         0.75306430763358   -2.17043041901496    2.91660765846796
C         0.54047534562814   -3.84357386501119   -0.23970769911701
C         1.12549442257084   -3.70441721228825    1.07402508406645
C         1.10147740512973   -2.57702505397246   -2.25436836175047
C         1.49785686513940   -3.38354060110693   -1.15640114243310
C         2.06858278623010   -1.73735563878453   -2.80170614354880
C         0.36529344049897    0.01012175014995   -3.16595842460353
C         1.67493502694023   -0.46637225187102   -3.31323571306654
C        -1.13673489342941    1.84427198176154   -2.48519762640977
C         0.18796330073514    1.39712932722888   -2.78957237617597
C        -2.40732151900079    3.19096761187194   -0.87266477948992
C        -1.96887602811372    3.46318797422585    0.46145158127203
C        -1.24557968080174    2.99628474772769   -1.69172981942931
C        -0.58885552229751    3.78919349935934    0.35551994954879
C        -0.12284931884344    3.50664140083261   -0.97158749694628
C        -0.18392060195601    2.62874280615429    2.45048583404251
C         0.25795011234891    3.52273914025199    1.39995063734973
C         0.90921104619223    0.58027549826697    3.25255929242427
C         0.95843881641645    1.94719171151243    2.91549224625354
C         2.03226325845989   -1.59853551292053    2.78265770493892
C         2.11799639047781   -0.19882601979578    3.09249397556828
C         2.45007993909511   -3.17897935704720    0.93747990466834
C         2.73089515488487   -3.08996730531318   -0.44600495943823
C         2.95730131098497   -2.22139883156299    1.85134680231015
C         3.40355990742104   -1.60634082205712   -2.22825309949408
C         3.69324725944786   -2.19509641326538   -0.95693741031515
C         2.78105617854086    0.40191255548562   -3.14391421695369
C         3.85784221192202   -0.32141804106533   -2.51319559756335
C         1.32260369923737    2.13464054780158   -2.29848760977112
C         1.17647534789016    3.07517923210648   -1.22052604676463
C         2.62261326017383    1.61006993930180   -2.47668394491756
C         1.63944859850841    3.31587787506340    1.14837661761368
C         2.10631977780516    2.50438912027636    2.24363675823495
C         2.15200077454331    3.11230161517233   -0.14477848673330
C         3.30893131407188    0.46239425554622    2.67589382538614
C         3.26197405435058    1.80546029630611    2.14253913325333
C         4.06011782078880   -1.48060278811736    1.37409269179934
C         4.43866593176401   -1.44752408494324   -0.01892772041515
C         4.28166347095886   -0.20097044359583    1.92211069692776
C         4.44110851857704    0.51763174678124   -1.51538157454160
C         3.67852626701074    1.73517487689330   -1.47592534841630
C         3.40906641932247    2.40236165359884   -0.26642392434870
C         4.02471581906496    1.87318330345593    0.91007535315589
C         4.85575748635814   -0.08988708298924   -0.32636805324534
C         4.74322856742791    0.67198818774678    0.85406844263741
