80
C80 Isomer 23328 Symmetry C1
C        -4.77248843391685    0.32235965647927   -1.64849405709034
C        -4.86956292399081    1.09280331889244   -0.51370686724630
C        -4.97566970453132    0.18228013332918    0.64092552944927
C        -4.77439025965832   -1.09370322515191   -1.26459421623150
C        -4.91134849741197   -1.15821059345948    0.15073385724953
C        -3.69106344057737   -1.69341528275673   -1.91525265619488
C        -3.70835484390883    0.55685040980546   -2.55890680272488
C        -3.10053224632176   -0.71375963869823   -2.80036562479841
C        -2.89620166705471    1.71211350568112   -2.40114939774566
C        -3.89934249530186    2.10075275343948   -0.22553984434071
C        -2.91469592487753    2.47561117664973   -1.17966582479143
C        -4.07958388444730    0.63270609148615    1.60340348287160
C        -3.51401764311254    1.88678051997808    1.12408575236992
C        -3.23821530266158   -0.26875396276437    2.33534746924310
C        -4.08141314722098   -2.04733438923507    0.81889046863739
C        -3.37300710023717   -1.62389101476396    1.99871894029715
C        -2.82195850382167   -2.61853207784063   -1.26033482393393
C        -3.16971690592502   -2.87469912920235    0.08142871889537
C        -1.43702726662709   -2.77146851502818   -1.69012840928790
C        -1.76408067544980   -0.83357418588460   -3.18872802532246
C        -0.91787308820169   -1.91741013248505   -2.71292915158662
C        -1.67089796531251    1.62699601755712   -3.06597809211814
C        -1.17863640885891    0.39131087525947   -3.55413950026341
C        -0.54059463919981    2.42361519290968   -2.71375945501300
C        -1.70000621238138    3.07206437624994   -0.68891586525757
C        -0.49784601675100    3.12496538884685   -1.51216101512766
C        -2.31601692265638    2.35982522321001    1.61457298888040
C        -1.52604184823374    3.18143555885479    0.72312313860983
C        -1.98690314409957    0.22007777240792    2.87494605623128
C        -1.68130350499068    1.61267017387325    2.68008824904342
C        -0.91301987039632   -0.67177020073433    3.18896480725963
C        -2.23819668266060   -2.47345130442115    2.15344553886257
C        -2.13232768984175   -3.25876612048447    0.97930576026399
C        -1.08533331147693   -2.05467883138032    2.84243042413940
C        -0.50226217570936   -3.47529334573114   -0.83940473657696
C        -0.89899706121240   -3.72540058320268    0.52305126964044
C         0.89537998114582   -3.48438356236399   -1.15845464938526
C         0.49653253201146   -1.83994259380644   -2.97003845830545
C         1.39176441652927   -2.70574830872826   -2.25591506894367
C         0.22633181086518    0.49920686695073   -3.69351475730276
C         0.62950578945761    1.77794099452880   -3.24446464074536
C         1.03976751521106   -0.63675194846862   -3.57157721233845
C         1.91489395667178    2.00575528972243   -2.73779958857941
C         0.82550930078737    3.40176632423649   -0.96163053508240
C         2.03553987929673    2.85079917597912   -1.56937031964547
C        -0.29044492654688    3.63279129196561    1.21624513211026
C         0.88319743953562    3.78769763159457    0.37592186184953
C        -0.43728106240933    2.06869296341482    3.09605368024413
C         0.13145473662365    3.21912045164044    2.48291926240840
C         0.44886174452554   -0.19196525613719    3.34629733086258
C         0.63719977238850    1.17924835688591    3.39767052590360
C         1.61950246756329   -1.00369600269387    3.02921549244442
C         0.03451640374400   -2.86639400252507    2.64883059948817
C         0.06781891950730   -3.79083559422142    1.55593462945583
C         1.37592905018559   -2.37483742040893    2.85805335355714
C         1.82586190099123   -3.82547756998155   -0.11684381756618
C         1.40467248467704   -3.97435999884137    1.19609308915295
C         2.23758796339405   -3.14198306393315    2.06282758445134
C         3.11654594746172   -3.15842172788980   -0.01777289216244
C         3.25783652112663   -2.57461869481524    1.31147723068597
C         2.79156572404545   -2.40442730343726   -2.28952776774002
C         3.60676754804166   -2.51015475604751   -1.08859401105327
C         2.40881499752055   -0.30706955527284   -3.46545561784719
C         2.84962016478974    0.99299343227443   -3.02560207912233
C         3.27727342221330   -1.27300689141355   -2.93457158012913
C         4.35835140136374   -1.27966197033359   -0.88495429139334
C         3.98158832522292    0.78720905908904   -2.15970347604967
C         4.26035386139681   -0.59360679982921   -2.09384595306972
C         3.15745713326326    2.62071540686254   -0.75603014770988
C         4.04851890361252    1.50886017964615   -0.98015333256131
C         2.02455813101344    3.48865253906390    1.19695136841160
C         1.55971663895843    3.06418433793589    2.46527504284247
C         1.87462981865136    1.78688176047798    2.95383206084905
C         3.09163483526478    2.80085808483127    0.65707625243244
C         2.79825138799327   -0.43420761630196    2.41056543062327
C         3.59000168826632   -1.20814397870707    1.47916729853060
C         4.26355936486233   -0.57711541915799    0.36002397514887
C         4.23093942174617    0.82730774350658    0.26522241599770
C         2.89369416189954    1.00441050621118    2.34369731958523
C         3.59714593416770    1.61161202681273    1.28516117340458
