80
C80 Isomer 16615 Symmetry C1
C         5.16172732281222    0.44172729087351    0.83703241288453
C         5.01856025461121   -0.92564979718536    0.63275735652129
C         4.79328458557748   -1.12873557920581   -0.79665732931836
C         4.83631967628297    1.11954961252263   -0.43956268645649
C         4.49330433530727    0.13519892140117   -1.39120948332996
C         3.93243648356112    2.16131054101421   -0.15700640574280
C         4.41267037210597    1.03882716451808    1.84657260423836
C         3.80765324397043    2.22465997447422    1.26973762399443
C         3.38487901584415    0.31821505666480    2.53843314262177
C         4.03291372153923   -1.67730470664972    1.33196552725774
C         3.13628067527676   -1.05539720667155    2.25166684763672
C         3.90977710087361   -2.19346862169768   -0.94365581386994
C         3.47965106644053   -2.58972652070306    0.37296349750445
C         3.00482473600321   -2.19879513495174   -2.03115058072981
C         3.32706800566596    0.27431583417813   -2.21841354273372
C         2.72720944859250   -0.94419462021209   -2.69897120286805
C         2.78124150784091    2.35366034256607   -0.97230389824661
C         2.51064702031481    1.45554248593226   -2.06627877177789
C         1.65537024481091    2.98988298857020   -0.36174986768746
C         2.54320962948079    2.36201600058998    1.82243125760327
C         2.25916494518029    1.19932241082270    2.63863497405026
C         1.51677722522328    2.91364137749951    1.05844389185388
C         0.94871368676028    0.74686500525406    2.77176497937577
C         1.76929918280260   -1.54149576376844    2.34228238170514
C         0.71029135395184   -0.66660038285316    2.76302719865397
C         2.22774816322034   -3.17423033734705    0.55239878451349
C         1.37381863278634   -2.72170479944599    1.62675826628575
C         1.98907515564583   -3.15323622350264   -1.90698531258419
C         1.64600302849730   -3.68061470384336   -0.62926221235951
C         0.76325050356499   -3.07111215991191   -2.64944210513279
C         1.47614027536135   -0.85284565426041   -3.33816811475841
C         0.51646679617471   -1.91727796450457   -3.35733622445191
C         1.18647574360694    1.48755560333741   -2.64699306488511
C         0.74533710215521    0.36054740685044   -3.34331616729381
C         0.46300154580248    3.21860703875771   -1.10962922490639
C         0.16949296896069    2.43068986645155   -2.25520468523231
C        -0.60233497095494    3.81678967875628   -0.39736576220916
C         0.21778319467794    2.79676063171481    1.64879911626627
C        -0.11720634904760    1.67143139572219    2.46722946701365
C        -0.77859118466943    3.50075704633258    1.00916076992947
C        -1.46963331436151    1.26581334363835    2.55284363877324
C        -0.64568235931435   -1.10098350484160    2.82997474261258
C        -1.70810308068632   -0.11816247177661    2.88672545390819
C         0.01945594667395   -3.15440168465955    1.64936201705549
C        -0.93874055665348   -2.46297237155412    2.46987278311684
C         0.26582150821528   -4.00836757014029   -0.64044828912031
C        -0.29701834360282   -3.66166487712128   -1.90719004859885
C        -0.48465636707926   -3.92496869863729    0.53553061740310
C        -1.62701449315024   -3.18434629130465   -1.99441254220901
C        -0.81327269258254   -1.35729705745461   -3.35775242309916
C        -0.65723708395377    0.04080861918237   -3.42750555148680
C        -1.90331545055282   -1.94640190919362   -2.68202185833954
C        -1.22154763449982    2.23483280043149   -2.62682975120969
C        -1.65840635247994    0.91019177115491   -3.01561953226071
C        -1.86620076139562    3.90106763226248   -0.95935512759254
C        -2.20373801756652    3.07342044201571   -2.06486709494757
C        -2.15060529775225    3.25931114605763    1.27635682951883
C        -2.52041653887251    2.08953283113760    1.96975507533174
C        -2.85582930928112    3.68606422372362    0.10029783212056
C        -3.75068849284432    1.45628089819790    1.53550807935739
C        -3.03774614735333   -0.57516290955921    2.77064318753862
C        -3.97904753178769    0.14695461245256    1.93602017655995
C        -2.29459204485848   -2.87991250751021    2.41881898065522
C        -3.32093348771905   -1.93828167068169    2.65228439082441
C        -1.87941026935588   -4.00769360222012    0.30759070458725
C        -2.45552741253316   -3.55620289701932   -0.93651342090537
C        -2.75612160022078   -3.69867609494829    1.34035659680467
C        -4.61879846460208   -0.80465435257590    1.07513940440347
C        -4.33717617504742   -2.07824388088257    1.59947016578891
C        -3.65654769369954   -2.83443621606499   -0.63388034088474
C        -3.94044098431167   -3.09356792907172    0.75532838850223
C        -2.97244316181261   -1.09260122981177   -2.24314983979624
C        -2.88318544120871    0.30746478826939   -2.53827250581916
C        -3.88133998000841   -1.56483740107789   -1.19358678842063
C        -4.53143141604165   -0.58675447635436   -0.33816502310737
C        -3.50688385862181    2.54788220507811   -1.78888105125810
C        -3.87702513631731    2.93572029861988   -0.42374837216406
C        -4.33983211356643    1.79432741114094    0.27814028662638
C        -3.78987331440221    1.19229239264728   -1.89571348928620
C        -4.47455052140428    0.75514269036148   -0.69250394431857
