78
C78 Isomer 9827 Symmetry C1
C         5.59026723032205   -0.26975302125362   -0.18816688690086
C         5.29285746141835    1.05008532333208    0.02874935725198
C         4.61137511973242    1.56758839592488   -1.16579251872733
C         5.09471348913065   -0.59347632174880   -1.55138729833639
C         4.32560532862138    0.51070639819640   -2.06039760853830
C         4.51860388219084   -1.83142163692320   -1.47236356343652
C         5.11607612063191   -1.27781366643925    0.72699628618939
C         4.58423447565476   -2.31790143575897   -0.07949482468021
C         4.35163518198368   -0.86972008686458    1.84399084068485
C         4.52851751023829    1.48286374668891    1.16421496274341
C         4.07939891344347    0.52941045709079    2.07277617368156
C         3.60126991243579    2.42134755025927   -0.74666421681176
C         3.56710862158923    2.44079432503413    0.69855089743529
C         2.40141913486565    2.46874276734430   -1.50071107202450
C         2.97697104723850    0.32419118968420   -2.53455513872447
C         2.01988616153878    1.39115282126306   -2.36967055053670
C         3.21317162910465   -2.06390410916078   -1.98201209297896
C         2.44488993602946   -1.01063227614717   -2.56166209207479
C         3.35925302697529   -2.91828317787918    0.19385703809408
C         2.58698567323336   -2.91953819464522   -1.03033050073158
C         3.14916038674744   -1.58115567388435    2.18298839724569
C         2.62631856147265   -2.61064316081538    1.37586839056162
C         2.73844117934102    0.65131758977605    2.61858242533019
C         2.21629065933973   -0.64962022851931    2.76671598725763
C         2.33576996096979    2.63756581746199    1.34510141460271
C         1.85033912410112    1.70614023792347    2.33378399432445
C         1.39759703134196    3.18512801944557   -0.85754591096335
C         1.36567370862242    3.27369568737657    0.56267037753663
C         0.06568102088226    3.17623767140278   -1.33809711186436
C         0.60451413238527    1.18554090736122   -2.61742061208566
C        -0.37656130130672    2.18407033186333   -2.22240756936424
C         1.03228032116084   -1.21761205206986   -2.63614031004518
C         0.11595138823678   -0.13158624742100   -2.85248278391767
C         1.22163245523204   -3.08029578561025   -1.01567563848118
C         0.50103193302837   -2.41632028593386   -2.06042418234634
C         1.21501620653787   -2.86152609320951    1.39369857715626
C         0.54466144778293   -3.34262981701444    0.22421493505377
C         0.84234429121887   -0.88376272708640    2.82947353712441
C         0.39560195449218   -2.15378575216119    2.33012130196367
C         0.42818107282498    1.51413533464672    2.52276312291448
C        -0.07158393525716    0.22638549939603    2.86862634201378
C         0.00393904020354    3.32354833430874    0.96784143632696
C        -0.74746344257132    3.55424751065122   -0.22627115637719
C        -0.51618830801177    2.45310964624566    1.93937458949969
C        -2.07539104694784    3.30426404680895   -0.25381544816112
C        -1.80580831334682    1.93712068195654   -2.26181447948890
C        -2.65147737744009    2.67405281086918   -1.40161734612551
C        -1.31562088809177   -0.38692646889757   -2.90555887955963
C        -2.29957089638226    0.66515573939651   -2.71930133433523
C        -0.86374043645087   -2.62887154158462   -2.08174305863618
C        -1.75490386742758   -1.69803947729543   -2.68951614605621
C        -0.87103299805698   -3.48398994609274    0.19034768573549
C        -1.55333732186847   -3.30352433133177   -1.04009862080031
C        -0.97250617597986   -2.37111323048575    2.31612846638191
C        -1.62020212713150   -3.16417607635896    1.33683870679979
C        -1.49851883666266   -0.03854762554580    2.85333028972414
C        -1.90176643059601   -1.37384865313399    2.76009684060871
C        -1.94095297796599    2.19824659500691    1.91756113553147
C        -2.72995544315610    2.81854008581069    0.92023332974443
C        -2.46417163858004    0.98140519399774    2.48766488632893
C        -3.93558743413178    2.21642011082999   -0.97955172695272
C        -3.98148959884553    2.30349449810118    0.47313685237876
C        -3.64730457444945    0.32688162286254   -2.46688092616322
C        -4.50335712713247    1.13466369888638   -1.62979872265687
C        -3.05997795063744   -2.02251992017036   -2.21034365708420
C        -2.93221533422361   -2.93407149123478   -1.11096644414764
C        -4.04494325758516   -1.04858515276618   -2.21493981567711
C        -3.00345639543381   -2.78826787188985    1.28242565482562
C        -3.18280572743998   -1.75409270865993    2.25108250681431
C        -3.72923450735983   -2.75454554278325    0.05754488206335
C        -3.79185297588769    0.60704598998771    2.19510627796305
C        -4.59030162238648    1.30328337319901    1.21238433314551
C        -4.16950088908625   -0.79091841381365    2.08540290534019
C        -5.35864281389959    0.27124043765193   -0.87363681148635
C        -5.04259603851188   -1.09749753661269   -1.22383859337034
C        -4.83728022741314   -1.86015680229530   -0.02721075224356
C        -5.39666639895364    0.35272386262059    0.51496524848901
C        -5.10769909569105   -0.96646976916426    1.05109601602541
