70
C70 Isomer 5478 Symmetry C1
C         4.74222627702480   -0.74873147430558    0.52238656755650
C         4.62388124157944   -1.09067143584922   -0.81592150805811
C         4.40991922619239    0.13619110376240   -1.57511259875795
C         4.62080919524125    0.69456366165694    0.62356704482623
C         4.35111472371953    1.23754410948647   -0.67595485642812
C         3.74224569930172    0.94983250124873    1.68466748019061
C         3.88174953356542   -1.34141785786026    1.50568965804081
C         3.22167954633816   -0.29216967319457    2.23915610468605
C         3.13267282556117   -2.44283147381663    1.13168964643248
C         3.66152701488833   -2.05604515269064   -1.24160089981922
C         3.03230984819361   -2.81866618550684   -0.26755761445737
C         3.35334471342019   -0.11562643869629   -2.46815875634766
C         2.84557364954964   -1.46565423313079   -2.27542158544281
C         2.44312127162166    0.90322811765526   -2.72228183303619
C         3.32781895879065    2.22500643612007   -0.83297772120191
C         2.45525686268270    2.10530619037820   -1.94687331701470
C         2.88057168590781    2.03560862456505    1.58568524706833
C         2.71182951859774    2.73031240851865    0.34499306581005
C         1.63815965701045    2.00435866920714    2.28272603772444
C         1.88228420483082   -0.39495824872474    2.67401319139052
C         1.08019446566839    0.81215731483422    2.78522945807403
C         1.84881070514830   -2.63579451227117    1.73021367596516
C         1.18627670081533   -1.65047232393396    2.49453973451458
C         1.69793975707314   -3.25951876016775   -0.50328932400452
C         1.08986130584631   -3.39411810123023    0.78567557214877
C         1.47206446710914   -1.75324016628504   -2.40232654525438
C         0.90165060807193   -2.77967175607854   -1.56303783485763
C         1.09198016234195    0.57512269940977   -3.03707121438256
C         0.57584332068106   -0.71954332234487   -2.88923249667505
C         1.10077212531419    2.58786239575595   -1.91319789236293
C         0.29175255952792    1.70277552350549   -2.66685795321249
C         1.38155507724957    3.26580300842983    0.34489767249571
C         0.80869897622538    2.95841819857418    1.61421122022611
C         0.53336530296428    3.21771329304024   -0.78376388316305
C        -0.54658616729802    2.90939050506024    1.77296921059934
C        -0.36237258714261    0.73605598673902    2.92124725232004
C        -1.12832598225534    1.87062751403591    2.57857285317335
C        -0.26137998862073   -1.71883239144575    2.60557546937768
C        -1.04358763218531   -0.54004718349178    2.90407115982633
C        -0.26009233365315   -3.46809931525995    0.89719362622160
C        -0.93419322080574   -2.76991529567637    1.95098080682559
C        -0.53399646703808   -2.90002701025801   -1.45651472570192
C        -1.07474348036741   -3.44667834040966   -0.27507926284403
C        -0.85680576460659   -0.85229773759459   -2.80420287130488
C        -1.40597106548208   -2.04604435321965   -2.22844202217865
C        -1.09162649454378    1.60876143297515   -2.52761998404863
C        -1.67785393065634    0.33568359582789   -2.87265216366710
C        -0.90533521401596    3.16914522371405   -0.62424478566241
C        -1.42219046318658    3.20828882995584    0.69016366523611
C        -1.72936367391026    2.51088096721639   -1.60867283527290
C        -2.50185172697037    1.80178832394480    2.20332165505356
C        -2.69377352505200    2.64341191757633    1.04116257233722
C        -2.43989535397019   -0.56466419828510    2.65733794535973
C        -3.18390529770676    0.60776167697117    2.29503187589784
C        -2.30399193236955   -2.70130641643308    1.55550714658817
C        -2.39779253336629   -3.15114912974627    0.18469717186076
C        -3.08763592514315   -1.64732836399587    1.96905346834047
C        -2.80097094190154   -2.08406792863022   -1.93485447427074
C        -3.30710026014199   -2.58937613530685   -0.66869764464495
C        -3.06997850175468    0.22314614009916   -2.68281281835408
C        -3.62819917314554   -1.01819688411240   -2.29321300319809
C        -3.09098372309019    2.25235198192258   -1.30042026376791
C        -3.58303380891394    2.27633419913525    0.06697373227127
C        -3.77315019272605    1.23393187025039   -1.96727087496188
C        -4.21964303654184    0.27301468846126    1.34036681603671
C        -4.15199653701044   -1.14618297095285    1.12829980487145
C        -4.31239163146512   -1.67613379538312   -0.16334908136166
C        -4.61140749377355   -0.78814271930979   -1.23016458900609
C        -4.46413865003026    1.13975361781014    0.26397622181636
C        -4.68659647721300    0.57948855775428   -1.02199459644137
