72
C72 Isomer 10201 Symmetry C2
C         3.81286385898506   -2.48769574170564    0.45610345524006
C         3.80770936859458   -2.37319403346338   -0.91659547683088
C         2.63337937518949   -3.08960067879562   -1.42095574073342
C         2.65260946597683   -3.27786212025107    0.84819534731392
C         1.91312910799294   -3.63677369342438   -0.32808143747304
C         2.01232146296215   -2.56425200145197    1.86139341197063
C         3.88290749206289   -1.30624555233300    1.26437225862211
C         2.78411403589602   -1.37670108736101    2.16792920109208
C         4.27716333276268   -0.07102628055172    0.69080267269347
C         3.86630191021193   -1.08529012775345   -1.52391810802955
C         4.27561403354727    0.04668845489903   -0.76229457134098
C         1.97682582722757   -2.23120152135484   -2.29883726188297
C         2.75487931041695   -1.00883870918603   -2.41528261271538
C         0.57138577705570   -2.20351354329997   -2.36904255693844
C         0.52023594430602   -3.56220164726732   -0.31599795323860
C        -0.16906910772088   -3.03821239588600   -1.47259167255531
C         0.60763882772263   -2.56246258493128    1.97121027370377
C        -0.11166732629258   -3.30204873961892    0.96489406125191
C        -0.05041633478048   -1.47377789807229    2.64766433369013
C         2.10976388260736   -0.22809981918260    2.61346975934124
C         0.68160597666066   -0.25503362024588    2.85465725425747
C         3.87156243937941    1.06168098082577    1.45332541562614
C         2.76204761336873    0.98729919996476    2.34715473092152
C         3.81415294913627    2.34981291341697    0.84622971515610
C         3.88235242275460    1.28263750855140   -1.33498100889359
C         3.81619210614116    2.46411824539561   -0.52648301820652
C         2.10423169468971    0.20774918867493   -2.68012055082609
C         2.78166050988316    1.35512556889019   -2.23606238022044
C        -0.04811464583037   -1.00261861449504   -2.88880297427074
C         0.67556984953897    0.23735418362097   -2.91806084901535
C        -1.44609432756404   -0.97195016937354   -2.89595297155023
C        -1.59894797309780   -2.91765119160671   -1.41897925185549
C        -2.23842036206775   -1.97660173162411   -2.25025150917299
C        -1.49324495560192   -3.24840187631569    0.98996697650821
C        -2.27429772808447   -3.27717760817043   -0.22493742640048
C        -1.48663777828669   -1.47164428821738    2.68068644394247
C        -2.19253619129855   -2.48489778791460    1.97542791710070
C        -2.17571601103399   -0.25639427157768    2.86476824224507
C        -0.03984901325149    0.98627250884792    2.82703234900853
C        -1.43789083779209    0.95821735740967    2.83739958469286
C         1.98602081086610    2.21112046506299    2.23247359666007
C         2.64222840518303    3.06836184256771    1.35323294779589
C         0.58067042037517    2.18602084648157    2.30588463098048
C         2.65655965407638    3.25645294783711   -0.91596747063223
C         2.01273097147607    2.54408995615286   -1.92779102849000
C         1.92046681629661    3.61679499664736    0.26194732101976
C        -0.05376442543819    1.45741425270948   -2.70938731462628
C         0.60780244606140    2.54489620427583   -2.03440294580011
C        -2.18176584479894    0.24399725736711   -2.92169662164899
C        -1.49005478207272    1.45796024164158   -2.73915080263854
C        -3.49892735793523   -1.38267228440903   -1.91153998813804
C        -3.47317527154151   -0.01578873774305   -2.33981466294394
C        -3.52416796006901   -2.71577966631084    0.08257427810376
C        -3.47925438335368   -2.23528483832944    1.45390455324750
C        -4.12987386584755   -1.72005726987104   -0.70698990549642
C        -3.46792579293195    0.00581819370742    2.28575754073367
C        -4.10328352126018   -0.97656474683596    1.52326269945119
C        -4.59201729970022   -0.65670872438712    0.18698893634668
C        -2.22979605006100    1.96435361459628    2.19353426515619
C        -3.49218476032517    1.37274356247786    1.85763982423048
C        -0.16027431730626    3.02213137340488    1.41117795114810
C         0.52740758557350    3.54481218927430    0.25300534426103
C        -0.10782269876026    3.28576159280799   -1.02641903409770
C        -1.59050792373689    2.90428111841025    1.36083492779767
C        -2.19249889412260    2.47247521544687   -2.03220785330084
C        -1.48958384243552    3.23466425083407   -1.04831495977135
C        -2.26784144161505    3.26492600679708    0.16824280394552
C        -4.10497204399294    0.96773608889558   -1.57584301396715
C        -4.59127755717722    0.64879919985805   -0.23846511442804
C        -4.12514138844651    1.71128335053366    0.65444888605915
C        -3.47856545732582    2.22537919169137   -1.50793396818547
C        -3.51952621202147    2.70599553334151   -0.13643989499998
