76
C76 Isomer 3036 Symmetry C1
C         5.42614574714371    0.84927939914793   -0.93035813764388
C         5.36162415928775   -0.49891486963542   -0.40321821503139
C         5.21988080259839   -0.42197230125492    0.98590580722783
C         5.08503626028662    1.75088695034668    0.13758289498085
C         5.04779241533516    1.00404873935468    1.32513359156200
C         3.89896926746570    2.50383665668402   -0.22273895593429
C         4.37474205000744    0.94071541799815   -1.86591217397929
C         3.50715940372806    2.02711293944114   -1.51709378822867
C         4.35377194819842   -1.22852925291481   -1.12100890767807
C         3.74914365249084   -0.32899354275975   -2.07591708075026
C         3.48925863880032   -2.10350654923039   -0.45370560863024
C         4.20748695167681   -1.13996526321384    1.65501079490513
C         3.41079632828907   -2.09422262941921    0.98426899436129
C         3.95598729861721    1.10983469586091    2.20321468367126
C         3.50399550894881   -0.22079795701349    2.51190541566645
C         2.89372349886696    2.79825711491526    0.73197175903422
C         2.98072636080266    2.13842955974663    2.01594195410561
C         1.59130386996723    3.14689138887519    0.23193369014581
C         2.16738599328194    1.97989783991440   -1.88797012687748
C         1.30688041958135    2.84400360336870   -1.13438520951450
C         2.38063611222570   -0.40073574882349   -2.40418066877176
C         1.60467002084929    0.79830382208482   -2.48643155371375
C         2.31643470463662   -2.49495863284422   -1.19431985991738
C         1.68764776414072   -1.62586554469486   -2.14218317721746
C         1.53464605119845   -3.45633345135253   -0.55156495141537
C         2.17352516016884   -2.50379187229505    1.61241799470104
C         1.41281541888037   -3.41591695228209    0.89452003650160
C         2.19154229561933   -0.47739787370989    2.95474868751341
C         1.50746852539371   -1.68868769768834    2.60502129132380
C         1.78444162276686    1.94248971552368    2.70565993385853
C         1.42600458144387    0.66103963793811    3.25584276398667
C         0.44438605262136    3.22633424031103    1.10610753764109
C         0.58133400571053    2.59583280329833    2.35065570485006
C        -0.89987372329924    3.38007268901798    0.61806522442529
C        -0.00230746807237    2.89748766618039   -1.57597837515611
C        -1.06680442998513    3.39295517439033   -0.77441744643166
C         0.18452994071134    0.70439355119333   -2.63788941949907
C        -0.54104503489821    1.88351381417983   -2.42287311327756
C         0.26569324683657   -1.72260744027521   -2.37463942794906
C        -0.53479830482429   -0.54473719649463   -2.59242541600683
C         0.28292853976256   -3.77906205058976   -1.06710308822414
C        -0.39742244750415   -2.88268718761217   -1.92798518668413
C         0.05198693305497   -3.69607548405339    1.22800728804145
C        -0.59677298590630   -4.08562455313735    0.02841644373652
C         0.08700763033739   -1.78763413218203    2.78742276543673
C        -0.63048417341973   -2.87098047294941    2.16045521857759
C         0.02417877953378    0.58511541843923    3.34415671809855
C        -0.51794393365806    1.83871697058739    2.88522535302676
C        -0.67305635350323   -0.61223459446054    3.16349782355627
C        -2.05138589864081    2.94576271683726    1.39456795988772
C        -1.81562415294109    1.97749461840813    2.45521055487350
C        -3.31105978417431    2.93702457687381    0.79159888025097
C        -2.28232919353717    2.97234024321399   -1.39190293900426
C        -1.95622015187484    1.90047822697876   -2.29814586546856
C        -3.43997686825932    2.94086151697448   -0.65381412778080
C        -1.95436540204360   -0.54934122560189   -2.33857306115904
C        -2.68796774211954    0.69776654024012   -2.27589377756612
C        -1.77566975109627   -2.83977932685186   -1.52377185403718
C        -1.87708725332957   -3.61831282330897   -0.29922637894522
C        -2.56036750445761   -1.70740406173302   -1.71168165443559
C        -2.02299343365123   -2.73635677695500    1.97108497486701
C        -2.64278284320793   -3.12143124385613    0.73913231139127
C        -2.09219698407204   -0.47010671823268    2.92125344538275
C        -2.69726879022191    0.83864195576581    2.67815244769784
C        -2.75941678273413   -1.59670163874928    2.43640550942190
C        -4.31800036873372    2.03193952130817    1.27983103547323
C        -3.98224225878332    0.92055697836980    2.14001528842616
C        -4.40548926474171    1.95075316439424   -1.01324254928432
C        -3.97665646570129    0.77315199440877   -1.65803554134064
C        -5.08305160982555    1.56072732486217    0.20002581017182
C        -3.71424182977844   -1.55023801774497   -0.82543358883510
C        -3.69306492092328   -2.20700528671210    0.42684544500248
C        -3.93288925761840   -1.44772793986320    1.61980195851836
C        -4.59977518894723   -0.24975113777246    1.55239800708577
C        -4.47291580763023   -0.36403499759587   -0.88075450453160
C        -5.12113959715145    0.12847525843058    0.27236173153415
