70
C70 Isomer 6668 Symmetry C1
C         4.44133759216884   -0.98008417857556    0.08538899905080
C         4.53877628916749    0.24001089555588   -0.54252291151832
C         4.32033305371134    1.27955437689086    0.46299720830038
C         3.97842930289118   -0.72829299223688    1.46698686936686
C         3.77033725712374    0.66277516339375    1.62317885098767
C         2.99819333902528   -1.65426157857114    1.77846423908224
C         3.64670048789480   -1.99396734200058   -0.46393479658767
C         3.04613912194908   -2.62169651003014    0.69360588302598
C         2.79350036068292   -1.75571722318390   -1.58266565446408
C         3.71061358210066    0.53145079780834   -1.66433087969722
C         2.75709691254323   -0.42065484630692   -2.13282209096660
C         3.67747875182470    2.34823822745735   -0.16462059414443
C         3.35611883282348    1.92279764294081   -1.52083234097983
C         2.70868413202099    3.02642864425834    0.56924543837724
C         2.50981992146477    1.09467821986819    2.13950927486140
C         2.12580850645453    2.38723653611088    1.72492431533465
C         1.70940496909830   -1.28300355796588    2.29068752224109
C         1.45713604100146    0.13476530292882    2.45827147218643
C         0.64059709811527   -2.22838169669137    2.13262029543964
C         2.03641274297427   -3.47283712120676    0.50970514553434
C         0.91096821311909   -3.45462249706048    1.42986221785794
C         1.66706073686776   -2.63822147613109   -1.76037552044000
C         1.54418692358836   -3.71353834756280   -0.82881737449161
C         0.45612833396781   -2.17793256537351   -2.41716188485750
C         1.48777185124001    0.06990598558586   -2.64943238436226
C         0.30544858194466   -0.76000279571543   -2.71356554743595
C         2.20464332631840    2.38792396667323   -2.09255222537946
C         1.28948895621841    1.46238546435889   -2.71111540924406
C         1.66196584422079    3.71544934194819   -0.11652447803733
C         1.43496833624707    3.43107032165802   -1.46437197682483
C         0.77644038355281    2.81302797622904    1.82575390947103
C         0.53085085275511    3.76046369320064    0.76797951371233
C         0.09433625534335    0.56670742377412    2.53477891452239
C        -0.24038514880570    1.95857304654016    2.27878361994784
C        -0.73037997037470   -1.81080068646778    2.19789094922180
C        -0.97178878318077   -0.41666892515727    2.50298919214154
C        -1.77508270109313   -2.59378850451943    1.57350146447556
C        -0.08272272408124   -4.18077845887800    0.80442556653142
C         0.32632734915231   -4.37116558980862   -0.61395244629663
C        -1.43020313448945   -3.76091487409906    0.82978902398967
C        -0.71812938087429   -2.95372455850345   -2.27430870983213
C        -0.76591550169535   -4.08187876714196   -1.39306702925270
C        -1.90845816191357   -3.89937628572339   -0.50557287918343
C        -1.99074254082587   -2.31095327171589   -2.15431461663176
C        -2.70386541057217   -2.89771680504033   -1.04899879531440
C        -1.00046282265283   -0.15128107322817   -2.74856509628321
C        -2.16223103625153   -0.95023046568847   -2.43540341143104
C        -0.00443005327526    2.05111872160788   -2.66346631839347
C         0.09101564396044    3.29208628320362   -1.93553662528160
C        -1.17045943145078    1.27959624923549   -2.64845956955774
C        -0.73710505378231    3.89398754019439    0.26082170072424
C        -0.96895910138260    3.68274710671277   -1.14276469664572
C        -1.59460915218572    2.36289045385048    1.97898178606923
C        -1.83984128459224    3.32616087610901    0.97098828110228
C        -2.30093825458564    0.02698856571245    2.43118138074652
C        -2.63249429937762    1.42831223264432    2.21499302769548
C        -3.00809641080709   -1.95929194108941    1.17978859144380
C        -3.47679185763007   -2.10223221178685   -0.17942388071398
C        -3.33005136052627   -0.75991612537312    1.84023375670884
C        -3.34228631049953   -0.37881069918816   -1.91095206148472
C        -4.05296335786898   -0.99385475125593   -0.83418165785684
C        -2.36693473750877    1.88139034107595   -2.08054779343621
C        -2.23824129118728    3.04232039524397   -1.27871171287299
C        -2.88817521391167    3.10493713803875    0.00986682334663
C        -3.48005503795059    1.05499986928886   -1.77179248851379
C        -3.84931995419957    1.50989315378212    1.53867287492738
C        -4.28525223646774    0.14325914422078    1.27779945181508
C        -4.62141649097151    0.04936314103101   -0.05947829427845
C        -3.92958082403533    2.24856199650409    0.31297261335399
C        -4.33715085252557    1.33154248764040   -0.69849602090176
