68
C68 Isomer 1035 Symmetry C1
C         4.96695880641104   -1.52985779313995    0.11356061426039
C         5.01937116612651   -0.61478643479902   -1.02167241855736
C         5.24351860802618    0.65587740875455   -0.47628680983008
C         4.79264325027816   -0.73769291840778    1.31956068951302
C         5.01062504840159    0.59149803637323    1.00301852786645
C         3.55042375370072   -1.11490388539026    1.94771787205985
C         3.83871637146117   -2.33180132441829   -0.01721236419890
C         3.03933153865859   -2.21824170396800    1.18607372728163
C         3.84850315833764   -0.83475953249418   -1.82722286642175
C         3.17703021174533   -1.97949790968076   -1.24739145330922
C         3.01580176737320    0.23686583333415   -2.27472427778647
C         4.49370239984059    1.71895277355249   -0.95207242846372
C         3.43563774991273    1.54570363177120   -1.88593223016305
C         4.03872378597998    1.57977361603372    1.34275386121110
C         3.92526211396214    2.41905699311926    0.20251698433446
C         2.61379428379006   -0.14869014982347    2.38277090736329
C         2.83502235117102    1.24910628970938    2.07724777853138
C         1.26040420222376   -0.59730225587312    2.59068983839013
C         1.68691939680249   -2.46875470546802    1.10688346494072
C         0.81374168559713   -1.83616819885131    2.04575048966746
C         1.80611507422110   -2.14581963993175   -1.34290241092560
C         1.13430713686688   -2.74005207499523   -0.20551592302500
C         1.58690950014468    0.00875586895375   -2.48237165066045
C         1.02664537541932   -1.26318178693536   -2.16925578724180
C         0.63744158361770    1.10314195668222   -2.51382935679202
C         2.40807083403693    2.47145822130393   -1.50391978675475
C         2.69732687170510    2.93496456231333   -0.16815967469987
C         1.08789830854020    2.33447472614077   -1.91546822161041
C         1.67980783951205    2.08503641260689    1.91735787428927
C         1.65223528003029    2.98679871356726    0.79071465348052
C         0.25627507702457    0.36572865759706    2.93989008213159
C         0.40680563320005    1.71773505188926    2.49231215053654
C        -1.04348104341402   -0.12524834819340    3.20587182572937
C        -0.58616697908879   -2.16773533997812    1.98258731766493
C        -1.49243090236877   -1.40396833791344    2.70611408575888
C        -0.21416802220113   -2.92275104919831   -0.30407965448951
C        -1.09903637149599   -2.83062726895600    0.83026472715700
C        -0.38749935506124   -1.48702676669009   -2.25682334340654
C        -0.94135142269869   -2.50120940418337   -1.45578055389361
C        -0.77254052189081    0.89409991263647   -2.63373163561022
C        -1.27963111161654   -0.45148553358553   -2.71471698227526
C        -1.70551122797060    1.90890078978870   -2.15829742951195
C         0.16239223080317    3.08605103258416   -1.14991826866028
C         0.43116713495196    3.33105703959677    0.23293402643438
C        -1.21440633966376    2.89646617690972   -1.28051973914079
C        -0.80142167983384    2.44720268484739    2.14302499953708
C        -0.79107397824453    3.20008331851210    0.94699755229555
C        -1.84263305297514    3.11956088003496    0.00670316033212
C        -2.15644315650542    0.72073209766524    3.16824672295015
C        -2.08457668526410    1.95068865552906    2.49033899231813
C        -2.88435796812172   -1.30625193402300    2.31752119568656
C        -3.30339015686089   -0.01268492085515    2.67538090434437
C        -2.41461245846864   -2.64243833940922    0.36234246970994
C        -2.31921269311933   -2.51156478260389   -1.08385729760247
C        -3.36958027662394   -1.87555141110367    1.10052770369990
C        -2.67102136975297   -0.68577954089366   -2.63319586371835
C        -3.20329698874314   -1.73657403891073   -1.78845047354804
C        -3.07841706314726    1.62451831676780   -2.01380799951475
C        -3.58260781594061    0.40829682937582   -2.48416842853114
C        -3.09102579664678    2.55238645351580    0.32035381884634
C        -3.24328083399563    2.03341753577500    1.61993205653212
C        -4.03006555832498    0.81663883716133    1.79097276161873
C        -3.81198218855674    1.96735570569825   -0.76991843206866
C        -4.35358725706679   -1.15124589460593    0.37154455840287
C        -4.34620976948993   -1.21891763522616   -1.07141878591388
C        -4.67307496561811    0.02585260627564   -1.61683273099774
C        -4.67620702174306    0.22176876412947    0.71031737454291
C        -4.75422749736016    0.96556447000006   -0.52934049009547
