76
C76 Isomer 11446 Symmetry C1
C         4.48163864725546    1.84310476920926    1.35559397038934
C         4.80402057743040    1.85905186953549    0.00772713103012
C         5.08018937952088    0.49137589592123   -0.40926951612737
C         4.46902288648701    0.45140361108063    1.78643047156223
C         4.81283026492440   -0.38356521340279    0.67984291575208
C         3.26563223107794    0.23964909582220    2.46688020325201
C         3.28495400297240    2.46823627786107    1.82297046223475
C         2.54222629021545    1.48930932683823    2.56887642988472
C         2.57103479190213    3.27308802046563    0.94361210014763
C         3.91155769796310    2.44254184543444   -0.95088959694126
C         2.87108439372719    3.22672132989861   -0.47458188306128
C         4.41735904759631    0.29827209954539   -1.63460627172535
C         3.62223557172917    1.46313880792674   -1.96746655398677
C         3.90953137201123   -0.96205584033236   -1.90073439706322
C         4.10104821863655   -1.59258117541544    0.47481171625027
C         3.89058053429052   -1.96608403523220   -0.88042387009979
C         2.55872895962763   -0.98226448707953    2.35358519365746
C         3.07430699086775   -1.97451662839043    1.43008147925653
C         1.18996237861346   -0.97289314623914    2.75591982091064
C         1.14553865589154    1.49573380487534    2.63710016715139
C         0.46440707728774    0.26792485564732    2.91729411987517
C         1.15415043586281    3.35015458281535    1.08276044106687
C         0.41297870051949    2.54178331402518    1.96969032747785
C         1.62902371786188    3.21656439389948   -1.17689986928103
C         0.61070926763916    3.54838275895336   -0.22069292898676
C         2.33117033091821    1.30541617800284   -2.51623747504144
C         1.31975570334417    2.27111927455309   -2.16900008710090
C         2.73485131144608   -1.10544760562010   -2.70950250220671
C         1.88801564880811   -0.00460237024203   -2.95381972298037
C         2.87455822541392   -2.89992542023420   -1.25476455117036
C         2.20731791514112   -2.40544495051749   -2.43477485874786
C         2.20786316114001   -3.02020052615487    1.06506478368155
C         2.12760008224080   -3.52338824244548   -0.28147472348510
C         0.43029004781056   -2.17007271830112    2.53429683902081
C         0.91802397301310   -3.14710390057532    1.63537616546379
C        -0.94087878776789   -2.16136240705922    2.74569619410161
C        -0.96692493583879    0.30008401512111    2.96840819940233
C        -1.62469865934928   -0.94787935898532    3.12318700535032
C        -1.00166469651116    2.44738964657191    1.77593697316922
C        -1.74182451241923    1.40274386149792    2.42480490388780
C        -0.71694167203109    3.38161792141504   -0.48194871656931
C        -1.58294532125100    3.11958093504514    0.64616175857612
C        -0.08074958681266    2.01774962806641   -2.43103227956700
C        -1.05946598199410    2.84742785440783   -1.77545599704958
C         0.47743293536024   -0.26696776274073   -3.13048050445243
C        -0.50942878513330    0.76705167453655   -2.94229887490211
C         0.86842666276501   -2.65494027200636   -2.62464103988795
C         0.01677630471187   -1.59208621165155   -3.04777351482740
C         0.75530471844784   -3.88469999069959   -0.53257300579592
C         0.02385364375919   -3.74700844128940    0.68294229297768
C         0.13206866750310   -3.48696315432739   -1.70537391486052
C        -1.82632839505469   -2.93082118916713    1.91779625776665
C        -1.35596350241702   -3.47578803501017    0.70054856738510
C        -2.96402909692649   -1.09850690716434    2.76609133320122
C        -3.06849531940546   -2.28836171231186    1.93892007213309
C        -3.14096625215475    1.23211220357815    2.08450969088313
C        -3.71518122480275   -0.06613096201358    2.18700977907648
C        -2.93738467242555    2.99876467705579    0.36039385168443
C        -3.75552393965762    2.06586832178795    1.10795051473573
C        -2.40831633189007    2.63981943540067   -2.01156480787137
C        -3.37150909606873    3.01958311730329   -0.99913274449527
C        -1.91211981230406    0.40467432777693   -2.84424644006171
C        -2.84438317828617    1.40912617411890   -2.58781037226384
C        -1.29846675337912   -1.89625412304999   -2.55540078760765
C        -1.21884968344568   -3.01893004035359   -1.67342490557523
C        -2.02617181746434   -3.06632815226223   -0.52204885757150
C        -2.29024709039894   -0.93787757558990   -2.45693561553547
C        -3.76230007166699   -1.92843634480080    0.77251191674250
C        -4.39386510213897   -0.65132109894283    1.04977207683095
C        -3.17684657501738   -2.19476901507396   -0.49392857500462
C        -3.37347344363449   -1.19899613893576   -1.52902873821102
C        -4.72949771313273    1.56076621215701    0.20922872279249
C        -4.47158289082116    2.14368293641494   -1.08544580824792
C        -4.10501539233360    1.08360691163255   -1.96881862696571
C        -4.79826186044660    0.14644580834523    0.01613856650058
C        -4.30575926935308   -0.16149262092604   -1.32742047993356
