74
C74 Isomer 13579 Symmetry C1
C         4.15488343931054   -0.62826649046972    1.54394298302971
C         3.92666580926965    0.79294127177523    1.42502030787823
C         4.00524038875256    1.13003236663811    0.04884045784873
C         4.34432717638684   -1.18447224129591    0.26829190236456
C         4.32705072910811   -0.10190066515728   -0.65915677557211
C         3.46119524503423   -2.30900997982509    0.11181401965587
C         3.25315633710234   -1.45507921847409    2.26228631363727
C         2.79541938470464   -2.50769617899058    1.35729456116913
C         2.36369382541636   -0.84991415506906    3.11943900711204
C         2.96937315981738    1.40346051843531    2.27689810861684
C         2.22943809125182    0.59327725802782    3.17481518638639
C         2.28815428775209    2.51722302463556    1.75694747400050
C         3.11963468616964    2.08181462822234   -0.53434206124815
C         2.39351308694825    2.86350759371070    0.37388363286758
C         2.53672640776410    1.84795684233476   -1.84932493395458
C         3.78074427829482   -0.33323945733756   -1.88170260566765
C         3.01189065209825    0.71269640184082   -2.54414196656868
C         2.78589486825204   -2.51915489591869   -1.10142268275820
C         3.15792583808926   -1.62555144453647   -2.16822831196572
C         1.45387564854138   -3.08176877476787   -1.07566623190096
C         1.49097317924676   -3.00130724667964    1.41121977309907
C         0.82867128288880   -3.39389564236381    0.18499414124190
C         1.08517151433426   -1.44062886917155    3.31171643566294
C         0.69067745103625   -2.57689390527737    2.55420038654744
C         0.86781080701153    0.85850360527437    3.44386502811130
C         0.17106536526666   -0.39421629114682    3.58966310537072
C         0.96908165372163    2.86769798696507    2.19060248456440
C         0.17031257321033    1.97351259164480    2.93892353807156
C         1.18697451843265    3.52600381949785   -0.01892970561626
C         0.38474755652573    3.65594436328566    1.15851831523322
C         1.20614457259750    2.32293821354936   -2.16492078548476
C         0.59220601539232    3.28231623082485   -1.27364957828893
C         0.32422605055077    1.54780696625820   -3.00724262113666
C         2.18321319442394    0.05586232105362   -3.44922472243188
C         2.27325656292920   -1.38649923927414   -3.20395356129382
C         0.83985337007857    0.38492460923218   -3.61098608822767
C         0.59393044851239   -2.84759468304450   -2.21761685181919
C         0.97870112190472   -1.91815080110067   -3.22526547720612
C         0.09456588633351   -0.85845780933671   -3.61652651009855
C        -0.78926173256803   -2.99943446706081   -2.09664736975511
C        -0.59325509654488   -3.68118977076061    0.24083779246523
C        -1.38833087046491   -3.53641790277407   -0.91783543781362
C        -0.66881408271628   -2.82191857195119    2.56438911134271
C        -1.29857208045075   -3.52649093401756    1.47193313162497
C        -1.20302425472315   -0.51904681011634    3.34289083273003
C        -1.60059789099983   -1.85524415073128    3.08135941250415
C        -1.26308768591244    1.86292199085364    2.66354557245470
C        -1.96095301925172    0.59207024011443    2.81624757012458
C        -0.98942445289173    3.74560718600141    1.07313557578798
C        -1.82804475373984    2.82820471056227    1.82605588914306
C        -0.80355515875054    3.51799446465144   -1.36244696156416
C        -1.53496788785913    3.89602529930423   -0.21411490586846
C        -1.12162087836680    1.58997249691627   -2.86418319371269
C        -1.65907034771026    2.66018316371027   -2.15381590650238
C        -1.25410912475465   -0.87935065425697   -3.28032763867742
C        -1.71220974071651   -2.09255614279124   -2.71105801420467
C        -1.92049860088844    0.37350975908855   -3.00327325617348
C        -2.75204162919369   -3.08175041875232   -0.88403638952685
C        -2.91632708455350   -2.13900835971843   -1.95902780306112
C        -2.65481854131462   -3.17530219236344    1.49349482041503
C        -2.82193221007798   -2.08840313962447    2.44486643051241
C        -3.37478732895994   -2.83589840344400    0.33230493841228
C        -3.13578360652534    0.31266387000613    2.03425028195852
C        -3.54327796954632   -1.04666427223335    1.85542539250120
C        -4.00908436920576   -1.54853434276113    0.57292977855180
C        -2.96686234685254    2.52380478147709    0.99441410670990
C        -2.80046303200069    3.20927852807611   -0.22696204934488
C        -2.91137642929344    2.53018028072286   -1.45538495159712
C        -3.56856535522955    1.24444017310098    1.01701766396523
C        -3.14834309754494    0.27495856951307   -2.32960817963557
C        -3.62100912772082   -0.96224585563707   -1.77041217696980
C        -4.16098459451595   -0.66449114083974   -0.46619275659322
C        -3.58440100623926    1.32171089497346   -1.45111815432403
C        -4.03993107637760    0.74769849679277   -0.22652884710874
