72
C72 Isomer 200 Symmetry C1
C         5.83438689535088    0.36747519407950   -0.18644334895338
C         5.37333016007761    1.48140375296409    0.49158201513475
C         4.58013969106628    1.05591594265221    1.63747394281237
C         5.32811582933366   -0.80310370565335    0.52402935663576
C         4.47451566690369   -0.37035819427809    1.62487678829853
C         4.74919743025180   -1.62434380116599   -0.44269857437847
C         5.20587991810555    0.39712085240471   -1.51338722302419
C         4.66465882554915   -0.85610332990316   -1.72457084848846
C         4.47917141801813    2.23750602447311   -0.36626799513770
C         4.28960897278306    1.53177998551129   -1.59381582860405
C         3.40550764631637    1.82727589821666    1.65838419669790
C         3.35158354476011    2.58886223867248    0.40513200167293
C         2.21279033428788    1.27375650000545    2.13552399469420
C         3.19485257621525   -0.95607032758720    1.83730283502562
C         2.10048878603014   -0.13620528666414    2.31630505327798
C         3.50846291089318   -2.22550038515327   -0.23630682696910
C         2.76523660487888   -2.03042380554536    0.97309131936228
C         3.35804258190769   -1.02276396141210   -2.22697544903765
C         2.75282885779530   -2.07165859172046   -1.46607803307028
C         2.96377696803733    1.37200434455161   -2.08946805109554
C         2.49970707731452    0.07373269457619   -2.52687268844326
C         2.11831481514245    2.72334142520058   -0.21686251638532
C         1.91714567353569    2.19265227688080   -1.52781193778761
C         1.02108460653544    2.02269365807500    1.84721382987671
C         0.98293715724333    2.78045898009872    0.66583897674878
C        -0.20224942816052    1.60089374800478    2.42924542271448
C         0.77422560301563   -0.67047351250496    2.45996475827981
C        -0.32188910423225    0.21384336365374    2.78548857639425
C         1.41226353152728   -2.43155488198473    0.94760664571614
C         0.45679936845090   -1.94150001516204    1.90159796540942
C         1.40906580006603   -2.30491018854256   -1.49959654478127
C         0.84794843345176   -2.87185381814592   -0.30323531138496
C         1.09898554636797   -0.20602276806306   -2.63673461297392
C         0.56235096180315   -1.49020404748802   -2.32731752047143
C         0.56654031615846    2.04050626234909   -1.94893019131775
C         0.14156875568597    0.86046752420990   -2.61925126892182
C        -0.25279404241744    3.15327477388781    0.09567887328486
C        -0.43861284767998    2.85262050299216   -1.29792046065806
C        -1.34467894620321    2.34601529599486    2.10659595879086
C        -1.37074430390668    3.16056649856874    0.93843288257701
C        -2.67225400453179    1.83578396394483    2.29078379974092
C        -1.62514720330073   -0.30028900350443    2.87057541606516
C        -2.79856368947337    0.51520233798615    2.68004969610679
C        -0.90537357055585   -2.40881907543088    1.85381755889591
C        -1.93092551536446   -1.62558585590342    2.43446629171090
C        -0.46309565391423   -3.23419721197151   -0.38599282617254
C        -1.30883010432401   -3.23868354408661    0.77078017732264
C        -0.83682749045739   -1.75496509495694   -2.32548725417383
C        -1.26416528426509   -2.85768875428373   -1.53994106566666
C        -1.25442159352175    0.58759076603569   -2.79926443097553
C        -1.79620400350656   -0.73745917881778   -2.67099548614378
C        -1.73503557232933    2.79298029955912   -1.77280367833014
C        -2.13170672429336    1.69242361533069   -2.62770310542085
C        -2.71130117444681    3.20025045118302    0.42885489376854
C        -3.54736284509151    2.40789799286714    1.30029812232349
C        -2.88019500282008    3.14732057593285   -0.95556973551835
C        -4.58522911603321    1.63035792899292    0.77364949556521
C        -3.83060722953379   -0.30110980076564    2.09659292707481
C        -3.29023986518991   -1.63102298979273    1.95626096303002
C        -4.69098346193241    0.23550845015501    1.14875711210551
C        -2.62772861132168   -3.21609366901249    0.29031159935683
C        -2.59257317275714   -2.96489741804600   -1.13739029966520
C        -3.63389387298634   -2.39384986049243    0.83729359791195
C        -3.19832345641750   -0.91939922280901   -2.32858340254743
C        -4.94088124364540   -0.52725414410143   -0.07273760773938
C        -3.56096350586606   -1.99520428136095   -1.46230664510408
C        -4.33490982298372   -1.76196383909497   -0.26213982340711
C        -3.50506799515739    1.50858779321391   -2.48163670945194
C        -3.99545983411865    2.43474465345713   -1.46805225817694
C        -4.83825434954247    1.71588066362834   -0.63008829577899
C        -4.05050864591968    0.21610895409811   -2.24206811327767
C        -4.96651097665876    0.36372738099695   -1.16055107494868
