76
C76 Isomer 158 Symmetry C1
C         6.10741128086569    0.02467199576562   -0.18549537629927
C         5.66294445407496    1.23747871657350   -0.65720451597261
C         4.92774540902105    1.92092847274645    0.38899431823311
C         5.61771842744820   -0.10656071484590    1.19328638624235
C         4.77741927235490    1.03731246116710    1.51595371370949
C         5.01003810243108   -1.34551490866031    1.27487470346894
C         5.46025023133319   -1.01146790474161   -1.00481213122874
C         4.94651531797440   -1.93026111691997   -0.10474128628101
C         4.72616878949450    1.01587563967372   -1.77316412009261
C         4.53683835008381   -0.39053186396865   -1.95075343019371
C         3.76287297133932    2.40279316813426   -0.22023825054429
C         3.60915030472955    1.82552948600953   -1.56545426431966
C         2.60831026163418    2.51247274382948    0.53834695722601
C         3.48546786992063    0.85906907455517    2.09739225389372
C         2.45675186405155    1.80272238033230    1.76100726032764
C         3.74374677381121   -1.53217969338276    1.86775019835080
C         2.94163752712923   -0.46024397968081    2.36717299320188
C         3.66675394634131   -2.46318924575890   -0.28184425573996
C         3.04756422958032   -2.45608527057041    1.02306076939960
C         3.21064739299263   -0.87972626383805   -2.10871981327817
C         2.84094933536909   -2.06634408275460   -1.38198187698308
C         2.32120172937947    1.39938781082681   -1.97635748165342
C         2.09702169507925    0.03874448498731   -2.31642042402244
C         1.44538110035480    2.81237094460621   -0.23854385927204
C         1.21906680242726    2.16270191958999   -1.48397765078942
C         0.36289143732978    3.18600509169961    0.51896216276498
C         1.11692608086663    1.64948440253188    2.25903850845134
C         0.19670335759472    2.61369693763700    1.83099622636728
C         1.51616667736526   -0.68808327698586    2.51452343793254
C         0.56707581704033    0.39014967865392    2.65189584866778
C         1.70766625567387   -2.65877075678886    1.14329595829949
C         0.93299858109926   -1.91758804665442    2.09511855337167
C         1.48555732992277   -2.43079465853816   -1.28819098488611
C         1.06693720553294   -3.05906090471185   -0.07536035622985
C         0.72167451839353   -0.40650280911789   -2.34072814862590
C         0.43239639663960   -1.75812548969083   -1.99893394883646
C        -0.11653743750570    1.84292605087003   -1.84540764808878
C        -0.38996347541213    0.51764780411447   -2.31582332151238
C        -0.89662545314657    3.31928274298089   -0.08376129168480
C        -1.18387026231406    2.61491312369071   -1.27456239851617
C        -1.18697124739229    2.49785324798048    2.06270699847597
C        -1.82750829386014    3.22663495371137    0.99638467316929
C        -0.87231728588705    0.18107579919362    2.67023595791149
C        -1.78601166725195    1.28893796743401    2.48408605122126
C        -0.46858968213305   -2.15944382504276    2.13364563959527
C        -1.42180811267859   -1.13783220607305    2.48549439645707
C        -0.21932907258196   -3.45933986810983    0.06290509228241
C        -0.90531276259771   -3.24493676397481    1.31953369232750
C        -0.91718213963280   -2.21186707743162   -1.88346231269511
C        -1.15408075931488   -3.31342974046936   -1.01162695084555
C        -1.75644066436423    0.05908032684233   -2.34089920359553
C        -2.02982213423041   -1.34153848215533   -2.17737008832414
C        -2.54569609318415    2.28638336781300   -1.54434081072801
C        -2.84507929394906    1.02160315012215   -2.18542553663913
C        -3.12427494037055    3.03660218888334    0.70937666362848
C        -3.52441603271763    2.85124121407165   -0.67143326161763
C        -3.21109177177766    1.12307158900425    2.23107295508609
C        -3.91372974618438    2.17200267618411    1.55003295962006
C        -2.83383494179972   -1.31952548400125    2.19888788165305
C        -3.76581885360951   -0.20231132235538    2.11401619731635
C        -2.24814724960219   -3.40059726692441    1.03720221901933
C        -2.41018865427403   -3.50928554268391   -0.42572781535038
C        -3.21392535602302   -2.50363776802962    1.50644306266116
C        -3.36789804320868   -1.75268062410694   -1.79959737903912
C        -3.51873750453693   -2.78506680532863   -0.80402071056120
C        -4.19092980833059   -2.42837571570022    0.44023864715274
C        -4.17845183752838    0.55976915976069   -2.12210176001432
C        -4.41790598221380   -0.83204004627773   -1.83928009480730
C        -4.82482549034078    2.34997960856478   -0.59989869467755
C        -5.09331233755958    1.96326257112496    0.81383630312793
C        -5.21418486842660    1.30046354094090   -1.43045973591270
C        -5.00830241876491   -0.37202927786768    1.41537583151795
C        -5.11351310849361   -1.44713122742656    0.43902933131110
C        -5.47369511092844   -0.89598420174891   -0.84782679471876
C        -5.69136549878366    0.71189914037826    0.79162730498502
C        -5.96887170376890    0.38305860033199   -0.61685412385086
