74
C74 Isomer 11176 Symmetry C1
C         3.28669299146615   -2.69522531930435    1.27136823642963
C         3.94087342909173   -2.41001350768471    0.08540206105431
C         4.59578054707190   -1.11786245904492    0.20212787004315
C         3.45119497468646   -1.52954062632772    2.12894472441161
C         4.18361360997214   -0.52289774222686    1.42439620957426
C         2.21027693334249   -1.23098696795713    2.67207931846125
C         1.91662909721903   -3.07987965891515    1.27998617240966
C         1.28816769728700   -2.28262512676225    2.27443356376174
C         1.21777164040376   -3.36385529428663    0.06927734111204
C         3.21619114402426   -2.45748134130108   -1.14205535094752
C         1.91418503575341   -3.03934383089305   -1.16040798054471
C         4.37032116451649   -0.44809596531539   -1.02177607566672
C         3.49892475765284   -1.25709588452189   -1.85994784349186
C         4.17746569722722    0.90950477814453   -0.99249782153423
C         3.72608591663565    0.82334527060943    1.46318183779223
C         4.01400454867318    1.57266039627828    0.28286965072201
C         1.72537297748780    0.09605600269360    2.77665049837342
C         2.51614748258007    1.16131781526855    2.20189391932417
C         0.30744586199259    0.21601007780976    3.00320880907805
C        -0.08252838713773   -2.10510240311916    2.29213848657782
C        -0.61630137188213   -0.89923060672493    2.86061169919121
C        -0.20625534341419   -3.32674273938437    0.11943724508144
C        -0.83280969287531   -2.87726028610772    1.33525086086786
C        -0.99439406723696   -3.21828208826169   -1.09254297398379
C         1.11690757489635   -2.63219775328231   -2.23179637236023
C        -0.29163163503698   -2.83081375069950   -2.24132028533250
C         2.52004658057785   -0.63732567166403   -2.67138734377443
C         1.40905130229647   -1.44110645671110   -2.97141896821683
C         3.27393563049268    1.54873035351365   -1.94502750200751
C         2.33243534316488    0.79568789078416   -2.70805966669974
C         3.31121612955102    2.75944752146244    0.00851057207691
C         2.91345570936005    2.77140372341746   -1.38958949134621
C         1.82290321609084    2.39070338008453    1.88933798530613
C         2.22053484473856    3.17547249827677    0.76302487724038
C        -0.24899388966549    1.49039574865438    2.89012268431878
C         0.47847442255986    2.53383675394041    2.25756490567673
C        -1.64353113231991    1.69286233912292    2.65152533844082
C        -2.02377342243755   -0.69732436432934    2.79901006048481
C        -2.56755649292003    0.64706081526938    2.69452006032542
C        -2.20883238195036   -2.72129026018931    1.39204000259951
C        -2.80290656788344   -1.75832807653107    2.24861507222294
C        -2.41146114496386   -2.93554411059943   -1.05114374793581
C        -3.05127352012284   -2.90741392870913    0.21602958679036
C        -3.00094956003152   -2.11455907685913   -2.04569822089642
C        -0.84305323221805   -1.84332366519799   -3.11971965347259
C         0.18558920910510   -0.88137248853134   -3.41405004754477
C        -2.14835700955713   -1.46378724577913   -2.99700870343609
C         1.02755287769046    1.36015979313970   -2.95851884370551
C        -0.06895791584596    0.50205301411997   -3.35989467042998
C         1.60793138383979    3.27500466380702   -1.48459620586999
C         1.21826889440667    3.67438696575616   -0.16382271674077
C         0.68331618449883    2.63580409093843   -2.35176182984224
C        -0.47621708290375    3.29495373445279    1.48701655135856
C        -1.77447809127994    2.79416807509388    1.74700553084321
C        -0.13103694701197    3.73648227508176    0.18779200920136
C        -2.78209684047680    2.76291125984444    0.74082111759879
C        -3.77808266608480    0.88026798758538    1.97420254121377
C        -3.81180033064090    1.81675589849377    0.91145506671904
C        -4.09835045725182   -1.50562149530622    1.70510981119966
C        -4.23278167611776   -2.20265969189324    0.42141853153350
C        -4.58240988255169   -0.22776358811347    1.56196567811202
C        -4.05233125911446   -1.18751994747918   -1.75005933126723
C        -4.45116780235991    1.17142939943918   -0.23909426178377
C        -4.72397446790838   -1.26110843307998   -0.53523787194362
C        -4.99398753972036   -0.03933231364426    0.17730982763471
C        -2.49086091187277   -0.07603969235916   -3.08923995019901
C        -1.45989756307814    0.89546187952899   -3.19930044785217
C        -3.65894606113131    0.10429107096224   -2.29419507812410
C        -3.82490689951974    1.28465630280893   -1.52489925824521
C        -0.66214870687174    2.92717157295753   -2.08061726402105
C        -1.08118741371587    3.53577304418189   -0.85217252625386
C        -2.39578596744899    3.09949096476669   -0.57620981294922
C        -1.73378348964154    2.11284053247455   -2.55239632865168
C        -2.84296598615149    2.27639596833376   -1.68219186809187
