76
C76 Isomer 8589 Symmetry C1
C         5.37336268287337   -0.31239950195396   -0.89219161070085
C         5.42867173412715    0.32943723525523    0.33834874308861
C         4.86546791897693   -0.57130402704364    1.37042195159774
C         4.95782720471630   -1.68685848381801   -0.61635592822130
C         4.45289954573105   -1.76192006495077    0.73395270456913
C         4.15377441141039   -2.08428384916516   -1.66301320879576
C         4.54658495149669    0.20970632231204   -1.95403345984604
C         3.92679521207182   -0.91862087005708   -2.53915743919617
C         3.71920749728251    1.36474912041411   -1.74440980186276
C         4.81040995316559    1.56649149741960    0.48012147581242
C         3.96429095965606    2.08969943440623   -0.54256992712616
C         3.97220680380185    0.17346724039330    2.15752872961034
C         4.04383925539831    1.54122864267589    1.72746812833663
C         2.70163598868445   -0.36158496431799    2.50279021260458
C         3.14278998347353   -2.27652426480878    0.98298580700740
C         2.31987648828359   -1.64836174990318    1.99363067347263
C         2.91556816831875   -2.69948057124730   -1.43075733112731
C         2.42073001611875   -2.87499027121321   -0.10880402999106
C         2.59223294444384   -0.93572961004946   -2.93180234075929
C         2.01327703840034   -2.15373237913438   -2.43083630753318
C         2.35089754421831    1.37146248974668   -2.25907310805164
C         1.76988056216317    0.22049122840545   -2.88397396260572
C         1.38784252964233    2.28914621885516   -1.73365184831077
C         2.85986586639607    2.68503682275962    0.14687259383360
C         2.88724068470817    2.27675004874714    1.54015097035789
C         1.63808379973301    2.88000141279273   -0.44467133066285
C         1.66358118625696    0.60144769708264    2.78077199105449
C         1.68338676611795    1.90716186446638    2.19735521007358
C         0.40072835267818    0.10634517195178    3.08105667523118
C         0.94566682316593   -2.07194333014890    2.13991757832950
C         0.08177912918021   -1.26231637318054    2.88328810875236
C         1.02170205948560   -3.14632080231239   -0.00762237542625
C         0.30313801000276   -2.96316696192281    1.20468440935132
C         0.67011234920669   -2.30223361779568   -2.31092809036919
C         0.24858807503473   -3.13535570565340   -1.21513984087203
C         0.33984080010517    0.01781583933661   -2.95749748139612
C        -0.22544251667698   -1.28410813255590   -2.81355937454197
C         0.04393745036412    2.27449232831477   -2.19440197885106
C        -0.54671840876547    1.12223530227053   -2.80793277947564
C        -0.83273820787442    3.19960608611780   -1.56009533656710
C         0.53124134526637    3.12885296841846    0.45240381650325
C         0.47881110124733    2.51323061262720    1.74781338049106
C        -0.64612535431973    3.48443519777809   -0.14678446292653
C        -0.79168837951353    0.86440411399882    2.92716783044378
C        -0.81043022923390    2.06069026473033    2.20604241231667
C        -1.34662511164120   -1.36080763809183    2.80542096808524
C        -1.89181157656020   -0.05313979581181    2.86144463211952
C        -1.12227074403839   -3.19596427796164    1.24884612631195
C        -1.97824365290048   -2.40452220485533    2.11124665053003
C        -1.08409063719572   -3.40748860929020   -1.16691129488682
C        -1.73553088769726   -3.68697272327563    0.06781321236942
C        -1.61949848862143   -1.49169775551947   -2.67128318667467
C        -2.01514365353454   -2.72832944829907   -2.06512831670913
C        -1.98429415468010    0.92747639876771   -2.81393935472857
C        -2.55099568219538   -0.39363280444082   -2.68389822116700
C        -2.18554923060854    3.17511836668083   -1.81834784648265
C        -2.79569972104961    2.04306534260543   -2.44460672569905
C        -1.92128455219708    3.37336634396505    0.50185030424245
C        -2.05771689501233    2.46646714724420    1.57830481680264
C        -2.87688521640949    3.41980950413537   -0.54616444552313
C        -3.10488400432436    0.29050319865679    2.24054363522978
C        -3.22643388698133    1.60006073285039    1.61980187839248
C        -3.33967120108037   -2.14631245620069    1.78576363352177
C        -3.87213646635591   -0.81772890330207    1.81251439208321
C        -3.11765027513851   -3.51913475482281   -0.19521036625203
C        -3.27545099490571   -2.90949851740414   -1.53362817202877
C        -3.92788250500431   -2.81292222887300    0.66131324895522
C        -3.85730963813064   -0.58736139116602   -2.06926965437113
C        -4.73066209606430   -0.67037346070731    0.65093297988026
C        -4.18601792977776   -1.82303004068378   -1.45197100191112
C        -4.69222027490734   -1.84781190806901   -0.11513286544933
C        -4.00771669151780    1.82097250624741   -1.75098389933594
C        -3.97731353458020    2.60367586855204   -0.50494317512373
C        -4.18865104527629    1.71521763872369    0.57783414156259
C        -4.46283704968056    0.54575041954456   -1.44574644078587
C        -4.75415229895318    0.53209582075714   -0.01897570057902
