70
C70 Isomer 6552 Symmetry C1
C         4.29360248408264   -0.80887503212373    1.25706098382381
C         4.56478622131158    0.46770530565628    0.77563916643840
C         3.96845432617856    1.41680273159244    1.68317366133748
C         3.45026237143140   -0.64992292716355    2.45052187417679
C         3.16333119386000    0.71952804719657    2.64044440501332
C         2.42337734755925   -1.59266314032808    2.41567924280357
C         3.71082944856172   -1.78679695704613    0.43724469289850
C         2.71332800022703   -2.43626065359497    1.27069014595007
C         3.42997817039602   -1.54250234469438   -0.93851521472139
C         4.18943676284722    0.80924589590679   -0.55388159465792
C         3.72229915363416   -0.20697711616521   -1.43868193362647
C         3.40746397723105    2.43680498134961    0.88560959303191
C         3.53889547618216    2.09581987291412   -0.51136564474758
C         2.22834348193293    2.99529855305580    1.32496916925020
C         1.81327228834853    1.10667017409011    2.88890268116665
C         1.46551692914111    2.38075722988938    2.37947203378152
C         1.08025480819453   -1.25398304539815    2.74857242914055
C         0.74873815748887    0.12677881234705    2.98873403591034
C         0.05486866026010   -2.16414327353417    2.30204239100166
C         1.69509057689281   -3.12358136475336    0.70448349189030
C         0.41298686744965   -3.13669254961489    1.34796565992345
C         2.33758112518227   -2.30056792290467   -1.52883645713015
C         1.52148671205292   -3.13046818744883   -0.72425269077945
C         1.67166618956417   -1.80377590542346   -2.67757069748244
C         2.95296148635830    0.28790623022870   -2.52105243190960
C         2.07719167513908   -0.57909661865311   -3.22485042080131
C         2.50855032387983    2.44171597640956   -1.41233190151449
C         2.32832128997479    1.57476297012724   -2.49895366715838
C         1.30493149367189    3.55939057576683    0.37993819446824
C         1.36196233763396    3.22545833135865   -0.97623073127364
C         0.11534959172939    2.75483943442525    2.20752448174607
C         0.05392838378954    3.64253868356891    1.07157984142156
C        -0.63935964959345    0.53684410082758    2.87266830510866
C        -0.95841520843944    1.90284114357831    2.51071049803293
C        -1.33550473666365   -1.82348301264248    2.43717352285679
C        -1.68401496889230   -0.45268768843083    2.77298058769551
C        -2.25964570785551   -2.60843042445078    1.69948961797333
C        -0.50285986092010   -3.49985777021570    0.32029389786222
C         0.13254197209849   -3.31620974816137   -0.95882783800915
C        -1.82498651726611   -3.25273320777985    0.48673976531590
C         0.23386264695884   -1.88455403722509   -2.83836966696374
C        -0.58101873811935   -2.59772415123940   -1.95571991020091
C         0.91147025912600    0.14776931452971   -3.63302947879821
C         1.02825208853752    1.44555812223487   -3.12932667030936
C        -0.23665035775129   -0.64118410307869   -3.36400449372905
C         0.08767040359441    3.14852608596000   -1.69228178488273
C        -0.12445556996850    2.11397342470278   -2.67369985553806
C        -1.09632468333468    3.82148699013735    0.37422141418530
C        -1.05531791060900    3.65774365756272   -1.05901075874865
C        -2.24407950218445    2.26973081462012    1.94212220371416
C        -2.31476562500831    3.25119438931962    0.89587137439446
C        -3.00534086222122   -0.00615471426998    2.47960815305574
C        -3.25780146221777    1.31191142246238    1.95771672440696
C        -3.54807252491649   -2.11485025435377    1.39678274315462
C        -3.93636571616529   -0.87110681763016    1.83988125263913
C        -2.62010179815313   -2.73081703364816   -0.61825295239446
C        -1.94194812432577   -2.15401696432771   -1.73865990788718
C        -3.74195772275253   -2.14766504110562   -0.05396375190669
C        -1.42382410070735   -0.04172719236329   -2.91525580926622
C        -1.38937218043517    1.40255669628319   -2.76109482677557
C        -2.37541316163419   -0.85935749608353   -2.19063229527977
C        -2.33456679489741    3.17139292636107   -1.40665059881562
C        -3.14584899823680    3.04804681709864   -0.21480474535469
C        -2.50218312778013    1.98826651647365   -2.14045355696358
C        -4.19604996764797    1.19157210598841    0.84867480666947
C        -4.52775683576639   -0.15652076080221    0.71078174857111
C        -4.20599847734958   -0.86734767260129   -0.47628800492513
C        -3.51239622424103   -0.21292729091447   -1.54622529577621
C        -3.95814348408649    1.90194578715997   -0.33171159156803
C        -3.54630408236185    1.19527829898740   -1.51817761091486
