78
C78 Isomer 1949 Symmetry C1
C         5.83633810039675   -0.87817463492656    0.73069341245868
C         5.89952457445534    0.06262749304508   -0.37222404161311
C         5.55097233109536    1.31563909092044    0.12808109224151
C         5.20611914752612   -0.21706993945693    1.85741331499830
C         5.08733991450076    1.13320003626759    1.52501824257990
C         4.00804415109222   -0.92955708093807    2.21876496963252
C         4.97923125225951   -1.90989978637059    0.33869145576759
C         3.94218626112979   -2.05356275683814    1.33414572414804
C         5.13462240598116   -0.47716258210560   -1.47756198790646
C         4.57755606358836   -1.73616492346788   -1.03849414517823
C         4.29043127119269    0.35990886426603   -2.20169743899030
C         4.59181677949399    2.12027355263758   -0.53333845798090
C         4.06438012036043    1.71380580238918   -1.76843684787661
C         3.85505552923972    1.79502857532122    1.67063550066416
C         3.63395146967486    2.54312749801776    0.45814529932513
C         2.79299830361859   -0.26024322831551    2.51732456674193
C         2.73161071075491    1.15612962582724    2.29461588727542
C         1.55512196058386   -0.99693779310580    2.42528409049874
C         2.72581092668986   -2.58596473381869    0.96135650375504
C         1.56691171168231   -2.24021518355975    1.73768217689076
C         3.30339130285234   -2.15547386963702   -1.42427524018607
C         2.53220278243263   -2.87679002012895   -0.43910504456041
C         3.02679301198950   -0.12682305569553   -2.70617335503839
C         2.53011190109541   -1.39260680873926   -2.38153105880161
C         2.71255912311401    2.04671472109355   -2.09938583967012
C         2.08968064114061    0.94984526403824   -2.77213372001001
C         2.34849506597604    2.92146104432204    0.11603791787814
C         1.89559281776679    2.79096580472462   -1.24137275459912
C         1.45852964884357    1.75586886783928    2.12202868493881
C         1.36319092832024    2.79593085604257    1.15034339843162
C         0.28066511569088   -0.34007986427461    2.60895060358857
C         0.23810277291367    1.07697474526816    2.49617690272739
C        -0.95288799795073   -1.09510984946999    2.54597357914142
C         0.33921788950835   -2.87050185527458    1.41272591901390
C        -0.88225419398381   -2.42671803713619    2.01992622076093
C         1.27193550592338   -3.27581394573987   -0.79882185847644
C         0.27568224463087   -3.54808321351187    0.18183124531649
C         1.11203774490601   -1.61264834232039   -2.55275578944987
C         0.58614209481164   -2.75994001335311   -1.95307709368414
C         0.68874930093598    0.77166743931410   -2.80170458210786
C         0.16760296718965   -0.56185900183711   -2.82276402643173
C         0.49568383062037    2.82382911922469   -1.52618818452900
C        -0.14170294743663    1.84798145841282   -2.35783221914763
C         0.11350600886033    3.26924332742727    0.82075572290473
C        -0.29401207716262    3.41572531627329   -0.53514037686941
C        -1.03460933788772    1.73580130874205    2.32091065431332
C        -1.04306050918117    2.92696215196857    1.57646336757942
C        -2.23242146029225   -0.42039563438647    2.60281144599391
C        -2.28597864511300    1.01621713036526    2.44946519990987
C        -3.41598690584896   -1.14558811863100    2.29138714310323
C        -2.06440340721028   -3.04473543635318    1.55070514801810
C        -3.30011354249732   -2.44860730232875    1.77959684544250
C        -0.96698762205301   -3.63709342967221   -0.51332597606486
C        -0.80119721917192   -2.96457569379969   -1.78497312415710
C        -2.12162018826386   -3.53624995390983    0.18836015080415
C        -1.24662447814338   -0.75988417208127   -2.66285439693887
C        -1.75804576421012   -2.02805538318068   -2.19120306059076
C        -1.56360363607526    1.68861246106338   -2.32934276582648
C        -2.10985146711170    0.38893491786457   -2.59704529931780
C        -1.70678751614559    3.37638259770359   -0.58100171165342
C        -2.16485013419282    3.28521719649513    0.77656728467549
C        -2.37056443066854    2.64867934297449   -1.59260447511528
C        -3.47342536108976    1.60810672235927    1.95682567168268
C        -3.39572524773399    2.73425259696799    1.05391339968861
C        -4.55761711434244   -0.54208920774240    1.62387549964788
C        -4.60656128473486    0.82858402851040    1.50866500457813
C        -4.12114568601830   -2.53325537971076    0.57499999738743
C        -3.28687058005774   -2.98008851698022   -0.45966115019873
C        -3.09014023596958   -2.15888126587193   -1.61750464560706
C        -4.90260627452404   -1.37340889356308    0.47685815515480
C        -3.49877888800382    0.16708967799167   -2.33072830446278
C        -3.98027987452259   -1.09458280955072   -1.77575402528970
C        -4.99099297929326   -0.78527420454299   -0.79891892270164
C        -3.73811894356403    2.38197424695051   -1.33793542411299
C        -4.27666334336541    2.54715176483121   -0.03068368780572
C        -5.10414543837706    1.39750977782924    0.28398746622011
C        -4.31962320137322    1.19134536149430   -1.86220879890578
C        -5.20863775126811    0.61739613554271   -0.85823503402300
