80
C80 Isomer 5153 Symmetry C1
C         5.34098585351163    1.40316441743828    0.18499001028213
C         5.13424280018965    0.60111361276241   -1.01542876600738
C         5.02751039009746   -0.72534283346141   -0.61050132093894
C         5.05983360558767    0.56519895169116    1.32478393296458
C         4.98979107528750   -0.75363423292980    0.87987935026953
C         3.90654615555625    1.08860668673840    2.03039703291367
C         4.35337691310594    2.39400129034645    0.17452329405285
C         3.53531739966720    2.30142208684048    1.36230914683240
C         4.03401016943343    1.14615868358484   -1.76730881059081
C         3.63526333860206    2.33586163361246   -1.06284881150773
C         3.00896229064975    0.32043290756237   -2.31446366519649
C         3.98634081244652   -1.54292839109096   -1.08219844479111
C         3.00831480004090   -1.08205400115570   -2.01119106278527
C         3.92681383246479   -1.58267061267205    1.26187801894680
C         3.47950665371003   -2.24073407350206    0.06660410982857
C         2.86831246253499    0.24339241650344    2.48585215340736
C         2.89670452271748   -1.15763474377560    2.16173815526357
C         1.58108314716194    0.83493439711279    2.73213419807669
C         2.21667398843003    2.73381663364522    1.32142836327039
C         1.28355346018817    2.13428932587030    2.22914525064744
C         2.32908732962498    2.79501059028008   -1.11346723938394
C         1.68015737544215    3.25305500501344    0.08580402685474
C         1.74635393015672    0.92692340242763   -2.63451890329455
C         1.50773296527336    2.25635521690473   -2.15926844414951
C         0.60412061991691    0.13457918707843   -3.00447589249086
C         1.79163527592352   -1.83154321904066   -2.12359812505133
C         0.63312257090071   -1.27954398223826   -2.75635272394534
C         2.29074831941074   -2.91903430121783    0.02240619892110
C         1.60101324635451   -2.95152871375557   -1.23788837732714
C         1.69674780099010   -1.93292660578476    2.19092966836168
C         1.55179969421482   -3.00760807843426    1.25513932285977
C         0.48897415119029   -0.02510332970319    3.10150187143852
C         0.50454268945883   -1.42609571226285    2.81137756532480
C        -0.74700734265716    0.59323321858809    3.34366637793211
C        -0.04748152030337    2.65893175584233    2.25015188958496
C        -0.98685162662769    1.96158817135990    3.00571562421335
C         0.33139458587310    3.65124833748100    0.02907373082982
C        -0.51602347801380    3.54625128785738    1.20012274044453
C         0.24471307159395    2.81712398632998   -2.25762740037798
C        -0.28234999292243    3.66300356526959   -1.24007377961925
C        -0.67216318313934    0.78949651415934   -3.20786446485791
C        -0.83327243106616    2.14966097108822   -2.89305472049014
C        -1.87127433355749    0.04029766409137   -3.16792810595983
C        -0.62272126419354   -2.02418596415734   -2.71620766649598
C        -1.84453346077882   -1.34580727362758   -2.90682223199933
C         0.40610082097229   -3.66428121332079   -1.24954166678366
C        -0.71665857409564   -3.23211342734941   -2.00744398394338
C         0.35712372798364   -3.71626663132670    1.20117029808093
C        -0.07508581835924   -4.23444210010728   -0.04021501903511
C        -0.75670185018239   -2.13775129101367    2.70729701779907
C        -0.79503700091752   -3.33095085728977    1.96613008223416
C        -1.98541459966233   -0.09225190302731    3.26223088354067
C        -2.01807526289633   -1.44444818946003    2.88347485465781
C        -2.39444426925521    2.13036705537060    2.81514248405694
C        -3.01563540070953    0.84811933280565    2.90795077534370
C        -1.88749021122831    3.76082607357961    1.05782981385221
C        -2.84293359389234    3.07323848591038    1.89832642820870
C        -1.69494448093705    3.67088099519862   -1.39275636738218
C        -2.05802224197479    2.71047787050857   -2.39462800498770
C        -2.49269904134426    3.85474111150874   -0.26813875242923
C        -3.09888142397349    0.57502291351710   -2.66300073266107
C        -3.21677557376535    1.91373761924552   -2.24130884764306
C        -3.04501665924068   -1.68168912161067   -2.19226872553251
C        -3.78563448217617   -0.48435272688082   -1.99019643193232
C        -1.91311473055254   -3.58158108008847   -1.25735009495131
C        -1.50530783062866   -4.20464892702182   -0.06643626779474
C        -1.95688389855310   -3.70982443862356    1.19712521090040
C        -3.05548376103087   -2.72888158255467   -1.25109643880655
C        -3.16101694113114   -1.83993383282845    2.14602251677492
C        -3.08096743349733   -2.91318769375270    1.21184905686585
C        -3.71215390976972   -2.49252205234522   -0.01576112116270
C        -4.04399256327877    0.47511151382177    2.00753709000171
C        -4.46014518100961   -0.24169595966237   -0.76254878439499
C        -4.06535560465068   -0.87252901350445    1.60457289102154
C        -4.34261009898563   -1.24391355832757    0.24672985375135
C        -3.97788178740959    2.74649027838411    1.11596866436791
C        -3.74551340081190    3.21774267176390   -0.23707600697399
C        -4.07655712906950    2.18034590928673   -1.13160871005002
C        -4.48723873797855    1.44433392444630    1.05788807103721
C        -4.60615972043604    1.09405399607791   -0.34433311229110
