66
C66 Isomer 1061 Symmetry C1
C         4.99423560986317   -0.00349683996308   -0.20659252739466
C         4.48950199062006    1.33494535226618   -0.29943729718683
C         4.08093272354526    1.71929769486368    0.98509972301670
C         4.63128577789122   -0.53143559488020    1.11137883594740
C         4.12027098746765    0.52896777751154    1.85618602270978
C         3.82138615773845   -1.69573176151493    0.95885115518345
C         4.28973593754151   -0.77042786095542   -1.14575987880802
C         3.75167667623946   -1.92419904649769   -0.48265139524666
C         3.49814960682594    1.37685822425787   -1.35735456006009
C         3.38272038863440    0.05872061434258   -1.91506509331416
C         2.33017753566853    2.13518499166514   -1.20948756675248
C         2.84583101322372    2.34713626640454    1.17411401037752
C         2.06415515872026    2.75820637876130    0.06123537526582
C         2.86060116348714    0.42862095754654    2.49046118590588
C         2.13695864448412    1.63926285653645    2.20891765714755
C         2.63138799334727   -1.87606411824304    1.70896243238800
C         2.12353212050513   -0.77807993262449    2.50747900012947
C         1.65668818321324   -2.81343407636461    1.17885508120078
C         2.64377242469457   -2.49595073771874   -1.03492882287987
C         1.70081265974602   -3.16828958242047   -0.18938719638335
C         2.13952884756007   -0.46015877515218   -2.35259636418050
C         1.90209959303281   -1.84397609393421   -2.08436311119240
C         1.16780546863927    1.74090466217374   -1.98753242060041
C         0.99249190113574    0.40082472448074   -2.46543825813126
C         0.04020920720658    2.53702651985109   -1.83578584033662
C         0.75563101319973    3.21436543369250    0.37186121233985
C        -0.07908382636337    3.45004509843293   -0.74532996009298
C         0.75247674127854    1.74596467923085    2.34283866825918
C         0.12787796561070    2.81385206257134    1.60430248097024
C         0.70742326305739   -0.66250751859736    2.78380367974365
C         0.01080594299074    0.59907816262819    2.77726838785263
C         0.38712599283593   -2.87945353575353    1.77729664986859
C        -0.07805349764350   -1.81370628416018    2.61097784949242
C        -0.75729370273972   -3.42088137017862    1.11275465885402
C         0.49812627672550   -3.27652464501468   -0.92350170627162
C         0.59677379775808   -2.34508340042578   -2.02991819864476
C        -0.72796910766740   -3.52822491054977   -0.29814112527638
C        -0.35753085936908   -0.13853754743517   -2.57247323700599
C        -0.52407657586448   -1.55669974444236   -2.39050082182294
C        -1.29199733904276    2.07678433145097   -2.17485433726248
C        -1.52197744827247    0.68926007329905   -2.40645117323797
C        -1.46067906670493    3.69686671190785   -0.56895877470787
C        -2.22236433264906    2.87897791120804   -1.51577305064080
C        -1.26610962942262    2.92104105486254    1.72787144463575
C        -2.02986794476135    3.51275277716380    0.67359292449038
C        -1.43420682602603    0.64109651959374    2.71609867178716
C        -2.02875718137157    1.84340351896563    2.27704738909534
C        -1.50657823880864   -1.79754086595695    2.57562347907459
C        -1.93457810083826   -2.89105179590896    1.74621517799887
C        -2.21493702407336   -0.57898496619699    2.64378564212736
C        -3.13537183373019   -2.81351423775088    1.04217001876130
C        -1.88968116149238   -3.14407884855378   -1.03406818622772
C        -1.77812039896992   -2.07274202752940   -2.03583116989740
C        -3.10461392637189   -3.01168820802599   -0.38911244469408
C        -2.81422188459392    0.16079219098099   -2.00513433081053
C        -2.92877380916427   -1.25174692329261   -1.94444927842690
C        -3.81071521895535   -1.89165404986464   -1.01063674711248
C        -3.32337753955155    2.28315051909425   -0.83487909936745
C        -3.25873009700892    2.74100391182881    0.50842202234893
C        -3.30133539415596    1.81483726399900    1.56432007268197
C        -3.67701586010014    0.93838044779711   -1.11808191355818
C        -3.50367228555004   -0.57603425626619    2.02174575026976
C        -3.95015186105958   -1.67827108893754    1.27855896234509
C        -4.39783460790321   -1.15026083756181   -0.01523172632602
C        -3.93950216110003    0.61696607466022    1.32276866785780
C        -4.29801002316219    0.26385571864312   -0.02215667627537
