78
C78 Isomer 7290 Symmetry C1
C        -4.92422884440201    1.04151596855771   -1.06465306862902
C        -4.75043266869975    1.52115437804526    0.26303900037922
C        -4.44062520293155    0.41922759493029    1.12386038343921
C        -4.65612462906770   -0.34927409413407   -1.05657474287691
C        -4.37615015781980   -0.75403351060971    0.29404000489104
C        -3.62595260340514   -0.59598547685752   -2.01183566458627
C        -3.90044440563076    1.67029434309838   -1.85475615012533
C        -3.11115705189071    0.66490629560934   -2.47904708191922
C        -3.85539910726865    2.64163552239041    0.22729365455595
C        -3.25151088571295    2.68521044015938   -1.09447607022101
C        -3.05814394864546    2.83509326605172    1.32752293110466
C        -3.52963163102907    0.56454443330794    2.18933938536747
C        -3.01118853250753    1.87226760147397    2.39188929121744
C        -2.71026781988962   -0.57903907126095    2.57245619208078
C        -3.44069780168226   -1.77449477515457    0.54339085433194
C        -2.66867794726243   -1.77006803343464    1.75670777545950
C        -2.77410068593317   -1.68180569615350   -1.84231846029000
C        -2.89026657432223   -2.43330005906784   -0.61873332096505
C        -1.50439487725621   -1.61877422510767   -2.51623207763973
C        -1.72519190225830    0.83784224203818   -2.64406198116427
C        -0.91516159318131   -0.34242705294357   -2.80754242121188
C        -1.87020369714015    2.88214813838427   -1.23727931906802
C        -1.12578726795005    2.04441251735176   -2.14847968743174
C        -1.73226560063598    3.37862616282777    1.15831779501958
C        -1.13495241422716    3.41380258191762   -0.10927954678993
C        -1.74767077903002    2.05930350610522    3.01952446082543
C        -0.95757684482690    3.00799936574570    2.29186540229331
C        -1.59739624888716   -0.32670123125865    3.39598767701029
C        -1.09793214262340    0.99931755047244    3.60475175092049
C        -0.47074884151609   -1.19669481743172    3.47642006545973
C        -1.56563092457293   -2.70909479794736    1.90629703443230
C        -0.45287770331744   -2.41921805296719    2.78932836255451
C        -1.94550472053801   -3.43014146915628   -0.40330332498846
C        -1.32146067142543   -3.63170375384724    0.87678532573353
C        -0.65548748945213   -2.71983130582215   -2.34989659470141
C        -0.99323705148838   -3.70700919534780   -1.40159967555839
C         0.76849491221174   -2.59213974457098   -2.34804201681881
C         0.50185246926882   -0.21769006120594   -2.84125386940444
C         1.36072146566829   -1.36320899992500   -2.57828416639855
C         0.28126311532537    2.17430607461135   -2.21200877834412
C         1.06533319343600    1.08882223014650   -2.73469161707467
C         0.28112997962177    3.51026588001535   -0.15917338379365
C         0.93733887662446    3.16707966504750   -1.39193765945851
C         0.43672341738298    2.93096651038721    2.23956997879182
C         1.04026608432570    3.45132371257174    1.05427553993557
C         0.32989950284120    0.96212659997613    3.64561411509345
C         0.70676162303097   -0.41695406319461    3.67175570420619
C         1.12953113562511    1.91082509702018    2.99702657526861
C         1.97017146957228   -0.83855160413007    3.22979183391708
C         0.83580117915816   -2.94357720043889    2.54324365146115
C         2.01709253937240   -2.16624976780514    2.76218789851238
C         0.00296653143690   -4.16747482054889    0.62639695574773
C         0.21830935648648   -4.17973590071839   -0.77803012981232
C         1.30546586384480   -3.51420901967130   -1.35576845848001
C         1.07212521067655   -3.78817191057317    1.41420987884530
C         2.95270996254317   -2.51595450550438    1.73850766715187
C         2.42089654904831   -3.13723622519711   -0.56608808605166
C         2.32585715421125   -3.40916533881545    0.81482222165682
C         2.71982262837632   -1.18915592355894   -2.09488477135255
C         3.22371327775769   -2.03053908098738   -1.02567878397660
C         2.47794386894497    1.18922578482187   -2.68127854953568
C         3.30296454043874    0.05060855363059   -2.30561344685848
C         2.33176984649703    3.28599487242536   -1.45103730614664
C         3.08743170052470    2.35321094685942   -2.21962026289202
C         2.44256931301422    3.35356460245535    0.97525271683557
C         3.07649151585222    3.51032311041655   -0.25424980214364
C         2.48407614428320    1.53507875539922    2.64653721443813
C         2.91390364818144    0.15467324609596    2.76065639662269
C         3.17646250404439    2.38678601653557    1.77748682374883
C         3.85909812149757   -1.58629141350104    1.29801421081458
C         4.10682267060667   -1.43205845070568   -0.10861587133691
C         3.94235407929244   -0.28287149735702    1.90460212937714
C         4.38042059868878    0.54670316234812   -1.49014457175063
C         4.27426934055615    1.96952704252044   -1.46284942083655
C         4.25364612460404    2.65402533194955   -0.26032902695294
C         4.28807561766348    1.94229944596149    0.98269886431347
C         4.65041406556332   -0.12441682520531   -0.30275116333477
C         4.57852007032777    0.58321042245430    0.96093260710603
