72
C72 Isomer 8128 Symmetry C1
C         3.96582202341138   -1.46769654899705   -1.82621122111184
C         4.28829598619979   -1.87945472476719   -0.53828615221868
C         4.83926812839173   -0.72701835038405    0.18255189341839
C         4.23702111643789   -0.02740876707310   -1.91436501467302
C         4.78189144928159    0.40944165110006   -0.67812235783912
C         3.09564109704640    0.57247845727255   -2.45445506965183
C         2.69204859871075   -1.72903181000329   -2.35718909839202
C         2.18605265476371   -0.47069977866106   -2.86760287288166
C         1.79412982786050   -2.57444276497238   -1.67577450191341
C         3.30508583814651   -2.50096397620165    0.26035057761801
C         2.09815346085448   -2.94252425454921   -0.31840694138642
C         4.23196259017467   -0.70611176118260    1.44946767018724
C         3.27808649845562   -1.79017004141517    1.53040930709047
C         3.89090448991345    0.53587830831482    2.02258562315009
C         4.29850749923509    1.62999278518280   -0.15167255096814
C         4.07826747019916    1.70204993980752    1.24379950701935
C         2.53762384711533    1.76968808935835   -1.89950826215502
C         3.20778845554348    2.32681722869978   -0.79386964105068
C         1.13592751006278    2.02478576038277   -2.09767816125900
C         0.83574874262162   -0.23858515788701   -3.01941380748012
C         0.32045735075067    1.09760765205584   -2.81459178781717
C         0.42506410536970   -2.50770817258094   -2.10553411629701
C        -0.04303203645176   -1.38410481594198   -2.88370712628046
C        -0.51138375060125   -3.22372824475324   -1.35553448619424
C         1.00462258402442   -3.17931788850763    0.58674006144096
C        -0.22250787888489   -3.53928089377504    0.02497197803791
C         2.08888617649784   -1.65929899401635    2.24175481772773
C         1.00753785116637   -2.55172125243050    1.88564428463640
C         2.65665104814925    0.67135701214053    2.74187361812205
C         1.77392863942678   -0.39706789769018    2.89080487580941
C         2.95031142562634    2.57336483417541    1.48880611651841
C         2.41392192442000    2.96223481669759    0.24743050763602
C         2.10206960887538    1.98354383520364    2.43277948444020
C         0.46389781901297    2.92425635512998   -1.18152844867119
C         1.04286012119965    3.16133893768316    0.12523964918475
C        -0.88911015831407    3.13854514018021   -1.31299999423397
C        -1.09962848874326    1.29002976223149   -2.90624808766183
C        -1.66928121735771    2.43586912515058   -2.29243655881275
C        -1.41150239022682   -1.16517618304809   -2.98805004059084
C        -1.95398710604254    0.17360721628588   -3.06312755760331
C        -1.91072049269557   -2.98760217237007   -1.46823946316691
C        -2.36478603049464   -1.99331971221295   -2.32294994421806
C        -1.44854808651506   -3.45235306369066    0.74687232768208
C        -2.51382999080539   -3.14269831771588   -0.17091556063039
C        -0.21208426572560   -2.37534603273754    2.53664038677687
C        -1.44048839850969   -2.87683970429406    2.01106205080080
C         0.40020256120991   -0.08299903524937    3.21923684549970
C        -0.51040438450714   -1.13942801991358    3.23229725781715
C         0.72440320839989    2.21823677019304    2.36920777839301
C         0.20274418346514    2.99509592193055    1.28446658619515
C        -0.12227757498348    1.25352482411977    3.02121057493937
C        -1.73076346258058    3.39609196328566   -0.15956636628284
C        -1.21709306727544    3.10619108804193    1.13366805283519
C        -2.99845099603102    2.42940273901532   -1.83873482260361
C        -3.03014219831854    3.01887988557627   -0.50587121261852
C        -3.26439058564813    0.14127212852425   -2.49859486759554
C        -3.49071435821835   -1.17713619634900   -1.95982555888403
C        -3.77288247332913    1.25823147647853   -1.82408435027167
C        -3.55430738675595   -2.30816443858595    0.21005050874829
C        -4.07363639131374   -1.32594181472786   -0.70912970886744
C        -2.51155901068737   -1.99935826042557    2.40266223584448
C        -1.92019096244654   -0.93101133684263    3.16241716557131
C        -3.55857146545845   -1.72903850794041    1.53196213467021
C        -1.49949682438492    1.44202622468268    2.92535741529287
C        -2.06616242875321    2.41568177251748    2.02130934362245
C        -2.41790813555404    0.35697587411620    3.03682480709671
C        -3.82449718186246    2.19707658875637    0.32552192156802
C        -4.33832441387891    1.10938523003761   -0.49097423976327
C        -4.45496714915581   -0.15522256635394    0.05378952906825
C        -4.09880135476155   -0.39578227222187    1.43384258729623
C        -3.35412635963032    1.93626726828605    1.61430887212747
C        -3.54722743511692    0.62952706785434    2.19028159816300
