68
C68 Isomer 5547 Symmetry C1
C        -2.84195822095408   -2.79619560498541   -1.51433818142622
C        -3.06471351764469   -2.97545134076851   -0.16376668336940
C        -3.92904748079731   -1.89561178536791    0.29950403090630
C        -3.42905760273841   -1.51697794352476   -1.88883481235987
C        -4.04523847162047   -0.93466251374122   -0.74565629862064
C        -2.46127647110602   -0.80945147422708   -2.59925583384892
C        -1.51899739770519   -2.85885795758062   -2.01726071916417
C        -1.33371457235504   -1.70058045004522   -2.82896010338907
C        -0.46138742618329   -3.29583098462030   -1.17243596446020
C        -1.96895307636447   -3.12013584435804    0.74563197386641
C        -0.65764922089219   -3.32994917144396    0.26526890787690
C        -3.45419372580966   -1.50496849825130    1.56257888893360
C        -2.22289558451344   -2.22029693878543    1.83716983031979
C        -3.56137847320923   -0.17519812009363    1.91192016988034
C        -3.85888443204440    0.44951625582042   -0.48468378012316
C        -3.90430971145223    0.79664770230022    0.89648018004867
C        -2.24810385003182    0.58075002588053   -2.39392293653842
C        -3.01312829877070    1.24737594396750   -1.36909809927933
C        -0.98014756240119    1.10141444767854   -2.88672685942998
C        -0.06090909532717   -1.21078589879748   -3.11378896840122
C         0.11945992868866    0.21144007522171   -3.26129962113414
C         0.81599557764301   -2.97449526244788   -1.64429534356169
C         1.01229993503377   -2.03039714583828   -2.68735270638278
C         1.96868405197653   -2.96883747483836   -0.78851074131215
C         0.43835233171955   -2.97044814593461    1.13019243244081
C         1.80019672854096   -2.99768201403920    0.61502887615888
C        -1.15852348524376   -1.59535488282623    2.49322885681126
C         0.14724570572452   -2.14372152094750    2.26337003470387
C        -2.54558676261027    0.41206972794496    2.74898478923813
C        -1.31802095502236   -0.22396108935127    2.95648706016753
C        -3.35236080476451    2.01741613807999    1.32716871001045
C        -2.54528002414232    1.80429643803564    2.48232303895893
C        -2.53580027652525    2.53637053843125   -0.90539226840697
C        -2.69163464920473    2.91276100908844    0.45527516074037
C        -0.66701909190389    2.42346337095143   -2.57393606569773
C        -1.43398809826061    3.13376675722709   -1.57063829111170
C         0.69916106333357    2.87009159344592   -2.48488221750941
C         1.44387063032602    0.67681320106825   -3.18569997683561
C         1.73621468441156    1.98211191828589   -2.68701143757103
C         2.33505206066714   -1.50800643890954   -2.53467170153154
C         2.96319734702653   -2.14991463474502   -1.41306245743302
C         2.54204555762458   -0.16941018257387   -2.78645515613306
C         3.88466708391440   -1.43974381809732   -0.63765169208023
C         2.86382670307033   -2.42089680776277    1.37620938762064
C         3.91236626797436   -1.69968009541800    0.73888723812711
C         1.21114355304131   -1.43058815225433    2.87391303665488
C         2.53464054472113   -1.68667559443297    2.54921197092168
C        -0.14191472666740    0.62759444505045    3.04795731832401
C         1.07526325562788   -0.01066468525391    3.11542486072919
C        -1.37314731251091    2.59248965515020    2.35529379055660
C        -1.57421788926992    3.43989757456801    1.20617442180228
C        -0.12505737401411    2.01505013799138    2.60958270198680
C        -0.53452316203774    3.95590689113972   -0.86879231595634
C         0.80126033682657    3.73748925818429   -1.37449838867291
C        -0.46665181448979    3.91302878078492    0.54376934974138
C         1.05028001617970    2.51285315362779    1.89985771944091
C         1.65510585962850    3.42989306026872   -0.30405853207127
C         0.86070329737415    3.48345211893600    0.91354019906894
C         2.82055763364454    1.89854657880020   -1.74871880384961
C         3.39052978255326    0.59438939796034   -1.89981463650282
C         4.02559088609809   -0.00481440152766   -0.83739867878784
C         2.69872263722932    2.48430446329447   -0.46505403821646
C         4.07250867078166   -0.41347678046261    1.41378117451280
C         3.24946831973913   -0.41135547724106    2.52684545582255
C         2.32121278275327    0.62846882863588    2.72685574971314
C         2.28188371332074    1.74619883990220    1.87062853298164
C         3.99103107894155    0.63529717351676    0.46595951541926
C         3.14413259245228    1.74991363025418    0.69841894668287
