66
C66 Isomer 589 Symmetry C1
C         5.07153955403339    0.96227135029948    0.32712024721218
C         5.05278848423929   -0.41695579829696   -0.01988183309939
C         4.65920954492165   -0.52518892925627   -1.37670097928319
C         4.48997422270702    1.70459617973463   -0.77205849621816
C         4.24306193466825    0.81417211365380   -1.82343841910693
C         3.37090805706222    2.44346550305659   -0.28423137729027
C         4.17461712976317    1.12191385300512    1.42758985373448
C         3.21222127624638    2.11510961014799    1.11398140123080
C         4.27939563770478   -1.12228024540656    0.98900790687957
C         3.68323898631749   -0.13497768002421    1.88834297146055
C         3.49666754700092   -2.17664927235742    0.57497191772017
C         3.65137857538298   -1.42440500749493   -1.75535389789614
C         3.22656578568003   -2.39335785834035   -0.82862740797473
C         2.95353490648808    0.69918462403202   -2.41822314464557
C         2.61824705784671   -0.68982834894666   -2.48330891632771
C         2.20183359836345    2.55398524358111   -1.07067282448322
C         1.91300070582148    1.62474955827168   -2.13794054465681
C         1.09149002383637    3.01640717968007   -0.35171455273769
C         1.93675438775042    2.04990578728648    1.71753219579428
C         0.96846570602841    2.81958450691250    1.05617887373462
C         2.35729320498724   -0.26736190774288    2.36862871264407
C         1.47683428086666    0.88679632781670    2.42484402750214
C         2.28377545762691   -2.48485855086551    1.28926805486394
C         1.73902828372364   -1.56718253428098    2.22284712488751
C         1.91066179047248   -2.88867126865436   -0.92456511765396
C         1.40220575286350   -3.15367812116720    0.39919536058379
C         1.28961703761462   -1.11114627672640   -2.52399213456672
C         0.99391574683121   -2.37088090693584   -1.87954397505485
C         0.54529294487540    1.23451899443299   -2.39406078358283
C         0.22925375586324   -0.12969401033103   -2.66869858769403
C        -0.20484165096077    2.98938189916561   -0.91398256095085
C        -0.54119633686527    2.07652035620141   -1.92865067648961
C        -0.41111756192863    2.74750509710826    1.37939648319410
C        -1.10640530423500    3.14197925450575    0.19441468127982
C         0.05108919206796    0.73554610648622    2.62570114132740
C        -0.93276640952350    1.71603963681300    2.17726187938841
C         0.36513049763566   -1.68675973084575    2.47533070480612
C        -0.45544942758835   -0.56294968030938    2.79264648625865
C         0.02790146750114   -3.27589436115225    0.65595194273567
C        -0.46798800983739   -2.65143135965307    1.81866804145491
C        -0.34121157418009   -2.69248031848255   -1.68937148332427
C        -0.84433456276757   -3.29206870185783   -0.46798974650996
C        -1.14561495701105   -0.56592765517522   -2.63337468111167
C        -1.37626429565202   -1.90494343865079   -2.25618330234500
C        -1.93036638994838    1.69728171368815   -2.06420108807468
C        -2.25764245753728    0.36302166192653   -2.49829813195497
C        -2.41384081578871    2.85294603802077    0.04439446871571
C        -2.88531513231574    2.36235393460866   -1.23207166349438
C        -2.34808152890054    1.40482963468742    2.02507227299248
C        -3.11071385566127    2.17856151118655    1.10924428465139
C        -1.81334009696323   -0.90647027375917    2.50810147324001
C        -1.81255010389693   -2.20078663432239    1.88716793742260
C        -2.82210218302093    0.04033616139266    2.23499822920250
C        -2.20283718007796   -2.98217341293864   -0.35773442020943
C        -2.57987366884928   -2.28799706607454   -1.58243669079671
C        -2.75914854053080   -2.49504010216524    0.87505192590449
C        -3.55761561443668   -0.15572782806207   -2.21053100918298
C        -3.67992278617625   -1.49235575664545   -1.63785603710244
C        -4.15250754940537    1.82616548393772   -0.96489601651273
C        -4.30028649652383    1.69779621002092    0.50903471833689
C        -4.54301820797889    0.61675375430609   -1.52938250040074
C        -3.98248233037959   -0.45003729753412    1.57143582706036
C        -3.89903524059273   -1.67688045865422    0.81480920892212
C        -4.52763321428984   -1.42854368784923   -0.46631235941315
C        -4.81518464687672    0.44234475500037    0.80111963353832
C        -5.15020440409156   -0.18543956000782   -0.45602462853431
