62
C62 Isomer 1940 Symmetry C1
C         4.00333576481658   -1.15623548514440   -0.23390852290873
C         4.20426241662430    0.19505831792940   -0.00030866623387
C         3.77926115184973    0.48291501836945    1.36529593620467
C         3.41657289048473   -1.72114031626726    0.97246036252903
C         3.16818489729235   -0.68275385596375    1.91351797081836
C         2.37833375812063   -2.57690623923663    0.59830568457615
C         3.21526606429667   -1.60869137280868   -1.33711098807366
C         2.27357550490988   -2.58516155060500   -0.84312908037323
C         2.75954727471131   -0.66579275018268   -2.25097618984097
C         3.63012427392484    1.18533594964759   -0.85505110944496
C         2.97996793647517    0.74407688763392   -2.01138333073281
C         3.09760707782419    1.70993768284739    1.33926274296242
C         2.98800808413183    2.18349124295021   -0.03354512154329
C         2.00454472803087    1.84912912375198    2.18180081355450
C         1.88595510027481   -0.60321982869287    2.54694652385954
C         1.40997514142944    0.69724284015321    2.80275206904611
C         1.21344807832354   -2.67919180240954    1.40223008916274
C         0.89982663425403   -1.65133098406607    2.35843935336827
C         0.17400919720078   -3.40375569467280    0.77261255965875
C         1.02822508866712   -2.80793578817087   -1.46847971910951
C         0.05387675609865   -3.44430730340399   -0.67350104380493
C         1.44756368538774   -0.80990403597442   -2.83113464637894
C         0.59193416870768   -1.90910832947714   -2.52247485490002
C         1.82233577767367    1.44489380703829   -2.45187516877258
C         0.92106760996756    0.47947440038831   -3.05482669902799
C         1.84950469663414    2.88768718528380   -0.45314684417921
C         1.31834247628510    2.56177055238000   -1.76790751167700
C         0.97962683326908    2.78196733471078    1.84814294879273
C         0.92577885042796    3.38522006783147    0.56773594755170
C         0.01406156398409    0.97896076180804    2.93905200923548
C        -0.21345308716165    2.31943335812172    2.50326196871713
C        -0.49883609591837   -1.38636483007446    2.64029398736102
C        -0.96389166051312   -0.02761982124699    2.81630291138601
C        -1.09836977997042   -3.39237348880163    1.33308632186594
C        -1.46687546066212   -2.34398264383350    2.21717225684558
C        -1.34465812098324   -3.38057353687198   -0.98947253357330
C        -2.07125792746012   -3.46952125909077    0.24196297927753
C        -0.79269423505071   -1.71403454919943   -2.69379964834804
C        -1.77493488735268   -2.45577358815488   -1.94195394725843
C        -0.47260053950708    0.70063947013775   -3.09888827438573
C        -1.32891983503807   -0.41210385238682   -2.94459144501608
C        -0.03602881880470    2.90816044821009   -2.06284132929567
C        -0.94881998282610    1.95511417623359   -2.68533316693993
C        -0.35445237085221    3.86630303975535    0.16547354164785
C        -0.76871256479671    3.70825716821631   -1.19928445648175
C        -1.45549021483341    2.70938380883743    2.02247026075173
C        -1.50250817080747    3.61980381429739    0.95693433624248
C        -2.25434395734336    0.38524426007512    2.28839213166393
C        -2.47030926545423    1.69532368395958    1.84282475591442
C        -2.76873588649665   -1.93288849384905    1.79564175964025
C        -3.09614248013730   -2.59719704729662    0.53000314845176
C        -3.07677917520482   -0.58571556604676    1.64827188854041
C        -2.87174286955331   -1.56213852579360   -1.65319545607439
C        -2.57542368371168   -0.28997638597724   -2.25132570108384
C        -3.49553491696867   -1.59083437175232   -0.40386771162540
C        -3.61623612250340   -0.35555731184713    0.31985167328113
C        -2.22945464009376    2.08513530575868   -2.07598603644201
C        -2.14797935403754    3.22678205748161   -1.22331397456037
C        -2.58875832613198    3.15905959327296    0.08366151606569
C        -3.14406284032656    1.96085433896621    0.59577911903007
C        -2.96922733257412    0.93921711530385   -1.66854854885952
C        -3.46788887900288    0.89621779794780   -0.29677784105722
