68
C68 Isomer 1729 Symmetry C1
C         4.86159351503816   -0.82717438341225    1.08624580841651
C         4.37856166271299    0.26125552356936    1.92728539897865
C         4.32184133361957    1.39203425273502    1.11807552288206
C         4.82242422075368   -0.38330038070021   -0.29657510599625
C         4.62450829622971    0.99126891988210   -0.27932016471684
C         3.88376582637359   -1.20167873941014   -1.04082184291787
C         3.91469734617377   -1.84595461096695    1.19071180474520
C         3.39273141233116   -2.18309376002288   -0.11026630528206
C         3.16424700135770   -0.13883733788097    2.58174702980567
C         2.94477751075831   -1.51136383931070    2.19245545522739
C         2.03467742756239    0.72251353024958    2.65883357410897
C         3.17800238766799    2.21345087703691    1.08952095235488
C         2.06340776093596    1.97387428643810    1.93701040095498
C         3.65943839955352    1.58618474233219   -1.11103991601072
C         2.91117157670328    2.50294196407562   -0.29504983092965
C         2.97176722466515   -0.63611785514968   -1.96032831948354
C         2.93526069984239    0.80939001435460   -2.06665523427691
C         1.77400617896251   -1.39391830627422   -2.27905175235426
C         2.11649751815172   -2.71224776130904   -0.21397880741566
C         1.43867524419744   -2.52878240813891   -1.47372618748092
C         1.67152902016980   -2.04157976395239    2.09862183918315
C         1.31813423485525   -2.87426710294598    0.97963014947630
C         0.75304309020648    0.12579926059261    2.92385513696157
C         0.62985849757790   -1.30710884874359    2.78230470369662
C        -0.43573283400592    0.93172537405706    2.92311112165254
C         0.83147024623385    2.63004919505685    1.61692972901870
C        -0.35941455916177    2.25279925009089    2.33508248533573
C         1.67130823573392    2.99734646313610   -0.67976895431417
C         0.71266037455652    3.29670267770307    0.34491489234955
C         1.75818990244229    1.41804039329013   -2.53377148540296
C         1.22045605198244    2.59603230550848   -1.96127419225179
C         0.68812106735499   -0.75265285712600   -2.99250538336588
C         0.66170396011249    0.65384546085013   -3.06619027760512
C        -0.59231748525026   -1.34368647594763   -3.04880412120982
C         0.15943734138735   -3.11322021701154   -1.57211498226521
C        -0.77239336673294   -2.62553412509338   -2.48517124405099
C        -0.02409956403191   -3.33424286608155    0.87611104577958
C        -0.57533365688873   -3.57957451107461   -0.40223137005865
C        -0.61093956248403   -1.90903674474526    2.81380689130622
C        -0.92674812270159   -3.01538788255781    1.92937694769412
C        -1.72276297297256    0.28099603794877    3.04890417837900
C        -1.78778611032120   -1.13227384203087    3.03659589105998
C        -2.89593007060389    0.92196351135207    2.54762412646570
C        -1.57267284816568    2.90872765008322    1.98479029004492
C        -2.81521713015827    2.24223164051863    2.11350522116253
C        -0.57440203170717    3.66022671294059   -0.11567327945614
C        -1.64905896114371    3.62700833132174    0.75469640838908
C        -0.17865260108160    2.61409377748128   -2.26462123715092
C        -0.54417302598488    1.38463835956365   -2.91253013185993
C        -1.05747588676454    3.21422383866702   -1.41603608423503
C        -1.80353134730877   -0.61529547189070   -2.79451358703380
C        -1.79111250799413    0.76732219440178   -2.61314504067350
C        -2.09010820501466   -2.71459952517188   -1.90251306460637
C        -1.97458885285224   -3.37995208721966   -0.65257747365361
C        -2.69235589621606   -1.45904360333704   -2.01149289576859
C        -2.30522579249802   -2.95059977378718    1.68707614613931
C        -2.84362015282607   -1.81233559068771    2.38880736175288
C        -2.82450777450042   -2.94497584989874    0.36559770206482
C        -3.78294419684688    0.23081558801256    1.62465646628247
C        -3.46470788239293   -0.91192699550090   -0.94253684324434
C        -3.71010215070109   -1.12995589107707    1.49921416229699
C        -3.62313225544502   -1.74419422753048    0.19117920215099
C        -3.55434363849394    2.35289184510129    0.84944208170486
C        -2.82966179674144    3.16947442151518    0.01169673108188
C        -2.40827419407073    2.69937658030993   -1.25265728601046
C        -2.73685186431779    1.38989301012753   -1.68981536502987
C        -3.93027467187628    1.05506643098911    0.44202182931963
C        -3.54851059594713    0.54170921469477   -0.82668092211167
