76
C76 Isomer 9791 Symmetry C1
C         4.57361855039652    2.02191738273647    0.79581588016883
C         4.97613816070123    0.81964506619910    0.28805022654266
C         4.69968653674824    0.80698374225681   -1.15929304810784
C         4.12938558535509    2.83620227745121   -0.34940737088714
C         3.95281854428562    1.96929554276206   -1.48265677381071
C         3.07625844983956    3.59059473737426    0.10766401991758
C         3.54868413105888    2.05284759208353    1.80879717052895
C         2.77848809429646    3.19583256562317    1.49787857248115
C         2.87470521238355    0.85058262084837    2.21441239149898
C         4.49410875019816   -0.39657573530727    0.82367542528341
C         3.43260935064050   -0.41674286588447    1.76969987615253
C         4.28705877237523   -0.46475151650738   -1.50918385740297
C         4.43525931284219   -1.28560691522016   -0.31218434377689
C         3.11960235822861   -0.64285287553240   -2.31645240223038
C         2.66018275753014    1.80151747926292   -2.07852923992905
C         2.23533006624825    0.48124426265555   -2.51875314456930
C         1.85930248036628    3.61494679752292   -0.59684570757983
C         1.62938886458574    2.73211677741816   -1.68858127258671
C         1.40219481956058    3.20402344976873    1.64877598118849
C         0.83239284826366    3.69579055964163    0.42113052009534
C         1.45506873943264    0.92369934828856    2.52955554073843
C         0.72377883292962    2.12897344450071    2.26719364127505
C         0.67181983759412   -0.27728975165818    2.70657734107596
C         2.61797575411806   -1.61201764947922    1.81700460721399
C         1.28287517681714   -1.54245621807590    2.38746340009133
C         3.75689085662066   -2.45309592185638   -0.20560839416362
C         2.92706770789688   -2.68759801243272    0.95173459451682
C         2.59047529349064   -1.95029265729420   -2.30075294840358
C         3.05399521644945   -2.90995716816908   -1.36612180200445
C         1.19061920111154   -2.19720764028020   -2.48726700504590
C         0.83510968272141    0.20820868015622   -2.74787307850654
C         0.31290022351237   -1.14543660606614   -2.70670659636333
C         0.26209244005064    2.46081024603832   -1.99674653287387
C        -0.13233420717452    1.25562436294683   -2.64213079785735
C        -0.47077261063153    3.47857248535053    0.12035032799468
C        -0.75741897429053    3.14489841167095   -1.24709951669165
C        -0.70286596017377    2.15236278955658    2.12838014723448
C        -1.33912673262158    2.96885060650082    1.15157143039612
C        -0.76040208043511   -0.17641851876090    2.89245595808417
C        -1.44824624427808    1.07781191751657    2.70003348548984
C        -1.57849357948001   -1.34940393119788    2.74921200545768
C         0.42320503936666   -2.63398494706512    2.14657579329938
C        -0.98044375752758   -2.49989870355308    2.23453385132002
C         1.90971554377750   -3.59984247733768    0.49473318718451
C         1.95136874461053   -3.69256416625570   -0.92851376787645
C         0.80072264921375   -3.32205773277847   -1.66684054541551
C         0.67827079902721   -3.57719095635171    1.09611521251226
C        -1.56880263530953   -3.16005328509697    1.10553937239619
C        -0.46451791817376   -3.34895369389884   -1.06618828397678
C        -0.51937914848639   -3.67882285648390    0.31616769236755
C        -1.09206092730630   -1.40690919108229   -2.44211906431050
C        -1.48043663700581   -2.48013096791096   -1.59394837361995
C        -1.53912861996873    0.97538152263023   -2.84133724059070
C        -2.03120190603163   -0.37874471437629   -2.74713205504691
C        -2.07629916992104    2.95334394136391   -1.55720371107099
C        -2.46138243636010    2.00425368568874   -2.55351027770671
C        -2.71954808301178    2.84188968693597    0.83199860182586
C        -3.11654782770282    3.02539696138770   -0.54086079228370
C        -2.85147604789612    1.14284336410765    2.56997980547504
C        -3.51395502671811    2.01904928683340    1.63792084509134
C        -2.97200260335760   -1.26550295860398    2.49422761982566
C        -3.62413990974384   -0.04729363396864    2.61801088716997
C        -2.76439492570903   -2.70868709424836    0.52553759602496
C        -2.74307237019204   -2.41775084450219   -0.89603665048979
C        -3.59438036388894   -1.96203609837236    1.37136562597546
C        -3.38614104213569   -0.61846564587312   -2.41559688347726
C        -3.72122437405518   -1.57115353598234   -1.39686137068659
C        -3.83664529895446    1.74833736668425   -2.31458667510434
C        -4.24052638210129    2.39173482132909   -1.05454150697064
C        -4.30861278988832    0.45703934488384   -2.28073684532924
C        -4.67492967054642    1.32603467096126    1.08503041294355
C        -4.69693473932881    0.04008932930532    1.65292536067752
C        -4.63796636075386   -1.13627964847360    0.85058957022051
C        -4.75898737137090   -0.99449826866894   -0.54261015081367
C        -4.99663490927459    1.45316319549422   -0.28513863427052
C        -5.10473174283951    0.26461508087048   -1.06672731590482
