80
C80 Isomer 14332 Symmetry C1
C         5.15915655906309   -0.55041749612572    0.70282737068872
C         4.53146726485314   -1.44420445966086    1.53915021699552
C         3.99778860297950   -2.54760007010901    0.73097592630472
C         5.06478775973703   -1.11595216676857   -0.66250212182180
C         4.18498195378280   -2.26438575018761   -0.63331661995933
C         4.80600428796732   -0.06810614163263   -1.50415134206250
C         4.71615224455477    0.80857230325680    0.66958116388385
C         4.65061325755241    1.15553418471092   -0.71596758468518
C         3.67111019890155    1.24929571353093    1.51945704884269
C         3.51956215896296   -1.03059227881194    2.43661875833378
C         3.11570584153081    0.31620690765614    2.48895103472136
C         2.74197647486538   -2.87420051834649    1.24143822020314
C         2.48704353650143   -2.04877919197408    2.38685694042889
C         1.67773157227949   -3.19562735867907    0.37090465055048
C         3.06658185540529   -2.35838912656141   -1.51759126406409
C         1.84086363156890   -2.96340229448991   -1.03105347299980
C         3.74172183780418   -0.14342880404642   -2.45078981246782
C         2.95717323994112   -1.32757782307722   -2.53400059640736
C         3.56826015084791    1.84234329394192   -1.25224375753169
C         3.08328685913456    1.11937172555829   -2.41098950180392
C         2.77248210328959    2.26088161760918    0.99588057173153
C         2.63480580047537    2.49636481836255   -0.41835914639444
C         1.68056832462622    2.61915483346669    1.80150877190328
C         1.82180970081885    0.55135360587176    3.08912191015296
C         1.26295556800163    1.81762078864442    2.92561839701653
C         1.19586915075601   -1.82327779362804    2.80883525987760
C         0.90963181401059   -0.53291187561046    3.39146359755913
C         0.38204782484321   -3.24650405072783    0.97088475726447
C         0.15454171757168   -2.63160781802451    2.23370737031686
C        -0.73912962404327   -3.56534824071645    0.12885630637447
C         0.61497514481709   -2.86347109303025   -1.79391223587302
C        -0.66687728701849   -3.25729378832434   -1.26098536804102
C         1.70438354872483   -1.13525098515264   -3.13317230746865
C         0.60293645424471   -2.00781089620880   -2.89245394401539
C         1.76159684137649    1.28660587914572   -2.82715976016416
C         1.16716391911675    0.15199674807597   -3.40200701844177
C         1.36487447888295    2.86991203609539   -0.98429329735137
C         0.91567471917053    2.27620427476139   -2.21448489950124
C         0.54854783556242    3.28267211709102    1.29487039724482
C         0.38232098165817    3.42818707109039   -0.10015680859647
C        -0.11989317954496    2.07779142030997    3.13048359758225
C        -0.58847441292285    2.98421364741562    2.14318129819616
C        -0.42592796425217   -0.24706228521291    3.66529486767333
C        -0.96916368632391    1.06594246929264    3.54476917022716
C        -1.19000494398919   -2.36861387097736    2.66380136866866
C        -1.47783051781564   -1.17154126724061    3.34831752044238
C        -1.99899695019741   -3.66193534502621    0.75219503123173
C        -2.25315579665269   -2.96029622846618    1.98861657490425
C        -3.16868243313910   -3.63100142740912   -0.00682969292447
C        -1.88857583585456   -2.86426205641182   -1.94026022279081
C        -3.12831662610474   -3.15753172050949   -1.33812358936279
C        -0.59748511802544   -1.31394528105117   -3.25064407263159
C        -0.25214164581016    0.04034097477960   -3.48745809523253
C        -1.85138480508362   -1.69783515410860   -2.79535160836860
C        -0.47918446887332    2.26710211870566   -2.55291849698914
C        -1.10439248390904    1.09031021472784   -3.14497330169421
C        -0.92809737380702    3.60426038111192   -0.54251164511425
C        -1.32192446690670    3.12070092804363   -1.82049787042297
C        -1.90332409606141    2.91887587820210    1.65765598500447
C        -2.06360945242921    3.46613566833838    0.35739714746934
C        -2.30072530453980    0.96815889202669    3.04657600746650
C        -2.64701038611169   -0.43491338001550    3.02895234758400
C        -2.80713078378076    1.85195821276117    2.08614267659341
C        -3.54111503634082   -2.33755737095349    1.90435412949236
C        -4.16510133450072   -2.86876784832005    0.74640078659084
C        -3.66876139612000   -0.94972909528758    2.21245342544434
C        -4.21032748286713   -2.22459657511413   -1.45962631373991
C        -4.79694187958967   -2.01694040783338   -0.12884921021163
C        -2.85672161922878   -0.66517081458874   -2.76284599980761
C        -2.47668021301436    0.71629011243976   -2.88654605213899
C        -4.05235576764016   -0.98355103903842   -2.05580613512161
C        -2.71121890840992    2.85749852819500   -1.75888096244473
C        -3.16069666850282    3.08228769123917   -0.39636309579685
C        -3.28526579468761    1.68369450091673   -2.22736616593105
C        -3.85683035660658    1.34695790996810    1.20837420628548
C        -4.31330678077727   -0.03857991788866    1.28435579622762
C        -4.88733933812451   -0.61801270644538    0.12375074955134
C        -4.65911083127065   -0.00716269510738   -1.16003359355598
C        -4.02707077443691    2.02384379252089   -0.01504255514432
C        -4.26687139086571    1.28550524903614   -1.23006181795538
