66
C66 Isomer 3238 Symmetry C1
C        -4.43480042319414    0.59787620973091    0.69071133461017
C        -4.36428584049404    0.34885240170827   -0.67232213390924
C        -3.67449499500233    1.48607308351563   -1.29319445074473
C        -3.67941745676416    1.84812182650143    0.95731476850738
C        -3.15619481224974    2.32953519218313   -0.26401083596642
C        -2.80951592499960    1.59239768682114    2.02432201952431
C        -4.00314146156695   -0.37661975851524    1.59563408862374
C        -3.07457578704516    0.25808672012971    2.50029949577683
C        -3.42526097207936   -1.59968501088014    1.13562456093485
C        -3.78915015182989   -0.84771699121076   -1.17974777890398
C        -3.33691455199373   -1.85830729119760   -0.26888342010204
C        -2.83639683352228    0.99361910601875   -2.27811024239837
C        -2.93616198705465   -0.45491696976084   -2.27007009643752
C        -1.60290034573905    1.65151961017599   -2.55003493284273
C        -1.81825019731358    2.80409194190439   -0.34644631190591
C        -1.13168436165034    2.64812446428012   -1.60601228961493
C        -1.47721321091527    2.06079792496256    1.99549497001896
C        -1.03189863735232    2.82793358790725    0.86219873275124
C        -0.50231136786084    1.28003092039391    2.72890559942232
C        -2.01753669354366   -0.62392881079102    2.73160541244529
C        -2.26490532634288   -1.81961658108111    1.95596488767229
C        -0.70540063989187   -0.14258211726647    2.93683457332621
C        -1.16951019656470   -2.57551616641235    1.54432452538605
C        -2.21545013664857   -2.62039946674019   -0.68365968750915
C        -1.25683976155556   -3.11218372216038    0.23261870156928
C        -1.82759013315546   -1.21369789191774   -2.67836904271921
C        -1.51812865847599   -2.38021781928695   -1.93240105054758
C        -0.66408772478162    0.89941087732210   -3.26744100444911
C        -0.74133244055770   -0.54394143022821   -3.29026348405454
C         0.71187820987632    1.26003714321797   -3.30068899771147
C         0.23578052183383    2.98115828952052   -1.65887474830876
C         1.14595328132456    2.35227422048937   -2.56346189920623
C         0.36389435976311    3.16873047397807    0.77884124615547
C         0.97054633281599    3.34251076384961   -0.48762162434602
C         0.80205261026752    1.74042104348412    2.73233018142776
C         1.21564585098593    2.80228021161270    1.84508691910664
C         1.90872465678960    0.86695417072299    2.95059474924208
C         0.39144440873259   -1.05908831261343    2.81244280229159
C         0.13412514559732   -2.30929164746439    2.12345594454200
C         1.73673302522580   -0.53720131061181    2.89535855571432
C         1.22677156287553   -2.95555487577869    1.51640338824198
C        -0.05296298264763   -3.38202131955366   -0.50539682175108
C        -0.18387782108457   -2.83963327764178   -1.83345384902661
C         1.14779935518830   -3.38951705878826    0.13007549469418
C         0.58376806019950   -1.05215515828926   -3.23142356588212
C         1.49396218258474    0.06070669860655   -3.33081507068573
C         0.91739451571526   -2.17942906603329   -2.44090777197432
C         2.72825917039437    0.02384791426277   -2.71529277706753
C         2.45218761478096    2.33624516179269   -1.96240113263780
C         2.36113576649796    3.03557542773953   -0.71019855162456
C         3.24987711471106    1.20212675829204   -2.06790103423397
C         2.60402459223868    2.65696905020529    1.64873184657019
C         3.03587708149697    1.48066506298868    2.33888001314667
C         3.17919376463675    2.65477948938147    0.34969661894472
C         4.03442768535217    0.76106073599268   -0.94419535767635
C         3.93385263946986    0.76591719377446    1.50515882091858
C         4.02724009825336    1.48331729245071    0.23920767703458
C         2.82528761302168   -1.26375803216018    2.32522262361827
C         2.53091861935994   -2.46856818355337    1.68318157215080
C         3.86745391400194   -0.61307692305769    1.53803649628719
C         2.33948732316974   -2.94198588589661   -0.57220926851387
C         2.22394604381174   -2.22928762290480   -1.80343797991652
C         3.12559509070043   -1.14180218633240   -1.96869495430950
C         3.99347203748083   -0.68594813043155   -0.92157978983449
C         3.24040060142454   -2.52334706071717    0.41084107556986
C         4.01908098329873   -1.35705257664015    0.30312226058657
