66
C66 Isomer 719 Symmetry C1
C         4.88937949904009   -1.13759785306127    0.49097914557910
C         5.01422203842031    0.00640668956788   -0.38301635057911
C         4.69297807602840    1.14279213666726    0.36506546378585
C         4.22904499100364   -0.69690523432218    1.71374694603767
C         4.15527134106915    0.69275493264735    1.66756140587430
C         3.00354580013082   -1.42201256427223    1.88485193932840
C         4.00720114101342   -2.03281661600195   -0.12723654021632
C         2.95257598818861   -2.35747872295046    0.79802908150649
C         4.24828775400416   -0.26217868132413   -1.58624501166633
C         3.61552214624584   -1.54681344167647   -1.43075511358886
C         3.46828805658300    0.74709321559329   -2.13537549773330
C         3.80982366491899    2.12472407981929   -0.13848597170574
C         3.33491343974219    2.00689195773146   -1.45002781753834
C         2.93074651341210    1.36058581093047    1.89109366429480
C         2.80859827665625    2.37564323834845    0.88699415566537
C         1.78690351028949   -0.77708232832015    2.24781591208577
C         1.74717549321211    0.65645744482336    2.28221921162806
C         0.55697318617457   -1.48285719539098    2.01192709263277
C         1.74526894533845   -2.80134523669617    0.30618569870541
C         0.60007666015223   -2.64033509366431    1.17296802565306
C         2.31174631762488   -1.79852059218647   -1.88568755233203
C         1.53287469124844   -2.73847962152250   -1.11931599750523
C         2.17363997774786    0.45874079334699   -2.70775535343058
C         1.56051904369154   -0.79146507232517   -2.60664822253706
C         2.04104411004082    2.52804846227466   -1.75250227412222
C         1.34389912072074    1.62203956500177   -2.59913616175658
C         1.57511257486667    2.93551220026662    0.59859790134113
C         1.29353926013929    3.23356733785478   -0.78672158002998
C         0.49067843317933    1.32288602816587    2.14318633055532
C         0.46820893516162    2.58876492698603    1.46443712245338
C        -0.71002373296216   -0.83660790453581    2.23345419591238
C        -0.74453102085731    0.59137980412860    2.31596509004995
C        -1.93401439546083   -1.57925533455881    1.93797261747145
C        -0.58538301446358   -3.21261319379845    0.70852191332324
C        -1.86689769313043   -2.75747851992353    1.16705384524852
C         0.24970452196168   -3.00409415650513   -1.56222461155534
C        -0.68046701983334   -3.55354100161676   -0.66024738702745
C         0.09829546950011   -0.86233865943207   -2.72670639953370
C        -0.48418597577631   -2.08189760047088   -2.40750381079575
C        -0.07362189590912    1.58159979337489   -2.65745662911736
C        -0.76606441200978    0.31131871593981   -2.73653782945400
C        -0.03099216960502    3.48899703635176   -1.14212163717299
C        -0.72544914173698    2.69385385097834   -2.11240827749617
C        -0.77063278656475    3.16852912724533    1.15120025700548
C        -0.95568144794420    3.76782231911840   -0.11455061578578
C        -2.01077896699238    1.29534831464003    2.15107428178853
C        -2.01587015970272    2.58124897467181    1.57105031266000
C        -3.18322040162493   -0.89919141941165    1.91766127359920
C        -3.22155875427122    0.55510333019018    2.03845250907540
C        -4.22952495677260   -1.30265181334336    1.05582267005845
C        -2.79350607558634   -2.93236422570562    0.06380691567032
C        -2.00222773192747   -3.17899480020569   -1.08066194238050
C        -1.88053267053068   -2.19274794772164   -2.08864720254853
C        -3.85851034966824   -2.07405514602450   -0.09745179730741
C        -2.16008880242523    0.23035624220136   -2.39514751242205
C        -2.74471798850851   -1.06609422011607   -2.08435483392303
C        -3.87990028563158   -1.17521138008007   -1.23376352433027
C        -2.10804227663271    2.61684411587421   -1.72148359006745
C        -2.27026404815685    3.40553257578046   -0.56315375077471
C        -2.98930674139050    2.88675297093894    0.54246767481126
C        -2.85543711534608    1.41983068993443   -1.89418292136165
C        -4.29269026629919    1.01981067754888    1.24483073838739
C        -4.88608579992732   -0.11746019609921    0.59692036974640
C        -4.53661096807324    0.00746597107434   -0.76880925514613
C        -3.99854096679016    1.99998569239441    0.24401797233712
C        -3.97269894499507    1.29679675085197   -1.02960876133002
