80
C80 Isomer 24829 Symmetry C1
C         4.28160208555804   -2.19336380256856    0.22724335679193
C         4.25060499395958   -1.97841271697017   -1.13234037954987
C         4.51331661568704   -0.56537590217476   -1.37970255672146
C         4.60844323905593   -0.91134077049593    0.86719276856174
C         4.62843269604298    0.10335191299332   -0.11367055035069
C         3.80015722623007   -0.77646614352983    1.98915514368580
C         3.17520668784662   -2.76875122865819    0.91443026157486
C         2.99047648386536   -1.98133512290311    2.08612398067117
C         2.04684189973469   -3.28170789300049    0.20816012907606
C         3.10915542638409   -2.38639380803556   -1.87566636618472
C         2.09220156232330   -3.14485348016530   -1.23022378712298
C         3.57291474661743   -0.14926850576927   -2.31147959070036
C         2.75440088588407   -1.28163377327887   -2.71154628818468
C         3.00072004155376    1.13646754341279   -2.23528385581732
C         3.92741197827839    1.31657800513700    0.09487760572145
C         3.35135010244433    1.93041341398966   -1.08295454293049
C         3.24571335882322    0.48938717366903    2.31343615415777
C         3.31278047887342    1.57243606258417    1.37377053114539
C         2.16722566802314    0.42315570475691    3.22096926414727
C         1.77011868455730   -1.97278229275392    2.75005139357292
C         1.50919246905540   -0.80888679950966    3.51040739682990
C         0.77023844549032   -3.31533162245031    0.88453996382197
C         0.68140867597556   -2.75758240362668    2.20788457224667
C        -0.46386135147139   -3.47388964290574    0.13143287649214
C         0.86373925843775   -3.11721386082686   -1.90135895144465
C        -0.36648146194996   -3.42169940401341   -1.26200834382044
C         1.44658620405422   -1.08538503767410   -3.16551491566263
C         0.58203851274074   -2.16545370193215   -2.92146289981879
C         1.74896978551287    1.35063700943828   -2.92199259738540
C         0.89678235076301    0.24891087803959   -3.30645548926010
C         1.14275733605561    2.59988488277399   -2.74391540912087
C         2.63363209964577    3.11399476896394   -0.87606895111321
C         1.69179167406538    3.52070855424301   -1.82712996219980
C         2.35249085437935    2.66025270667307    1.51940301989255
C         2.15581845413354    3.50896001496603    0.43127616059633
C         1.21606237336749    1.47254886202014    3.35150172710600
C         1.29018414630745    2.59981876267630    2.51537819412343
C         0.17978674808794   -0.49191179181281    3.89928028887006
C        -0.02885957531178    0.91647307848270    3.78060691763641
C        -0.59360905965307   -2.49355485465351    2.72872256401839
C        -0.84011377363694   -1.35435577199504    3.57438231640610
C        -1.77901450359165   -3.19043700147182    0.68103675422924
C        -1.79551248204791   -2.77046912587697    2.01512150010337
C        -2.93028357843099   -2.85847072816247   -0.15415954131113
C        -1.42848394087439   -2.86553162189866   -2.05683569371757
C        -0.82253639885002   -2.00797264675469   -3.01091437413006
C        -2.71505506260954   -2.63771381169792   -1.56737163865831
C        -0.51664634932721    0.41675275252014   -3.34451204496470
C        -1.37818398129085   -0.74908956921233   -3.30853121110125
C        -0.28076779189229    2.74449082544050   -2.68303799883078
C        -1.11373105109568    1.67089557167284   -2.92880028803657
C         0.61091272890615    4.20259261429067   -1.15725191327000
C         0.90345147808927    4.21228564618715    0.22858006461440
C        -0.60478070265210    3.71536568025953   -1.65556711191276
C         0.05444918722988    3.24192920359110    2.28046960479691
C        -0.15749487023698    4.00561297592522    1.09139361778243
C        -1.26298298843163    1.41620004767689    3.32508666059191
C        -1.18982388777248    2.62053465996971    2.60882180492893
C        -2.14732158728768   -0.84479161703281    3.29121619087998
C        -2.78508426158155   -1.84483746954379    2.48627006780983
C        -2.37014127215098    0.52227912825473    3.05824123392504
C        -4.01840142859579   -2.16148571835727    0.42928772758563
C        -3.85199007824825   -1.51775869498309    1.71108783134996
C        -4.82761658494265   -1.27556804969647   -0.33114197834792
C        -3.44758249277114   -1.64218874226325   -2.28516192860579
C        -2.73474467033233   -0.62564136228107   -3.00749035307847
C        -4.55675358256243   -1.01629153342898   -1.66769039092628
C        -2.44520885271148    1.73110846612442   -2.34342227894485
C        -3.29406146569264    0.65094938833376   -2.61420129678406
C        -4.42448625902246    0.41841821057845   -1.82519802756017
C        -1.69279381624620    3.47286845302863   -0.78121400630790
C        -1.47093697298260    3.71752217267669    0.59052528283724
C        -2.11980725665271    2.89704602266010    1.56053765224265
C        -2.68611594097553    2.51770324442874   -1.16412518891300
C        -3.38897576220553    0.89198159856463    2.09166725889212
C        -4.23478823325833   -0.12775284193182    1.60528255982277
C        -4.88570894502961    0.00370013698786    0.36764046703341
C        -4.52797400940885    1.03220484222729   -0.54259394508633
C        -3.17321727000288    2.03419322636577    1.23086569951681
C        -3.59643409025197    2.01633666371289   -0.15636191821257
