68
C68 Isomer 5238 Symmetry C1
C        -3.63973270297332    0.06463263918602    2.28968244377276
C        -3.80815996154008    1.29026451410443    1.68449995463471
C        -4.30349760126217    1.08502193531338    0.32533786948484
C        -3.96316496824962   -0.94766795739125    1.28764088477766
C        -4.24345646119647   -0.30075258776730    0.03894582837757
C        -2.99266450745058   -1.92304366331881    1.35464987435271
C        -2.39486946585047   -0.27460474932340    2.88680560792388
C        -2.07690383094303   -1.58951937192801    2.44656794949674
C        -1.34931311904987    0.66692136746304    2.98955949003914
C        -2.73673528788515    2.22290230269930    1.65716695036808
C        -1.54946358812057    1.96708845351208    2.38850221745113
C        -3.63517801966525    2.02641687134475   -0.48033444755327
C        -2.66035813391310    2.74280526205271    0.32417788659957
C        -3.29786709283281    1.65776241235044   -1.76542138317229
C        -3.61260205835396   -0.76263066688476   -1.16594415574420
C        -3.39148460004780    0.25263573048600   -2.13472903213859
C        -2.47153350569398   -2.51207082439507    0.15564773354572
C        -2.69398649770554   -1.88524227775901   -1.12976979332364
C        -1.35443753656669   -3.30039856943027    0.35416633059376
C        -0.78164921709230   -2.09771392844005    2.46418120132803
C        -0.58983928361996   -3.21333289541911    1.59606852032157
C        -0.00261724157963    0.13388099143770    3.07598594507837
C         0.32398000911077   -1.24812214339597    2.80651497359184
C         1.02762876100733    1.06613714974545    3.02751186641821
C        -0.42153974888304    2.76982584912742    2.02189035041390
C         0.79504847758787    2.42882521236501    2.65250048084712
C        -1.43915967508951    3.17959959903813   -0.21671250007229
C        -0.37708003231942    3.41553452660048    0.72861897495839
C        -2.11342167787414    2.20522076609756   -2.36062824695458
C        -1.14841417596808    2.92241336102765   -1.60873439847159
C        -2.42539498800481    0.04239654041907   -3.12805161909573
C        -1.67823677102997    1.26046917830018   -3.31529646866615
C        -1.61971348336348   -2.01889834942460   -2.09925835188792
C        -1.51353080014168   -1.02240971223867   -3.09220827827643
C        -0.43122203137131   -3.61524935919845   -0.69593948878224
C        -0.41645256395954   -2.79923757805820   -1.84788560289279
C         0.68811732935626   -3.66396600760375    1.35762873261090
C         0.76991929807650   -4.02427811875241   -0.06223668182346
C         1.65066339997083   -1.60988055779218    2.35082905520207
C         1.81889991646005   -2.86405100488679    1.69975600388730
C         2.36121678998434    0.70263731866802    2.58394200527972
C         2.61732323450590   -0.58271377190343    2.03865556466792
C         2.02388564976397    2.93214859183903    2.15843147165211
C         2.99468472609445    1.84107544022870    2.09879656002557
C         0.87976452029871    3.74585907235705    0.17692564592846
C         2.06153542923817    3.59474877129757    0.95089491676552
C         0.23358937795144    2.83034160896330   -2.03552826306955
C         1.19898471195205    3.35071736841039   -1.16760915899862
C        -0.32926233104499    0.93881896728651   -3.51071690548231
C        -0.21851397676635   -0.49218319645595   -3.46886565512057
C         0.65592887167755    1.79092806330778   -2.96646983826353
C         0.88367766420171   -2.36593751170272   -2.34928139903247
C         0.96309752642473   -1.10423132448578   -3.06056712130799
C         1.98671374196810   -3.59049862235505   -0.52422229158524
C         2.69879644783070   -2.94149031711087    0.58875604099681
C         2.06129674037955   -2.75455047618637   -1.66284445557872
C         3.43279602968925   -0.62950911324024    0.85301657761633
C         3.35287107750104   -1.82523835708820    0.08257197397607
C         3.08546419507935   -1.78118067257880   -1.34326908613988
C         3.60934680835275    1.83912674070747    0.81048259872850
C         3.10036832695126    2.97308031748411    0.12384274062031
C         2.56949303743462    2.85480131572971   -1.16526840058052
C         3.76340159752185    0.59175913186596    0.14232995518247
C         1.91802431931589    1.18858766160501   -2.81694189051652
C         2.06953947212773   -0.23101599694947   -2.88385054545972
C         3.10828720466460   -0.56548566176380   -1.96510522084630
C         2.87768145146023    1.70237337718530   -1.88799962700238
C         3.54743079346912    0.61234693562203   -1.26079286967631
