78
C78 Isomer 21983 Symmetry C1
C         4.14751233393915    0.66375494212365    1.60375678286926
C         4.36811465821538    0.27765877717504    0.27425833538315
C         4.10532427847537   -1.14699613802429    0.19350557784319
C         3.61294080386147   -0.46877876985342    2.32203961945620
C         3.60436520461575   -1.58085250310428    1.46750875776645
C         2.43910317357290   -0.06296449468989    2.98938110106309
C         3.35442501759649    1.79116388743379    1.92540114746928
C         2.28309759986747    1.35235030116717    2.80441588342940
C         3.08708690733428    2.70426168119960    0.92562029095763
C         3.99115739303663    1.15544560739440   -0.79412016569028
C         3.43115173538276    2.41577913598392   -0.44059225879434
C         3.52147670694120    0.55929895160353   -1.98362525229033
C         3.58532544345347   -1.71151075254588   -0.98062729386105
C         3.32743356476093   -0.86318735586635   -2.08570281704434
C         2.75415926997322   -2.85218553087161   -0.84785969978013
C         2.56085234160106   -2.52974218557570    1.59266119929089
C         2.32000624819482   -3.30636205515505    0.43800483945198
C         1.32241048806785   -0.92220945028220    3.07068164932851
C         1.46000085311812   -2.23941733008264    2.48823762391670
C         0.04009454430214   -0.30585443458659    3.27420204868808
C         1.01844068019071    1.93235168260478    2.77041395318018
C        -0.11763183249425    1.11901995136911    3.15079603261557
C         1.84250749638604    3.40357338634271    0.94974380218010
C         0.84378356980712    3.09120252530423    1.90606707020247
C         2.43745382490540    3.04169221547268   -1.25100238883350
C         1.49929950106623    3.71387944759334   -0.39490537946495
C         2.53995354446317    1.19075832648493   -2.80346125429752
C         1.98266438674721    2.44170789895451   -2.44798600038695
C         2.22472952962575   -1.09903896394194   -2.93828467569161
C         1.73698438216038    0.17305548213500   -3.39597285193495
C         1.72745520188396   -3.14562588917076   -1.80132476418242
C         1.35815393340771   -2.20607371902849   -2.78994563101689
C         1.08864231789786   -4.00491808971355    0.25507633887620
C         0.73643888874387   -3.94044847200321   -1.13917746380828
C         0.27917266224123   -2.98858468618203    2.30782408591756
C         0.10657659348907   -3.90828116027462    1.21477451551777
C        -1.12762881661511   -1.14795970387270    3.14713532348609
C        -0.98707804693557   -2.45578067345199    2.62695388715292
C        -2.40012560067698   -0.58898357373659    3.03212377984323
C        -1.43646577026047    1.67505237660181    2.97136037829892
C        -2.57208540866044    0.83034329862095    3.03279224584225
C        -0.45732664714840    3.47220346694468    1.57137164080110
C        -1.58753465156458    2.84079051432802    2.16987068637655
C         0.15567718541520    3.91578486177875   -0.77454045306842
C        -0.81114154150776    3.90465097367523    0.25225364530550
C         0.64553673259298    2.67384450443059   -2.84906913467702
C        -0.26014154188107    3.45784548893686   -2.04338685701648
C         0.38665390597088    0.36373784905837   -3.71518965291155
C        -0.10696542432893    1.68464610032479   -3.53198454751845
C        -0.03765606895896   -2.05265093393903   -3.15687649013416
C        -0.52102802733327   -0.76364866830787   -3.62107956150199
C        -0.58336759259874   -3.84675492958487   -1.51508956105190
C        -0.96180458000915   -2.93202180742121   -2.55999937310922
C        -1.27611999246350   -3.87292050938292    0.82504145505570
C        -1.96962139878637   -3.01489170211759    1.72102647287407
C        -1.62669969500429   -3.85807098178886   -0.51900193111082
C        -3.39445340111342   -1.17043759459341    2.15132436483505
C        -3.08792784083103   -2.27499346812229    1.31509326768600
C        -3.72794149396876    1.10601627230546    2.26161974125614
C        -4.18291062427535   -0.12773070479385    1.67510952936883
C        -2.67040169239600    2.98349634587406    1.24968789278397
C        -2.15414852879853    3.49832245215322    0.01239521500717
C        -3.70821557510993    2.06770576654331    1.24117036928856
C        -1.57933219214181    2.98524923003594   -2.25055262404389
C        -1.48231940120444    1.92277240686428   -3.22177288267909
C        -2.55264609218146    2.94212508858283   -1.22450130495783
C        -1.88239828203027   -0.46721882994843   -3.44512320253166
C        -2.35550848724232    0.87190280236827   -3.18172878380683
C        -2.30433110120297   -2.53483310960203   -2.26858054102650
C        -2.68979463275058   -3.01249298343563   -0.96535424738890
C        -3.44415351048365   -2.21035555177508   -0.08920236925463
C        -2.75555828696917   -1.32082533578754   -2.71905357345786
C        -4.37622604678890    0.06556406890874    0.27441196668947
C        -4.11708178207354    1.44433128402101   -0.01194910899503
C        -3.52180456573073    1.84776843352562   -1.22066149281109
C        -3.40625711443939    0.83278075840737   -2.20279274635268
C        -4.01202498857748   -0.97453119639179   -0.61344366067339
C        -3.64430462576770   -0.53575430562636   -1.90259052019822
