80
C80 Isomer 18178 Symmetry C1
C         5.07505009419852    0.74027098808640   -0.17951706992385
C         5.04079668570237   -0.62544535921927   -0.39103326103914
C         4.55181159167377   -1.26478294443166    0.82936708519575
C         4.60822178000401    0.98251887484462    1.18400448117174
C         4.18885389917165   -0.24266159935837    1.75879464154652
C         3.72945085638223    2.06534621742559    1.15757313335842
C         4.37122913955103    1.63698223773334   -1.03978862439168
C         3.60879017299403    2.53087320754534   -0.20503812498969
C         3.74485388384882    1.13198299410843   -2.17700209030817
C         4.32046497358576   -1.16793554224703   -1.49896926100291
C         3.73899271253027   -0.29016696105019   -2.41479694057082
C         3.62696447455305   -2.23618385709372    0.45117541556339
C         3.51254674489800   -2.24092558817000   -0.99427578649289
C         2.49533832393832   -2.49985496981463    1.26429909178890
C         2.94588458748402   -0.32790457876915    2.44969789362487
C         2.24197125529701   -1.58400956966236    2.34262979637958
C         2.60784732318263    2.06971060654840    2.03166300017467
C         2.19434583915081    0.87084346050691    2.70742340625860
C         1.63037987751241    3.00931127726794    1.70102310914418
C         2.40324140737494    3.09678875747155   -0.64089888668878
C         1.54180139945373    3.53959904987012    0.38160071373161
C         2.45634139053260    1.64727738078694   -2.57881599495489
C         1.77884970358119    2.66888366503183   -1.87065335728877
C         2.46047131379053   -0.62565034840993   -2.96775946550260
C         1.72232207442549    0.58484984165478   -3.16320303682202
C         2.29277249867158   -2.59216492226568   -1.56042707879404
C         1.75964385985890   -1.78258764215850   -2.62973916885300
C         1.43785752484728   -3.26944399771318    0.69048210186118
C         1.38817401887208   -3.36143931621617   -0.74611913723641
C         0.21307418361285   -3.43903539833189    1.43858511150336
C         0.97360918119926   -1.63945471810224    2.92196356914685
C         0.00731516035181   -2.60439835555568    2.54662707882742
C         0.81301975153555    0.79320304485840    3.15077812763665
C         0.29297955099876   -0.47701099437979    3.37450164921796
C         0.31002492851372    2.97529475388004    2.24813362385903
C        -0.15340721317191    1.86037465560281    2.94981587331922
C         0.18726530808980    3.86308440311993    0.11541626613200
C        -0.53006951238624    3.69188355662458    1.34560967082425
C         0.36739069125978    2.81233212732612   -2.06019696119210
C        -0.43300699079724    3.54469645380991   -1.10411433657544
C         0.32735255143014    0.61440774068624   -3.26436725620295
C        -0.30940873219779    1.85565777073583   -2.89928196035105
C         0.34486105122728   -1.81177823777893   -2.92066983542320
C        -0.38579912409180   -0.62338085679537   -3.27698803034177
C         0.17880668591161   -3.70123109060058   -1.36006761130656
C        -0.37011057488356   -2.89649277666094   -2.42954549252748
C        -0.95872280918605   -3.90979674066246    0.78769420770918
C        -0.90978259521121   -4.14757589719915   -0.58463590116474
C        -2.27856484931348   -3.37311970368553    1.08772093136679
C        -1.29547225525321   -2.07384857519693    2.86811257823618
C        -1.11957458370379   -0.75884136343108    3.34071294186993
C        -2.43950775863963   -2.43384467619207    2.11557743814427
C        -1.58681946922597    1.60452772758726    2.93931151712139
C        -2.07397821288127    0.26160312898370    3.12627449753254
C        -1.87772179826143    3.46819286011900    1.34853154596914
C        -2.42668547483969    2.48954880059703    2.22577028419253
C        -1.88219685205919    3.46828836350624   -1.10839477147886
C        -2.60893612438303    3.49922920135907    0.11038116805021
C        -1.69501789918541    1.87494756763646   -2.97920753817825
C        -2.50035843710556    2.76561312375345   -2.16955843077826
C        -1.81692352504414   -0.59825822650291   -3.15743628063470
C        -2.42760034955540    0.66954398460891   -3.20283918260950
C        -1.80108534452771   -2.83538589138612   -2.25163053842808
C        -2.13744090093560   -3.65789643871587   -1.17279774701012
C        -2.98527982695261   -3.19650644686082   -0.14588019231130
C        -2.54454421654480   -1.66193131047086   -2.51528680549035
C        -3.81406083503127   -2.07810967184531   -0.39983183777912
C        -3.68505452997967   -1.38930553796025   -1.66852955010014
C        -3.44163704524621   -1.44568611486477    1.95423638228176
C        -3.29229480586627   -0.14099239731805    2.53205211648638
C        -4.17966924030773   -1.32310782284776    0.74012468678558
C        -3.65577553863057    2.07029250907324    1.60805464498815
C        -3.78987151650783    2.72128697988269    0.32242732802342
C        -4.07782939993267    0.76740228906535    1.75923365030491
C        -4.62036154836645    0.03836799348311    0.63595506064880
C        -3.75235656908473    2.16322518613346   -2.00397780646249
C        -3.70104518367632    0.84711418321292   -2.61979744875565
C        -4.26193305621180   -0.09571459368013   -1.75844998213941
C        -4.37150519166348    2.03153694867375   -0.74248406893251
C        -4.74255856035483    0.63596712040366   -0.59432896894358
