78
C78 Isomer 18945 Symmetry C1
C         4.82245120261470   -0.84934151907160   -0.22743788180060
C         4.73409285368386    0.28327543784847   -0.98909610482199
C         4.54160399210452    1.42627240490352   -0.07547793059632
C         4.59653373804382   -0.46527170686710    1.17320860746528
C         4.29254896482771    0.92643086872495    1.22723113947608
C         3.71548199928048   -1.39082708160985    1.70086694895888
C         3.99738932747245   -1.96475497208275   -0.54095672517611
C         3.46143739750510   -2.41788888654358    0.70067370699428
C         3.16646576948510   -1.92671081941325   -1.70135646361048
C         3.80535028441055    0.40092696342461   -2.06599609648386
C         2.98340553722229   -0.69212701338637   -2.44380971758350
C         3.65593521411928    2.29442687109184   -0.69427666031533
C         3.25749574013821    1.71626206763053   -1.96239997873900
C         2.73074903836608    3.01797563842530    0.09919143846320
C         3.16548698229133    1.39806631158600    1.96925588425691
C         2.52319254229464    2.58969759047103    1.46619860404442
C         2.67111772209365   -0.96513166946152    2.58516356823063
C         2.40405834367643    0.45314510255213    2.75211054027996
C         1.63892274323037   -1.88728676583606    2.75700415596904
C         2.28529604613338   -3.17757966860253    0.74948855827547
C         1.43300039941759   -3.00255223318935    1.86320432672983
C         2.07989113604801   -2.81779799598859   -1.66596033887201
C         1.67918826711516   -3.50642112939351   -0.47680459892961
C         0.92729063148558   -2.62366025662842   -2.47679037552669
C         1.70438935681364   -0.39071671569607   -3.06436120427261
C         0.68411536221221   -1.41110788033690   -3.14974423113874
C         2.02876407488492    2.03489646944260   -2.53229381647437
C         1.29067349087076    0.98283658719350   -3.19415307504812
C         1.67534608195223    3.58663133037677   -0.62714920146690
C         1.35436474273706    3.13944766636695   -1.94533924627763
C         0.44674902541630    3.96931385115364    0.00510481657239
C         1.30254589743030    2.95895208373954    2.05178069306597
C         0.28526338063199    3.69153943728639    1.34017236318600
C         1.11578941569980    0.83036452304048    3.27049008667258
C         0.64718077752005    2.13093504384587    2.99264277537112
C         0.36358583517925   -1.50109188864699    3.26256822361523
C         0.10590321559183   -0.15903193142370    3.58176293767709
C         0.04388876334992   -3.22541834075131    1.76457822516600
C        -0.62167612254685   -2.34741022860657    2.69538201576837
C         0.27377549555472   -3.76072392199642   -0.55317781732928
C        -0.13852142974322   -3.34811511996238   -1.85664472042251
C        -0.58938505542208   -3.58240628350197    0.55107343028053
C        -1.44594862865448   -2.99997072265571   -2.06547618179961
C        -0.70858135890379   -1.08860364389064   -3.41167125543907
C        -1.75375772087536   -1.91395934101567   -2.92882610810396
C        -0.06211991223730    1.26609720413954   -3.46703431979272
C        -1.04987972698225    0.26470020419874   -3.58474956357489
C        -0.04633858656835    3.30552731611560   -2.11706394818653
C        -0.64898518537009    3.77783367875073   -0.89122183657246
C        -0.72216273390998    2.42489086932425   -2.92350804233941
C        -1.90347442691262    3.32856219849121   -0.46381317492001
C        -1.00482269716535    3.31311046355908    1.81841700436934
C        -0.76113208167555    2.43991837095075    2.93049258290716
C        -2.10941548056836    3.12824025465586    0.96201883213272
C        -1.26546620405783    0.17620071820487    3.59717317958152
C        -1.70081579643065    1.50362866760338    3.26779287518205
C        -1.95131898025061   -1.94940827008144    2.52587009406567
C        -2.27333813348756   -0.71029319505135    3.13119504140145
C        -1.97320995855132   -3.17643441525346    0.34125114410786
C        -2.40047408577116   -3.04380112847836   -0.98736094642943
C        -2.68946403001384   -2.42197248128906    1.36341794887779
C        -3.02901332898826   -1.39945484782692   -2.51229908485098
C        -3.45291819216552   -2.15665898491754   -1.36801089728133
C        -2.30849623681527    0.79915456212684   -3.13247504782972
C        -2.07875517571257    2.10634265903094   -2.62601745163045
C        -2.69582202035288    2.56511992669866   -1.42557648050007
C        -3.32125046017736   -0.01866258445716   -2.59465186244922
C        -3.77777397167318    1.81428649998037   -0.96560455920610
C        -4.14959140310872    0.56763106725712   -1.59620974285898
C        -3.16098479549095    2.24246939669711    1.41514935119378
C        -2.94964568074702    1.45377136294783    2.57386325820350
C        -3.35985468005846    0.08036357830838    2.62460071119587
C        -4.05249606752483    1.70461439148373    0.45195293035817
C        -3.83828027036896   -1.70742167681425    1.00007936787402
C        -4.23367931971455   -1.56841180295577   -0.38439282013421
C        -4.70528571920999   -0.25185146453673   -0.59752142384715
C        -4.17273138024650   -0.44757624898956    1.64459102639505
C        -4.65185375045161    0.44999519758130    0.65869253826673
