74
C74 Isomer 6159 Symmetry C1
C         3.84027864352885   -3.18529132907070    0.09324230193166
C         4.08959220028677   -2.06904542976378    0.96553288750932
C         4.29301878152468   -0.90045887491179    0.17288449141281
C         3.57998158012289   -2.61971956154905   -1.17359269818860
C         3.93264190226186   -1.23756331468209   -1.17696676916028
C         2.26111626488096   -2.96807995589575   -1.61987740734350
C         2.61626110474034   -3.79383254300979    0.51181977405871
C         1.69490864468161   -3.79292706340330   -0.58245309744089
C         3.05932225859036   -1.99246993845875    1.92704600567850
C         2.16848187668698   -3.12460138989533    1.67058568040206
C         2.52415141165832   -0.75156244372033    2.36692445189854
C         3.94861526318756    0.35498643513467    0.69577302990951
C         3.07273469222210    0.47820357525090    1.83350977240800
C         3.90148163346920    1.34113031003031   -0.31859571437547
C         3.19745152996813   -0.33217667386849   -1.97501774679630
C         3.43882251565000    1.00212875835441   -1.64201210830400
C         1.44818728478523   -2.04780299654124   -2.31522766430225
C         1.91879551058123   -0.70082224462055   -2.56754311124429
C         0.04687228897140   -2.34513692434891   -2.35985269102156
C         0.32937020108532   -3.74628474296510   -0.33002683568444
C        -0.48218864390776   -3.29713405733429   -1.42466978863192
C         0.80384488905497   -3.02979639960999    1.94808920133294
C        -0.14048323698532   -3.56363783219180    1.01526104175766
C         1.22261281498997   -0.77775497129455    2.97235833267837
C         0.41475501837490   -1.98287654235832    2.86379562978670
C         0.57232368070398    0.47131662808240    3.27059470865403
C         2.35231309501010    1.71322625553057    2.01777473913821
C         1.09362998787910    1.70467212934172    2.72025083486556
C         3.39908327475349    2.60030998890658   -0.01569726321901
C         2.60980613219631    2.80374474985588    1.13527103322464
C         2.58540800312098    2.05276189219127   -2.10030881632115
C         2.70227970179722    3.12090417981582   -1.17539279093824
C         0.97880283007811    0.32200932481830   -2.88587131441668
C         1.33342300181717    1.72583640218611   -2.67510623581748
C        -0.84468466955113   -1.39594480859791   -2.97054174054234
C        -0.41275936108528   -0.03163076358905   -3.09453630035383
C        -2.24463292471740   -1.68860822528279   -2.93243163783735
C        -1.87186737956537   -3.37704042436758   -1.22322329346517
C        -2.73639621858574   -2.74320627301774   -2.10254717062640
C        -1.53656492315293   -3.30293463379593    1.21273397687311
C        -2.41938716344410   -3.32057754884895    0.12029337587686
C        -0.94306158217751   -1.94670329572322    3.18555311893688
C        -1.94069304761823   -2.56562689900789    2.33073989769740
C        -0.78979854844896    0.43988412249790    3.65558598263484
C        -1.49969282150084   -0.76868395874678    3.69846385134980
C        -1.73265717249463    1.41862713024349    3.16062194728473
C         0.17014718260088    2.74350599285788    2.45189585890491
C        -1.23982235409232    2.51468563816274    2.52198279935198
C         1.56481509010550    3.72032864182514    0.72961931616011
C         1.59511613740773    3.84343804876670   -0.72210566966667
C         0.35498867788461    3.65874766054037    1.36748182958743
C         0.31137396025137    2.67761259658191   -2.43564928281620
C         0.41246336353763    3.70232896914349   -1.44131897047617
C        -1.41363386276383    0.99555997791398   -2.94881621863406
C        -1.05035338493184    2.26332538671039   -2.47774071609081
C        -3.19427096875133   -0.64823341577471   -2.81831590502556
C        -2.75726881636981    0.65913499210885   -2.64507119261290
C        -3.84627085988707   -2.24220213803078   -1.30523737863450
C        -3.58667647626031   -2.49267314541434    0.07078594224009
C        -4.12266698918640   -0.95756160332719   -1.72627612219236
C        -3.05841367192867   -1.67204903462983    2.23546661461216
C        -2.78720622774670   -0.58383496080881    3.08171385152516
C        -2.89615765634838    0.75159976389705    2.63741258041464
C        -3.76722653061264   -1.45204953348901    1.02621144255446
C        -3.40675194752434    1.19722504264121   -1.46984567050955
C        -4.11196824804214    0.12922131821766   -0.81393737135855
C        -3.39824722430695    1.03025811780557    1.34487924125333
C        -3.96153105515643   -0.07586745266174    0.58362492696414
C        -1.88233495634102    2.98914358747439    1.32732607356089
C        -0.89178743434265    3.75451966835847    0.62728191213789
C        -0.85030569570180    3.75313690279628   -0.75488776389035
C        -1.77984842897212    2.91611950671003   -1.44376036086188
C        -2.86108542860946    2.20796435214945    0.68036856130371
C        -2.82557651933644    2.24480529770630   -0.76330219907103
