78
C78 Isomer 4407 Symmetry C1
C         5.02886600259360   -2.02094235197116    0.31747390808923
C         5.42683810539307   -0.79389237743794   -0.24793490001233
C         5.23658012852216    0.23658736331534    0.74514920721754
C         4.44197527325147   -1.77731291805442    1.59429897144450
C         4.52212535008161   -0.36138708305484    1.86026464568191
C         3.18695066463449   -2.42818512368446    1.61961541839850
C         4.01962793697240   -2.61954449372196   -0.53073302137289
C         2.92539145516284   -2.96254968176380    0.29194724659459
C         4.78025005546701   -0.67519074810036   -1.53117444084675
C         3.81184799668109   -1.76580998896763   -1.64384614602621
C         4.40313407023239    0.58030359254065   -1.95474563433620
C         4.85223703871848    1.49088541449944    0.30871469842560
C         4.64952138383062    1.69638794309709   -1.09502990541960
C         3.81004590382024    2.21746090070999    1.00120878496460
C         3.41721804968746    0.27822500269754    2.43353463497715
C         3.07652834019469    1.64011522966084    2.03885839778188
C         2.12545444850399   -1.87677554575055    2.34701866253620
C         2.32669868738767   -0.56047095090864    2.89354597753073
C         0.79606766616423   -2.32542605255345    2.03907583429695
C         1.62890896086346   -2.88299209672185   -0.21220172653261
C         0.54809307001730   -2.86019025245820    0.73945897233059
C         2.49341802990880   -1.52062322643597   -2.09093203876043
C         1.42869558810459   -2.25655708010630   -1.48235200937116
C         3.10312266732398    0.78801930498640   -2.57954087322097
C         2.13679256843171   -0.22671971987803   -2.63593794961806
C         3.57541961313129    2.60663582843438   -1.25367585682069
C         3.08268150386620    2.98841517630043    0.02233341929408
C         2.66181565520179    2.09622339926339   -2.22604153985456
C         1.73846537248814    3.31969219539671    0.15769007525296
C         1.75405451789499    2.18143553516268    2.30104104035557
C         1.07762366854221    3.07847516950649    1.40924709983320
C         1.19265905297268    0.06758095015893    3.37893481167774
C         0.92580362978543    1.46144124539121    3.16680413874373
C        -0.31716611119188   -1.77612035360662    2.74338805504947
C        -0.06042597550677   -0.60565785626487    3.48083623468661
C        -1.66717363160956   -2.06129558732331    2.32869611303422
C        -0.76205383524307   -2.96797119240013    0.23629170842776
C        -1.89198878274318   -2.80708538250723    1.11120875118666
C         0.09177108025042   -2.00137894204748   -1.86960752525841
C        -0.93616265293485   -2.72211882111089   -1.17407646635810
C         0.74948756485140    0.15687159150666   -2.75719322942927
C        -0.26420995449558   -0.83691971831112   -2.60049096812617
C         1.31824072239616    2.43533643943641   -2.14009879920802
C         0.94734695294215    3.31017562959212   -1.05482903566517
C         0.33599819355537    1.51339928719413   -2.63197922314629
C        -0.37691665767660    3.62189782249375   -0.93964577770274
C        -0.34110206610957    3.29762620312931    1.50911541549339
C        -0.98821400352857    3.80528679211006    0.35266573268487
C        -0.47965189233235    1.66083841014247    3.25336967088768
C        -1.06635832028101    0.39829521894776    3.59429382794723
C        -1.17419578395339    2.57431225654489    2.43952275466890
C        -2.69068254640385   -1.19180600835476    2.74072009306865
C        -2.35838267979042    0.10416155971978    3.24737343092795
C        -3.90728518072672   -1.03192942739763    1.99562300991639
C        -3.18218520533774   -2.83702732629573    0.55416016807595
C        -4.22326857334242   -1.93530990561607    0.99819348780237
C        -2.21341597126241   -2.64337126553953   -1.70225482648345
C        -3.33191653153827   -2.94614190941530   -0.86875965279666
C        -1.65657105258206   -0.49898407018799   -2.76212409476310
C        -2.58431698459911   -1.53181735204494   -2.54854553435690
C        -1.05756362423107    1.85642412725648   -2.51713495769185
C        -1.35645878902917    3.06411544905922   -1.84194998735180
C        -2.08774618177461    0.87006875194220   -2.64231786819499
C        -2.36058277679195    3.64229699195714    0.16161466344369
C        -2.60114805071446    3.23623334289674   -1.21868173626210
C        -2.58396725254946    2.30180792967658    2.16807186786754
C        -3.16767438441493    1.08510021128834    2.59058516512104
C        -4.15466784219036    0.37700262267187    1.82994928031600
C        -3.17052247768864    2.85019032648931    0.99487677020132
C        -3.40284930195904    1.11744907186608   -2.07551924481250
C        -3.57043168927710    2.24586134618598   -1.22544199347118
C        -4.57215695736635    0.85174987424968    0.55481946311001
C        -4.03348855518534    2.07803640629888    0.14663111323746
C        -4.93320599847722   -1.46513079966297   -0.16845011258489
C        -4.44297476425416   -2.19137049472532   -1.30273155340443
C        -3.95681938458978   -1.24662248315524   -2.26321299913187
C        -4.89097898954755   -0.09094863136864   -0.46921525741306
C        -4.27087555659702    0.04615530512802   -1.79681583677697
