78
C78 Isomer 15195 Symmetry C1
C         4.36743639831827   -0.89644154812129    2.19317122302032
C         4.74163178326145   -1.66484160531125    1.09915692246819
C         5.28017318176255   -0.76497868622819    0.07235345562641
C         4.62244417195823    0.50615117746106    1.86065509177448
C         5.19078399359373    0.57301990635706    0.55402996475377
C         3.46297138653373    1.21599733331647    2.17763823037035
C         3.06729312813789   -1.00984609852784    2.73160872966266
C         2.52116971580402    0.31930898806608    2.82147748726416
C         2.20750592732216   -2.03904972138236    2.31765076288529
C         3.80394915111583   -2.53836547115989    0.51058381141273
C         2.59542190548452   -2.82810565386663    1.17537998262931
C         4.69024107239164   -1.13960493697090   -1.14841426186342
C         3.77871020685923   -2.23551134324316   -0.91235363541202
C         4.31170569803366   -0.13826522902049   -2.06453502625823
C         4.70767460684923    1.56909248884531   -0.32418413100156
C         4.47750851728390    1.20810560421082   -1.67862374411570
C         2.94358726587864    2.21394677403815    1.29861241516629
C         3.62153840764661    2.42787487660434    0.07791560549532
C         1.55243479457626    2.52419818300380    1.40346916587192
C         1.15422042815464    0.55589241498701    2.80988018383421
C         0.67445011788572    1.79584885766163    2.26841964756163
C         0.80863452589185   -1.85836326172938    2.60859841108877
C         0.24055474327056   -0.56018515729872    2.89931039533063
C        -0.03588044274714   -2.85393515137675    2.12600180730811
C         1.56670085885942   -3.41344780568521    0.36510709150979
C         0.33941888385531   -3.64939094754732    0.98693815055563
C         2.59419818805283   -2.36117549922177   -1.63466351684587
C         1.57277445908584   -3.19546086679145   -1.05434222842744
C         3.05550027648780   -0.24391090188857   -2.76215199863163
C         2.20552849241299   -1.32396332683769   -2.57633373015674
C         3.33267860822408    1.94523204236318   -2.16950954740545
C         2.82965916489136    2.71887999256875   -1.11025467448685
C         2.45853372861334    1.07771782253421   -2.84104939135060
C         0.93372643997263    3.16411096934043    0.27676776264221
C         1.46806391076118    2.95977550374385   -1.04295610097885
C        -0.39024308520938    3.48025542141495    0.34857175140650
C        -0.73731624169010    2.02528437147178    2.26815069010362
C        -1.18714302975222    3.12024895592486    1.48652683900271
C        -1.16041774665020   -0.34312948759294    2.82108233272166
C        -1.68932261474498    0.99560465768543    2.59707820597491
C        -1.43905752050767   -2.68627350807168    2.11265236382339
C        -2.01569305811423   -1.47213716365101    2.55006493195340
C        -0.85492146175606   -3.90617258488147    0.25922719970592
C        -1.97925450661996   -3.40791517898685    1.00535405020237
C         0.35780602695106   -3.27281138737085   -1.73359151590422
C        -0.84277765191485   -3.72091008189190   -1.11517178395396
C         0.80172662128483   -1.13972193501218   -2.90051982357193
C        -0.01969986325280   -2.22826151063515   -2.65484002058509
C         1.06684799091980    1.28530411908951   -2.77959183167226
C         0.57504415505158    2.38977655741008   -2.02279632899816
C         0.18874687965133    0.17257605259800   -2.99331868574689
C        -1.23903821994252    3.42302924459494   -0.82194365343608
C        -0.83176096980750    2.55901147923550   -1.87600344629849
C        -2.51977602968632    3.23508472757958    1.09305262027104
C        -2.54798328952644    3.41499161365222   -0.36148519598867
C        -3.07734162618912    1.16667932499074    2.23997967775945
C        -3.47630719970873    2.28342278712144    1.43418372582761
C        -3.35039008067378   -1.29865359305094    2.16695990979830
C        -3.92603233637569    0.02900760541989    2.09455678339463
C        -3.17859138576454   -3.00985163806847    0.39853178669649
C        -3.96226258836642   -2.12471309032902    1.18208574932218
C        -1.96784546878466   -3.06505059953063   -1.72880091422190
C        -1.43434400684278   -2.09879083967974   -2.62938452005003
C        -3.17610248363261   -2.83486370101298   -1.05023457765392
C        -1.21803122327327    0.34155809816916   -2.85805606683681
C        -1.77062042906387    1.59601100133807   -2.37258420337437
C        -2.04403686379523   -0.83721136789724   -2.80311732844577
C        -3.52081168333434    2.56006204399506   -0.88918638824572
C        -4.30082554086449    2.09015135235321    0.24618718257341
C        -3.14911932433942    1.65913866740377   -1.93727333563768
C        -4.99041166709864   -0.00585507322257    1.18502045152767
C        -4.96916777381546   -1.32183232284527    0.56618504306732
C        -5.06861312682772    0.96269960411514    0.12712968716632
C        -3.97122582406660   -1.80030954302543   -1.60287690060734
C        -3.38050161089814   -0.77064079771131   -2.38624507530629
C        -3.97406922589154    0.50194694718444   -2.02297649589319
C        -4.97654797798880   -1.16434318868421   -0.80851944125642
C        -5.01651063357148    0.25429423751078   -1.11941775991151
