78
C78 Isomer 10310 Symmetry C1
C         5.47436113489209   -0.44773970630527   -0.69041682153725
C         5.53894647195324    0.44633835911543    0.35889622116008
C         4.84889610913528   -0.14874581397270    1.54088473347085
C         4.96858771067323   -1.70540073957044   -0.11839712352564
C         4.40208089237527   -1.42923625011586    1.18785432182409
C         4.20406569082053   -2.31320412228122   -1.07668352025869
C         4.68000933529307   -0.14843184027517   -1.85877742974148
C         4.03820330119945   -1.36768059434101   -2.19458538065755
C         3.89984613836506    1.05335931868643   -1.93608031128067
C         5.03805524379067    1.73046930740679    0.17966135046013
C         4.21954748098447    2.03300038441575   -0.94850454834586
C         3.97383886660452    0.81582852173712    2.07813620671607
C         4.23611353854174    2.02679688100943    1.36337543382058
C         2.62222577895417    0.47223857008624    2.42257497846420
C         3.05640275643078   -1.80520422766906    1.48219358695927
C         2.20023308376084   -0.88411493557213    2.20504353896277
C         2.93999504214685   -2.85605987872396   -0.74873366361299
C         2.39300272388429   -2.68460528980865    0.56126650987697
C         2.70509026871084   -1.42452801828541   -2.57248551330119
C         2.09027549080367   -2.50242503658751   -1.83627682503616
C         2.50674787079295    0.99270616720881   -2.41867841168181
C         1.90532145538912   -0.26071898951318   -2.75934180585087
C         1.57205765242784    2.05045412343096   -2.13843192445948
C         3.16370553577638    2.86938397500101   -0.45701301714307
C         3.17147731649953    2.82342041415063    0.98568910242001
C         1.95120752566265    3.00492384185935   -1.12313135628447
C         1.63263785370719    1.52194181999451    2.41637444978974
C         1.95377729240374    2.72204959810944    1.69957505453844
C         0.24732547748709    1.22183905679657    2.61682419538270
C         0.80710786441355   -1.18312260974766    2.35824850856761
C        -0.10827284164622   -0.15062109849174    2.75686464427081
C         1.00173816908936   -2.90816598690362    0.67905704712687
C         0.24421508057113   -2.35353164021510    1.75352254236718
C         0.72699868878351   -2.61044744855881   -1.73109204236811
C         0.26036313587052   -3.20357203594699   -0.51171782664967
C         0.47665256020363   -0.44858917489617   -2.80358056522158
C        -0.11851803984659   -1.70915666030238   -2.44419642673508
C         0.18136426325291    1.93198123345498   -2.45193376300924
C        -0.39534997009955    0.67018886424902   -2.82963348060692
C        -0.74108149029534    2.92682905353244   -1.93469020161204
C         0.94552007717099    3.60451816963500   -0.33319595002447
C         0.92228109543861    3.41983368311855    1.08610622321586
C        -0.37992592227615    3.66336495021579   -0.78361923911198
C        -0.80252820973619    2.16507318022492    2.25877839175667
C        -0.42698485893705    3.25183673358341    1.46695314969736
C        -1.24754774031846    3.63235592603537    0.35390897046918
C        -2.20140041142785    1.80332714157334    2.20457052609222
C        -1.48271402490701   -0.45342837031728    2.85076187604870
C        -2.51040534232648    0.52410304674308    2.68247116912014
C        -1.16220418327603   -2.64110563690709    1.83487303902437
C        -2.00922686190267   -1.72935367925539    2.50815247488647
C        -1.08406208389839   -3.44202578461971   -0.44960925861603
C        -1.78327575511757   -3.40090757896586    0.80744076983488
C        -1.52477310515130   -1.88907204882716   -2.31121739256252
C        -1.95128948926337   -2.96448162123720   -1.48492168221737
C        -1.83576914629862    0.45798769942742   -2.86904130338403
C        -2.43972705103812   -0.81853971910377   -2.59328226899266
C        -2.10796616349976    2.77224706935185   -2.10070358914307
C        -2.65943298843850    1.60403999619315   -2.74040230549701
C        -2.58496752875225    3.28549690801438    0.25748380662704
C        -3.13928124630706    2.44560060224737    1.29966313109541
C        -3.04906909090551    3.18444875794283   -1.09108372707240
C        -4.36284473738954    1.79137704320734    1.00946218182369
C        -3.71026331457203   -0.16393235241389    2.30766723449766
C        -3.40301453224556   -1.57043717107512    2.18800165904960
C        -4.61964317769403    0.45143706141970    1.47538672419481
C        -3.14375278142657   -3.24177091653184    0.49635462494031
C        -3.23997494685450   -2.96075820454906   -0.91963187464017
C        -3.97549699534087   -2.30782079733978    1.15340945713094
C        -3.81092878496133   -0.90317682301239   -2.09557142535274
C        -5.17723121088048   -0.31692717658920    0.36685652064095
C        -4.14685094965812   -1.92120799803865   -1.15055765652422
C        -4.74591732121724   -1.60932081638431    0.13638369225080
C        -4.00844029900964    1.51233290985017   -2.37405604700565
C        -4.25446191584053    2.51330597670257   -1.34497812935972
C        -4.92677711232983    1.88581776073187   -0.30277797329360
C        -4.57446098332478    0.28222444906053   -1.95815351936648
C        -5.27744336584963    0.54809023772823   -0.74054274749147
