76
C76 Isomer 14698 Symmetry C1
C         4.41181950692866   -1.71119478638247   -0.27281734340242
C         3.76648870488243   -2.60014116311971    0.56517989698264
C         3.67149517153451   -1.97964108894773    1.89108597435682
C         4.79126116776334   -0.53097986958717    0.51261708256962
C         4.27366805679735   -0.68982501328455    1.82625484775566
C         4.49166946488974    0.60071941164635   -0.25152116380155
C         3.78448244372734   -1.26913493317864   -1.46368677078814
C         3.92915484757407    0.16270858156894   -1.51425119953980
C         2.58368507833935   -1.85027376365457   -1.90157243286592
C         2.49850373135988   -3.10721512133801    0.20630579236805
C         1.94921442445313   -2.83740731581819   -1.06004423909685
C         2.35216355989322   -2.14337075773570    2.31355418858305
C         1.63370378035290   -2.94858105723554    1.34703626894806
C         1.64177457248634   -1.07215796728525    2.93385372556888
C         3.56193212121977    0.39510481918578    2.39059220184919
C         2.29684010452501    0.16588117186116    3.02415712055308
C         3.95715176169262    1.77285157265499    0.38529006116556
C         3.49205008861932    1.64497757501642    1.71777496713487
C         3.29089159440727    2.67861049476336   -0.44183449671645
C         3.04924782403536    0.98334505310627   -2.23362215638179
C         2.98845009857350    2.33270705047531   -1.79627830014925
C         1.74520886215501   -1.03623520363397   -2.76400584942990
C         1.89925164501271    0.39210677085091   -2.89398434247995
C         0.53226308295209   -1.58848143020085   -3.13014052089958
C         0.54221317465382   -3.09961627810377   -1.18670329705107
C        -0.00577081271215   -2.74238512976565   -2.43200046749021
C         0.25467881801327   -2.89103987808016    1.23105029547085
C        -0.33576663840488   -3.19366106941700   -0.05215536522975
C         0.21489588232932   -1.10652036729082    2.92027676525257
C        -0.48929748500807   -2.11601774175580    2.19617609359093
C        -0.48548402663835    0.11524520899789    3.22406911502192
C         1.52935166974633    1.38014555049530    2.90387299820847
C         2.24458023313975    2.28927318367424    2.09393459794760
C         0.14391785787298    1.39634227352702    2.97977227855695
C         2.19933174063216    3.51677917416977    0.04661658930667
C         1.54718899051414    3.19254698113568    1.28205356091261
C         1.88119885733841    3.11463878946346   -2.18250707154031
C         1.44085246848829    3.89764832289694   -1.05041735055594
C         0.72759431999192    1.18367971999193   -3.15509043157298
C         0.75204364171258    2.54562455125701   -2.76516468929588
C        -0.58487867287560   -0.78635374229224   -3.55083461950327
C        -0.58481498860104    0.59929613978573   -3.33033180841772
C        -1.38405272409961   -2.73318033603485   -2.59079049424022
C        -1.75346213608807   -1.52697711786329   -3.32059635984836
C        -1.75401173398147   -3.05301968191692   -0.20016855112895
C        -2.26458050744542   -2.88886945875486   -1.51260699868226
C        -1.91303779562891   -2.08116785320003    2.09596766382477
C        -2.56865707744087   -2.58008228699821    0.90660487103477
C        -1.85537464383247    0.06467792083265    3.27587993817234
C        -2.57398343479302   -1.11259351833808    2.89456225542123
C        -2.65847463754134    1.23509074947987    2.96481057744077
C        -0.58965588298126    2.44531458833698    2.32823639046146
C         0.10910397778301    3.27616184219354    1.38690917661179
C        -2.02946397680802    2.33052278598857    2.29275474473385
C         0.02675722575588    3.87283589706436   -1.01217610383876
C        -0.42140452415641    3.13313148840704   -2.14861916960899
C        -0.63464352267276    3.71946261154325    0.22827721744925
C        -1.80185170075285    1.20784941893550   -2.81768598780190
C        -1.65807421721065    2.48219703732526   -2.15733021939130
C        -2.89395356472601   -0.97549533919104   -2.74893244296876
C        -3.33706754161026   -1.94567166658116   -1.75854963555209
C        -2.95257349479222    0.41647248143180   -2.47339575510128
C        -3.85366778880308   -2.06169527930223    0.60341753183788
C        -4.11609140515295   -1.55922461928692   -0.72770565228380
C        -3.89139976602260   -0.68524986989759    2.60538028316831
C        -3.92586576174376    0.78397239362727    2.60517194249019
C        -4.50203753710422   -1.13648895370662    1.45678992696638
C        -3.88191130462054    0.82390274583082   -1.41985300979974
C        -4.56987454915827   -0.17756110853128   -0.64956676581504
C        -4.54288149225423    1.20388454723769    1.38753818047381
C        -4.93815747022606    0.03796539316098    0.67692513740872
C        -2.74145859029371    2.85018216587184    1.19802494765093
C        -1.98349038363168    3.36876383681038    0.09924577133131
C        -2.51951700411937    2.82904071078550   -1.09813578017064
C        -3.89816536236287    2.20319746001797    0.65903984378950
C        -3.65922639585174    2.03665229630511   -0.75198397993047
