78
C78 Isomer 14330 Symmetry C1
C         5.14657283879760    0.12053874607922    0.54853497861980
C         4.72808954291574   -0.51978079960031    1.70777991409529
C         4.18758797621244   -1.82187565789873    1.35237135083469
C         4.81234186243627   -0.75919104186047   -0.56745819187283
C         4.16968987233891   -1.92563647750480   -0.06876102424034
C         4.18699866129320    0.00644973149946   -1.55439603522062
C         4.68886585215901    1.42942017522760    0.22706326368619
C         4.17196119110795    1.38950734935926   -1.12397794784429
C         3.95082041429793    2.12986182035545    1.18369878372800
C         3.80175096420226    0.11874115902323    2.59410029286662
C         3.48504190980899    1.45165956990514    2.37017787012269
C         2.98686928109575   -1.98575288684464    2.06632236227420
C         2.72697972914344   -0.80140479815509    2.84770840537843
C         1.93492943117813   -2.72376048915816    1.51168299996472
C         3.02582736929249   -2.44621189524410   -0.71638968251313
C         2.07017556654492   -3.12458160789541    0.13480038199286
C         3.09875090503247   -0.54817317511802   -2.28535735782588
C         2.53688058713104   -1.81917581667285   -1.91175092788170
C         2.25581470064305    0.38241033598312   -2.90212961479483
C         3.16044080137965    2.26046254238008   -1.55429959899693
C         2.32058083965815    1.77220264297414   -2.59248630899660
C         2.91037031056238    3.01970834995687    0.76024512853570
C         2.58419552145229    3.19233908767017   -0.60301124479977
C         2.14492307044115    1.89249720841882    2.62368120521636
C         1.85977960550271    2.96701789653467    1.72692798720287
C         1.40164774828527   -0.38980253644888    3.03957380413989
C         1.10575487732750    1.02530169114328    2.98680700914284
C         0.62676863207051   -2.54841077284153    2.06971611350361
C         0.35530221230766   -1.34854946616946    2.80584536906498
C        -0.45095309219420   -3.30233632186153    1.49453817139558
C         0.96147437584782   -3.67057854829827   -0.48411320526538
C        -0.24900913448582   -3.94362220321432    0.24113224755981
C         1.21884498338305   -2.15565921494279   -2.39092469791901
C         0.60157030290013   -3.26963176844866   -1.81005433466080
C         0.90139901132868    0.06864758061486   -3.25241649734654
C         0.33991358333176   -1.17717564737754   -3.00033073473040
C         1.02133572166658    2.31689731646189   -2.82650511031816
C         0.12187491346072    1.25604970892225   -3.22962928737194
C         1.29980561020224    3.71253931325421   -0.86154670891738
C         0.55646158618651    3.33767368320867   -2.03312638858714
C         0.54181374524893    3.33789205401168    1.43989275434404
C         0.33335022443879    3.89059968808519    0.16271331627985
C        -0.25372735864929    1.47321856242497    2.82325410829080
C        -0.54591275268791    2.67900631684435    2.11886342067205
C        -0.99472063840072   -0.90871145467441    2.99058779778944
C        -1.29468783213343    0.51289142827582    3.06092040102123
C        -1.76644037106015   -2.93326222409166    1.81489041133976
C        -2.02332533679586   -1.79163373205155    2.62365359426651
C        -2.83754000760491   -3.00790614885784    0.85028754669501
C        -1.30286268713774   -3.98738190863110   -0.69912761829641
C        -0.79549661151594   -3.45404770898761   -1.92940679261079
C        -2.55792045475473   -3.38937541082804   -0.44890929468596
C        -1.10449801187636   -1.22252360038426   -2.84987826759910
C        -1.66010721407189   -2.42001761449976   -2.35179570551806
C        -2.81644581617951   -2.42534557761075   -1.50208309005206
C        -1.23575232976807    1.24516801213227   -2.90639731847341
C        -1.89148307296731   -0.03072095566787   -2.71168094142464
C        -0.84690558457412    3.39973280009058   -1.75418451053889
C        -0.97979101737540    3.82005413546434   -0.41117236160200
C        -1.75226932011749    2.43968116471913   -2.27102835100386
C        -1.89012271665270    2.96513361765090    1.69064019250496
C        -2.10443009727325    3.51120799945589    0.36437653724166
C        -2.61523371194614    0.94471242711027    2.89405767458500
C        -2.91969677300052    2.19043390994380    2.25372567673783
C        -3.33505611703304   -1.30735812202005    2.29551172535288
C        -3.74650052119997   -1.93283185538749    1.07696374111780
C        -3.66641553216203    0.00814123978608    2.54967032369384
C        -3.55898984117672   -1.26474835952391   -1.27646261894055
C        -3.15422835095317   -0.08305804733659   -2.00962429194970
C        -4.24971977372971   -1.14563802026915    0.00706278580039
C        -2.97965401720921    2.37664840828765   -1.62719111544864
C        -3.21792480790266    3.06725730354918   -0.39870641318880
C        -3.74937426658029    1.14327279832412   -1.60313036159443
C        -4.16467776528451    2.02540334827804    1.56422702341648
C        -4.57619847392755    0.63191529072059    1.67732875713264
C        -4.78594052341232    0.10912504556941    0.37484820159528
C        -4.29007699654920    2.40013461411867    0.24090808014707
C        -4.63846740227024    1.21031579256233   -0.52864775631872
