78
C78 Isomer 18031 Symmetry C1
C         4.60802018580286   -1.36635470841779    1.01086035240044
C         4.40267135670775   -0.34254177114123    1.90674766116413
C         4.69784698708289    0.92099054758833    1.23441971144332
C         4.93057423415340   -0.77629670651802   -0.30161502316132
C         4.96047495271422    0.63256673040562   -0.14894798384664
C         4.10537395663630   -1.39360980077509   -1.24468762830858
C         3.62585419263648   -2.36855201509918    0.85276977139223
C         3.50161909602679   -2.52635107711703   -0.57515900362198
C         2.44614749730287   -2.37234524457591    1.64092813141251
C         3.14516746975556   -0.22667953599253    2.57544864229683
C         2.15078622839774   -1.22719664449305    2.47408782351597
C         3.70918498452179    1.82709957337210    1.59415346823048
C         2.77608572707517    1.14676564857106    2.48718821889649
C         3.19795768246051    2.76080115056392    0.64912485687023
C         4.27930825059655    1.38631368222535   -1.10439597028488
C         3.56953086828958    2.55811746771913   -0.69713880357379
C         3.28516552488782   -0.64026742753357   -2.15643157113804
C         3.47985317959884    0.74461513050071   -2.12388637647938
C         1.97280148890553   -1.11870947487543   -2.56308774705997
C         2.36203178466997   -3.05086931832909   -1.08180967810270
C         1.64027318970353   -2.42878879302605   -2.17478049522740
C         1.34172413637176   -3.13380592953636    1.14158007015876
C         1.40625484140265   -3.60498979199324   -0.18218703501127
C         0.03845848956771   -2.98775051391447    1.74024873335713
C         0.77633740924874   -0.83756875415176    2.70664365638272
C        -0.28546099637589   -1.79898160371523    2.47987678335261
C         1.45658100520793    1.54676231400226    2.59323739195177
C         0.44862028650497    0.54452301497292    2.85699893943368
C         1.93885841947192    3.37961567950539    0.95789779591692
C         1.12085399841085    2.83388476462551    2.01912871230921
C         1.26282809648641    4.04369614817060   -0.08214137026115
C         2.58020156829962    2.80283069924261   -1.70533744309186
C         2.40155413785648    1.61591887951127   -2.48483822111976
C         1.51694354136121    3.60688006017452   -1.43250960979925
C         0.86298118989417   -0.24322331569864   -2.86871716270000
C         1.10917386776198    1.18104011645790   -2.83115974943114
C        -0.49900159820793   -0.72106661945748   -2.83543275341572
C         0.31418858744937   -2.88277005890749   -2.11037782889876
C         0.21953161315819   -3.75510901635243   -0.95832987202928
C        -0.78715604506032   -2.08273837119475   -2.46557254697030
C        -1.00901567481161   -3.70170858432244    1.10944933423852
C        -0.95190640875174   -3.96227943089166   -0.31688784505670
C        -2.33742470812411   -3.37596863027695    1.36608861252273
C        -1.66201711513117   -1.39008712245084    2.60937625101367
C        -2.68673708907103   -2.23548247577568    2.09733067576099
C        -0.92705673953940    0.96829055849617    2.88334993983729
C        -1.99161298570309    0.00544460840082    2.77856301948588
C        -0.20814491966963    3.21852208983308    2.10559394278195
C        -1.20897392830825    2.32093711733461    2.62094722206072
C        -0.11769655793773    4.35974180978174   -0.01552697871569
C        -0.83221694293797    4.06986073501935    1.13686976708467
C         0.26755509075822    3.36653650102319   -2.08153308133012
C         0.01447892331989    2.12031381854200   -2.69152966763078
C        -0.71955330613840    4.03205022961620   -1.28861362353404
C        -1.59831938107906    0.22768783789531   -2.81275257265444
C        -1.34545126198428    1.64838652456870   -2.70963714438125
C        -2.87978916698871   -0.23758460748159   -2.46429111789673
C        -2.08253532238942   -2.50720143377765   -1.96155724364195
C        -2.16891672725458   -3.50508538293856   -0.93696172321956
C        -3.09222745568417   -3.36921031388624    0.10838811015124
C        -3.12443866416811   -1.57099938427165   -1.98777246517440
C        -3.87264644546115   -1.69298656648184    1.45784436946028
C        -4.02274613645899   -2.32711849419267    0.15886218789107
C        -4.13814882080029   -1.51045506591554   -0.97078922167322
C        -3.26617069255505    0.46539972418014    2.37093334542657
C        -4.14496647110955   -0.36454086102634    1.58702718937668
C        -2.46198782132086    2.73125539604346    2.07493613816882
C        -2.22259649390718    3.73031660840410    1.06679905302966
C        -3.46754610646150    1.79933425489151    1.91494642914101
C        -2.02365739932201    3.61916521501476   -1.35436075260461
C        -2.35021820884270    2.48270519351756   -2.16816972393131
C        -2.84795191065630    3.58928158458977   -0.16856922575699
C        -3.84510297394828    0.61441231432908   -1.82978037459381
C        -4.52062485788529   -0.14171816893527   -0.80906273909102
C        -4.62876317124540    0.41102431971433    0.46417805879192
C        -4.24316763077960    1.76904783353806    0.69470492130359
C        -3.56113187557365    1.94474148400453   -1.63433473988959
C        -3.83877402881385    2.57411564909308   -0.36385517370333
