76
C76 Isomer 16740 Symmetry C1
C         4.71456491519993    0.05356631063512    0.16960738626956
C         4.46237825499782   -0.27845233140316   -1.14472125658432
C         3.96286944465923   -1.66168523571019   -1.17321590570835
C         4.30364823448941   -1.07042470770304    1.00203493724814
C         3.81438230886387   -2.11327187520817    0.16010674236957
C         3.48065186509788   -0.54423245064142    2.00178763947530
C         4.15546665427500    1.24991446054940    0.69363468443900
C         3.46858026292121    0.89443006844936    1.89749397588171
C         3.57221352864706    2.19949794767935   -0.18343185295657
C         3.60648886160251    0.52392868540524   -1.94992471058310
C         3.17397533081499    1.79548268717734   -1.52042518173720
C         2.87576699409679   -1.70023054399171   -2.04574930322828
C         2.67872330332656   -0.36724211829355   -2.57314264825150
C         1.78322170140860   -2.55969603488292   -1.78576852651325
C         2.66436055804315   -2.83090483436908    0.53406436586269
C         1.78770645950297   -3.26790784086489   -0.53567667759467
C         2.33300322832623   -1.24299683585200    2.44879624926417
C         2.07691531416721   -2.51952736599767    1.82397036361835
C         1.27370509668687   -0.49452380842315    3.07869159595849
C         2.36575139828535    1.62083252996904    2.36806269370033
C         1.25933490330617    0.94635275577366    3.00568245667852
C         2.76540302864444    3.13891527368108    0.48711724881846
C         2.16378539893629    2.86998690826791    1.75541414354188
C         1.84795907490038    3.90941196509612   -0.26004809475913
C         1.92345980553053    2.27759565692393   -2.08130329059783
C         1.35290452758897    3.43110209973646   -1.48007704322161
C         1.41295608218120    0.03279758629573   -2.98409308614357
C         1.04277383205774    1.41529808147703   -2.81609165447713
C         0.56352226496268   -2.28731446897699   -2.49113895754383
C         0.43696894456561   -1.02045217006211   -3.16361059474672
C        -0.63575981471102   -2.97580743048981   -2.07614695686322
C         0.58476241626434   -3.89585416982767   -0.15933358212921
C        -0.62335444128965   -3.72686077533614   -0.89901037169864
C         0.86268810197940   -3.15494991220481    2.13422338373445
C         0.24664336236570   -4.01742557436596    1.20167623490390
C         0.03990563220058   -1.19127644800996    3.35730878197424
C        -0.15994710966152   -2.50310713124755    2.88445734621424
C        -1.12610623368751   -0.47060852988641    3.61891039781274
C         0.01828771087820    1.67223107659514    3.13721138314353
C        -1.11415132860338    0.95556877634510    3.57430543879010
C         0.86899805118554    3.50656195612116    1.77874004038617
C         0.72480894073993    4.22842077281945    0.58194627423155
C        -0.23889299760679    2.89649414948046    2.39677469207404
C        -0.07652009719563    3.66285524783227   -1.47997915569575
C        -0.45707932928860    4.11971680773299   -0.17487294767651
C        -0.35438648255763    1.76546256798651   -2.98628562317485
C        -0.93197232292777    2.86862967809871   -2.23347997100224
C        -0.83572361731492   -0.59286089126860   -3.57586065875963
C        -1.22912006219733    0.78690847727352   -3.45767445936775
C        -1.90745194368287   -2.46190958185278   -2.42840462666291
C        -1.96852578131922   -1.39224934330850   -3.31554034482950
C        -2.95300697777059   -2.25993497733171   -1.44275631515851
C        -1.72036024412796   -3.63211942938477    0.04816896077777
C        -1.17419564442743   -3.85241663472175    1.32179793932714
C        -1.43100606890438   -2.91406210779544    2.34108956256411
C        -2.78382288412404   -2.69735837254639   -0.12645458489856
C        -2.40658530814533   -0.91749417474035    3.11667441983416
C        -2.51671562180794   -2.00892713597777    2.22706130591901
C        -3.22252583751662   -1.85651881980083    0.97718518047464
C        -2.41050501117734    1.38784533806875    3.22389581192911
C        -3.19028911297946    0.21779574137313    2.89345877258714
C        -1.54248608127567    3.16156132891675    1.81284927405442
C        -1.63061620137721    3.66992735125663    0.46153767825430
C        -2.62421868347379    2.36333534756631    2.24653519960347
C        -2.26737133116639    2.78745844036019   -1.75182395174998
C        -2.60086179578591    3.14367229807414   -0.42016615569132
C        -2.63588467797009    0.79181910785571   -3.07779181798721
C        -3.06977052250328   -0.53474423812299   -2.94476138839380
C        -3.62617579191064   -1.02667022348711   -1.74518790722029
C        -3.10720463264448    1.69227116451494   -2.13515305317196
C        -3.85805007773746   -0.59052731892638    0.67349721061808
C        -3.84344447050681    0.42129892054259    1.66770149985347
C        -3.61381064318195    1.82108417135693    1.33665895512462
C        -3.59216926628520    2.19985875679553    0.02636751097497
C        -3.99423915335734   -0.14109020609342   -0.70324548786124
C        -3.86022819149917    1.24074555502347   -1.00614959364741
