80
C80 Isomer 21865 Symmetry C1
C         4.59341082000772   -0.59776680624457    1.79166029938694
C         5.05120947018483   -0.01524409986073    0.62292547135649
C         4.93919466145447   -0.99153573837215   -0.46366299701795
C         4.22680538249404   -1.96743888311720    1.47253807543420
C         4.33855307236386   -2.16415927074463    0.05729166841954
C         3.01953233863472   -2.22598539330752    2.11097979798766
C         3.53851002272759   -0.00234055408422    2.55885897322011
C         2.61366137328599   -1.04315222114595    2.85318044292544
C         3.07524837492139    1.30354928312527    2.26042454556780
C         4.49736229533099    1.21597498596591    0.20333222735924
C         3.65157149786457    1.93436849890946    1.09469385724538
C         4.36049127659076   -0.30840613712333   -1.55040802429973
C         4.13029465446087    1.07256695655534   -1.17984930379403
C         3.37484676033807   -0.94267495335524   -2.29684474051416
C         3.25375961646734   -2.77920682479074   -0.63158120959305
C         2.89034251528795   -2.22459595866556   -1.88135433805759
C         2.03059418407202   -3.02401288692185    1.51274621285597
C         2.17641589419317   -3.36775826265702    0.12705856620427
C         0.73279529950327   -2.96139675162869    2.12967847130470
C         1.27266490210804   -0.77735553088926    3.11966547247097
C         0.30523620811379   -1.82252496765380    2.89451618997189
C         1.73688627143101    1.64846740418425    2.66683455053810
C         0.89490552806681    0.60835350220651    3.18827071925683
C         1.09980487542048    2.84829299327168    2.15693595783479
C         2.87671728946685    2.90928572884490    0.46659226663673
C         1.73770291679841    3.49189150794469    1.08986098807915
C         3.05026674198540    1.79186145614944   -1.71951639653443
C         2.62891540540644    2.87839267006877   -0.93622475021667
C         2.25914206782791   -0.20366700304068   -2.82160422392427
C         2.05160866017156    1.15267690680621   -2.55706380864698
C         1.54980332338039   -2.33204118735504   -2.36476427059907
C         1.14921442073622   -1.08742469978931   -2.92720368015332
C         0.99453003449354   -3.78507743544372   -0.55349471734289
C         0.61456335314456   -3.18816023917098   -1.80334130894574
C        -0.23808977332326   -3.79376713831166    1.59459246179408
C        -0.05167898415256   -4.27925866907876    0.25070980377508
C        -1.64245422723568   -3.61093645836490    1.82147771803707
C        -1.09181444465928   -1.53631888911569    2.95409037018513
C        -2.10383896538749   -2.38794118529954    2.35793218963253
C        -0.47866524634832    0.84349143492855    3.31814522170613
C        -1.43859487475478   -0.19832632718737    3.22541965319271
C        -0.33536372299631    3.07873667008856    2.30595692909780
C        -1.09404086241915    2.07072586623750    2.92764229024764
C        -1.03985105905235    3.91893412678075    1.41141808216359
C         0.96635692378399    4.10450746927957    0.04086188706096
C         1.40015185427868    3.53394679513948   -1.19823526477369
C        -0.35722723659021    4.41079446039961    0.23383231623611
C         0.70324340319198    1.65768901083944   -2.63406210940114
C         0.45894431814145    2.98196852878197   -2.10763128385293
C        -0.18182610225495   -0.65333332040044   -2.89332283146017
C        -0.41021627498646    0.76399181312902   -2.82423844426402
C        -0.77202968949863   -2.95568495600973   -2.14637619466704
C        -1.18866312602189   -1.64644479200988   -2.58767933057896
C        -1.30831262120085   -4.49877434674614   -0.31064267776188
C        -2.30336521213792   -4.23164400742887    0.72245568388117
C        -1.70154846089771   -3.81236509898645   -1.50346732951170
C        -3.37195613936723   -3.59917338452332    0.12749613160872
C        -3.02004055877295   -3.36326763684140   -1.28800813466936
C        -3.30973306499864   -1.79198954165783    1.80766084910237
C        -3.89222788310019   -2.40785247042595    0.66711173097218
C        -2.65750013851996    0.37885796520892    2.76383792558255
C        -2.44473652182956    1.78417818973858    2.58225595948660
C        -3.53964933011622   -0.36709773813668    1.96065397226743
C        -2.38944431492156    3.62159576948325    1.01712879464593
C        -3.09457369000209    2.51424996757630    1.55885043064318
C        -1.21661592567837    4.28238440738566   -0.88019415951554
C        -0.86640837378701    3.43209445491373   -1.96069209846391
C        -2.49836177427168    3.88934231288677   -0.38372169596198
C        -1.75993078665800    1.20945459061286   -2.55151815673437
C        -1.97520244940695    2.54591486164181   -2.19930680188920
C        -3.01303727050167    2.91577943214250   -1.25931680966028
C        -2.51791239979259   -1.18100095963143   -2.30444180226980
C        -3.40110513894984   -2.06819602242915   -1.61794162920329
C        -4.16485336949628   -1.57727220610224   -0.48543906164528
C        -2.78150678625935    0.22917372887494   -2.21576841683706
C        -4.18883584242732    0.37724617909492    0.94247053627642
C        -3.93073837773075    1.75447487871202    0.70199172033185
C        -3.81203560362474    1.92172782673221   -0.73103833282524
C        -4.32199926314524   -0.24422032040778   -0.34638497993327
C        -3.82027212085510    0.64984863981606   -1.35169609646345
