80
C80 Isomer 10509 Symmetry C1
C        -4.92501459639023   -1.98182972342812   -0.01111654118990
C        -5.08296279544728   -0.65397694006506    0.39235851471851
C        -4.89404376443028    0.17331094993360   -0.77412138466142
C        -4.34685113952921   -1.95516377096864   -1.35261103600343
C        -4.24133858565088   -0.61275786266488   -1.80878634760119
C        -3.19454391188587   -2.74880217049172   -1.33901781196658
C        -3.95650349328723   -2.58195831663589    0.84984989536334
C        -2.97977579859478   -3.17794826987801    0.04144034530694
C        -4.24125029232340   -0.39447161116077    1.54600328250620
C        -3.49662654767205   -1.58776188142716    1.79847935206645
C        -3.64781479156661    0.86417442469141    1.71623363059333
C        -4.47681867680779    1.43930893649479   -0.55736340325501
C        -4.10190217900600    1.85853312168756    0.78576276505137
C        -3.56312741551103    2.07117022754359   -1.49401360849544
C        -3.04357170241501   -0.12655907563138   -2.41008249644797
C        -2.69329844031619    1.27976407029496   -2.29030159755264
C        -2.06802900193413   -2.37286066007231   -2.09303833921720
C        -1.98430146507114   -1.05772143757457   -2.65902062538702
C        -0.88353589701351   -3.11491414957846   -1.78029233399012
C        -1.67919707047597   -3.30241962614083    0.53012391536718
C        -0.69919858695058   -3.64452599404281   -0.45265722759744
C        -2.14409966544379   -1.51625685509706    2.16576552355290
C        -1.28758715864704   -2.57643571045372    1.69421035084751
C        -2.29915579469463    0.96659741030216    2.25301666088287
C        -1.54437701136304   -0.23396732378452    2.49215257968913
C        -1.56675681579761    2.20247696471302    2.10457254739351
C        -3.33865881609224    2.99684506696535    0.61176292694392
C        -3.06822397189770    3.18625197711528   -0.81719470371027
C        -2.14559308254133    3.22762637890930    1.30768793788851
C        -1.76407411368345    3.63928286331744   -0.97458447779907
C        -1.29894373802337    3.92463317791807    0.36527037598550
C        -1.33308336568915    1.75234272327674   -2.49235899110335
C        -0.89328840478375    2.98115245652271   -1.87821935268863
C        -0.68380883597429   -0.56367465961283   -3.03840109832975
C        -0.31991558087169    0.83307330139525   -2.94506019074968
C         0.25905819350426   -2.79554045079018   -2.49413749920160
C         0.34383323094880   -1.51328156846143   -3.12229211283330
C         1.57208016087390   -3.15478678568977   -2.05570205469750
C         0.58545629640836   -3.86772591489897    0.01391942991157
C         1.74639195400608   -3.72302906151740   -0.81066086301773
C         0.08462530294083   -2.56629663153535    2.03759858111196
C         0.94244230554955   -3.43058673130827    1.33021557653078
C        -0.12282483299895   -0.17921180199349    2.72889839376917
C         0.63581980216348   -1.40873783526342    2.70262672259472
C        -0.13649147899687    2.23496533360845    2.29438194864586
C         0.59321974956127    1.06497653208526    2.67286999426919
C         0.02723771762522    3.97457995202885    0.58711480501582
C         0.61760257725137    3.26493954668435    1.68671838251231
C         0.50908381405186    3.24846507044964   -1.70050741170404
C         0.92446222405304    3.90787988611186   -0.52721901668216
C         1.07505000173412    1.21278419322881   -2.98565121099142
C         1.48812689087849    2.46153680103110   -2.39837051747024
C         1.71908706383091   -1.14718915715915   -3.15095859962911
C         2.49344827685771   -2.15125302122201   -2.49930742505205
C         2.09429245630353    0.20089958074064   -3.15964369320989
C         3.66426128587878   -1.84731296127058   -1.76505964911686
C         2.86929165455067   -3.34445654103303    0.01205492132457
C         2.35558275644813   -3.25218152170998    1.34626026176983
C         3.86672598216488   -2.46145328002311   -0.45845057743715
C         2.02073847772943   -1.36211214624409    2.86421812919401
C         2.88698480400507   -2.33585905302524    2.24237010832963
C         2.04257329561508    1.09367734049752    2.61521501292529
C         2.72357254613221   -0.10888354604876    2.86237356745800
C         1.99765304156638    3.15429402248172    1.38905845320352
C         2.20038916880519    3.66005591676816    0.05452090748927
C         2.77753540127516    2.09683696319844    1.87228999061466
C         2.84418706168502    2.65761261483895   -2.03579747962664
C         3.20002570227908    3.17588195029030   -0.73521130490652
C         3.44401666579302    0.40276468178560   -2.76652691586484
C         4.19360870604528   -0.57314508009693   -2.03026664404618
C         3.81940956711408    1.67753164418340   -2.29792815300877
C         4.00426547905896    1.79152519915610    1.15501804631739
C         4.21333972523417    2.34437733271397   -0.14047967602821
C         4.95574784946748    0.14880263887125   -1.01710021285996
C         4.71493660796804    1.53503041336519   -1.18539244194587
C         4.54229190716080   -1.69344560875616    0.53796323717244
C         4.07772047297830   -1.69423166577954    1.86220791803954
C         4.01539029747839   -0.32036945667253    2.33087179338177
C         5.00335765982725   -0.34526653015232    0.26594535166112
C         4.58466468497445    0.51540072415967    1.36750288967659
