70
C70 Isomer 4565 Symmetry C2
C         4.48033576629439   -1.68601374373058   -0.19199730163757
C         4.19735679948992   -1.49705382257002    1.13361346477300
C         3.19405243350345   -2.47649074532593    1.55221069072305
C         3.68566768113896   -2.85721788393326   -0.63030782709309
C         2.79146764825601   -3.24677542025464    0.42592738983394
C         3.15822174889106   -2.53321544585676   -1.85552382834863
C         4.27403136531423   -0.59842987474101   -1.12497353591848
C         3.55057356732089   -1.15316730799586   -2.19267843591447
C         3.92705194098086    0.70615268216635   -0.67891085663102
C         3.81780248984975   -0.20952282132153    1.62367236071659
C         3.88012969216650    0.91609753936730    0.75792274782180
C         2.26112627819482   -1.77820366275524    2.30812339752881
C         2.66942649135455   -0.39058766315022    2.44235806553268
C         0.89651601722708   -2.08636482487574    2.20829203848740
C         1.40699530900155   -3.41300773908244    0.17944158532914
C         0.47611327911580   -3.02413235323355    1.21517407872230
C         1.77910558942073   -2.68707328188991   -2.13140252723429
C         0.90304538306835   -3.22643364285300   -1.16228195424360
C         2.42566727288715   -0.52103915122591   -2.73592291033779
C         1.37283565119932   -1.48997599432472   -2.81658009158015
C         3.00002949316571    1.47732242659021   -1.50000212465198
C         2.12725220790085    0.82616736373540   -2.44308509130494
C         2.53699254787112    2.71152026142141   -0.98668237107782
C         3.16525617274342    2.02394964313756    1.24566041722584
C         2.77526548786317    3.04071703716503    0.35090624293760
C         1.71166576295304    0.63194812768961    2.63294019842642
C         2.10017943577556    1.89927300417116    2.19416094151199
C        -0.03074656040218   -1.08714192358576    2.67752876764607
C         0.30301321469026    0.31133250230622    2.75755287494078
C        -1.36035392132775   -1.45389725745083    2.63319675775036
C        -0.92541383714742   -3.20466411733196    0.98494560970138
C        -1.79063787763397   -2.64479076742194    1.95224315036247
C        -0.49466696232153   -3.01861299339431   -1.39313671547954
C        -1.43315954299593   -3.38536811525128   -0.35617640169007
C         0.05100862813847   -1.09693725265469   -2.86179015712050
C        -0.89613241976098   -2.07577500518952   -2.38915504527951
C         0.76923664743865    1.26829966142141   -2.67809306157154
C        -0.25484598888613    0.30778534873969   -2.94623166567013
C         1.26463312560119    3.29712167058269   -1.37954158605176
C         0.38732323483944    2.59481622488425   -2.22277741314438
C         1.58301141835503    3.68559020044544    0.85741289057517
C         1.09648876501834    2.90436321864047    1.91096402778492
C         0.74212711983983    4.00675989606341   -0.23187491633295
C        -0.70180329777518    1.29124947849526    2.48656730165514
C        -0.29366942194952    2.60844438600381    2.02676871598286
C        -2.39353346562474   -0.46454991584767    2.54983156531892
C        -2.06841693489268    0.87557884083242    2.25311820090230
C        -3.16643723154215   -2.46436057886224    1.67608733073311
C        -3.53122618860839   -1.07568935286445    2.00881694740308
C        -2.81398099521581   -3.19228785072145   -0.60320242445651
C        -3.70033687288801   -2.78153843101278    0.45184712780031
C        -2.25443470587158   -1.74062692823487   -2.48984184269331
C        -3.20123541165470   -2.41764011865036   -1.73198126378897
C        -1.65674238362564    0.65708961699608   -2.82244417050192
C        -2.63489236212773   -0.34550265687279   -2.62837255202635
C        -0.99637999181716    2.91914832000464   -2.10828036737858
C        -2.01989369162242    1.93334229771140   -2.38809865005018
C        -0.62009372751754    4.02134676120400    0.03148883366658
C        -1.15686267337376    3.32553650727740    1.18194025673189
C        -1.46692699022648    3.71269082767084   -1.05639889986058
C        -2.92823752182375    1.54099995816037    1.30801468151869
C        -3.08211602072078    2.08208727677729   -1.43951866809348
C        -2.44068902863977    2.76416612397437    0.79088503891365
C        -2.67168039895611    3.09322318164529   -0.54809205724950
C        -4.24347687131294   -0.51007067503433    0.93937419108373
C        -4.47144388734803   -1.59614642934894    0.00966569394327
C        -4.18477149619647   -1.41707439459309   -1.31651271983155
C        -3.77959843576067   -0.13887829982564   -1.81079303736612
C        -3.87031912406994    0.78594399197192    0.48917063634015
C        -3.81884942523165    0.99019406601649   -0.94816174871412
