74
C74 Isomer 10774 Symmetry C1
C        -4.58345663050174   -0.43442125045445   -0.89112890836673
C        -4.69016191977060   -0.37163821172233    0.48337162963379
C        -4.57111281851167    1.02757194711647    0.87311804472381
C        -4.26100618908082    0.89864593399881   -1.38187712499001
C        -4.21783687103817    1.79496586700221   -0.28118858670289
C        -3.15941409162525    0.75409912177861   -2.23995854516179
C        -3.69566594551780   -1.36964541196707   -1.47642709881704
C        -2.87756986617320   -0.65223584875488   -2.40666665462122
C        -3.10598630183528   -2.37451544675674   -0.67086276952153
C        -3.82575354010679   -1.15587462782991    1.31704448422498
C        -3.04533684632139   -2.19523096460791    0.76925095709591
C        -3.76273011795601    1.06435629551449    2.01232009884801
C        -3.27150478577160   -0.28219776926753    2.29783341929594
C        -2.91615506814454    2.15724522733843    2.16332548598192
C        -3.16600797304370    2.74471554840451   -0.22390049584825
C        -2.69653370622446    3.06202261962398    1.07815061292362
C        -2.10294123915260    1.69031055389596   -2.25089535378638
C        -2.19489831108788    2.78239359019137   -1.30905287105286
C        -0.82315217810158    1.26399419218412   -2.77827124734987
C        -1.58537122225425   -1.08580862936265   -2.73578379411554
C        -0.53519453151747   -0.12957890793335   -2.97280664142480
C        -2.02351712720822   -3.01404544749194   -1.30289379442769
C        -1.25936375541286   -2.39179450049133   -2.33181775837613
C        -1.13371205102887   -3.77586726563218   -0.51326422190579
C        -1.83015332677844   -2.54590908237762    1.48449032704897
C        -0.95454966933529   -3.46312195649250    0.83450626100577
C        -1.98734482107268   -0.47689322902321    2.82667127662505
C        -1.27269148636231   -1.68197811860719    2.48121136520079
C        -1.69333322534024    1.99755885632596    2.88292936475001
C        -1.26307199781897    0.70506294593177    3.25540278043209
C        -1.39182839380220    3.60463290475963    1.29126378040492
C        -0.75825449355279    2.96588853207490    2.41339396747241
C        -1.01539744507898    3.51828684135459   -1.09420288189172
C        -0.60650067597982    3.94103407766571    0.22394048424772
C         0.27380732774306    2.18955389753535   -2.70807471625243
C         0.15764788700452    3.31223170042114   -1.85164220650175
C         1.57727853452057    1.73099295488503   -2.97794063647686
C         0.83522382322731   -0.60667374377688   -2.94263353018620
C         1.85766331826226    0.33018535748481   -3.03031097206543
C         0.12142249468890   -2.79956959971876   -2.17109027539967
C         0.16659791962314   -3.74462166616836   -1.14020175460688
C         1.18940962090116   -1.90237009917849   -2.37914264260630
C         0.47152544393515   -3.48345099003040    1.09824922267340
C         1.15859349161384   -3.64227884193592   -0.14991867405503
C         0.14553147968230   -1.77476988642869    2.81560396222934
C         1.02119767512123   -2.70031385970092    2.11178586080073
C         0.10762067089583    0.59476389663896    3.48529990749645
C         0.77143064686116   -0.66814606883740    3.39163643318141
C         0.63612011198994    2.76167775879755    2.44305355801717
C         1.04085072231164    1.61412931698708    3.15001509000746
C         0.82489161495092    3.87220442054100    0.30583453472294
C         1.28264586919330    3.71281014415177   -1.03595940496921
C         1.49089558398335    3.24831247767824    1.37714388181160
C         2.70867768486308    2.35693548311178   -2.38872219779864
C         2.54329151234577    3.21453427873023   -1.25998632354347
C         3.15037477112385    0.09801194772346   -2.43258727994439
C         3.66830228480621    1.37338809015053   -2.06471440047600
C         2.39378376338823   -2.07487933162195   -1.60228977490468
C         2.34073962966725   -2.93858873512144   -0.44169095440727
C         3.39063792592819   -1.02591446438860   -1.62653889034889
C         2.41005245352800   -2.44500596952360    1.98395336670047
C         3.07209752753146   -2.59741556228113    0.72228600262904
C         2.17266715157469   -0.38217023438746    3.23011349019222
C         2.32248035036849    1.01529326183459    2.94731236469408
C         3.01246039490002   -1.30394023036713    2.63477429888754
C         2.78107187912220    2.61654141318342    1.12946719197958
C         3.32744578419816    2.70864999530560   -0.16580614652458
C         4.11395301544869    1.61972001889107   -0.72845049643968
C         3.21874354848062    1.50664991267862    1.96919297599437
C         4.23294599476692   -0.80888229343498   -0.48598273690919
C         4.08762759167467   -1.62033993362036    0.63939076871706
C         4.05814562539073   -0.80411544304288    1.83483280984569
C         4.44961045562169    0.53515270741419    0.03098924818457
C         4.13104504126993    0.54467953303224    1.44452345409598
