78
C78 Isomer 6219 Symmetry C1
C         4.85306334898769    2.32228166507902    0.57828564345283
C         5.05468473027787    0.93393684510158    0.75090136581434
C         4.25038261294509    0.46973168375134    1.84086711541525
C         3.88852585344557    2.74456977478173    1.51589357050213
C         3.45627915186320    1.59854892775546    2.28699662167804
C         2.88057002383330    3.44598069180861    0.81416061939390
C         4.28155237222420    2.51820769137084   -0.75102247267089
C         3.11390086281572    3.27794463331571   -0.61625826228459
C         4.86014616212028    0.32290147615785   -0.52898378851255
C         4.18549245687803    1.27266426587403   -1.41575172193981
C         4.44351359377701   -0.96861046892980   -0.53257263251288
C         3.69540629640113   -0.82051385838950    1.79704122333422
C         4.04148061077123   -1.63266210256890    0.67998591969014
C         2.41695844574459   -1.06213361594986    2.41459300093707
C         2.10987865402728    1.41662669997613    2.61949095476924
C         1.63517184675056    0.06787755368627    2.83793909495820
C         1.57521867577883    3.42775240213705    1.31218134874102
C         1.13554421182877    2.45668463210805    2.27931096845749
C         0.62735913984244    3.88092002410866    0.38147364333037
C         2.01162270843502    3.00163887839950   -1.45834827258138
C         0.83937733200133    3.61668218555412   -1.01937993263801
C         2.99925280939424    0.86818751054974   -2.10753274652103
C         1.88386557911142    1.76935125947689   -2.19574002838936
C         3.58968177754118   -1.44447972793805   -1.58918290064602
C         2.74681749297437   -0.54693416227565   -2.26741435971676
C         3.26039771239885   -2.74460094619335    0.29338484497202
C         3.12068433034089   -2.70654017861613   -1.14479531103374
C         1.78467389590634   -2.33913546985155    2.17995338562205
C         2.20586059580657   -3.21486644631454    1.09928383071183
C         0.47975817074339   -2.49191259193009    2.65071167594638
C         0.25052359017682   -0.08658021129685    3.15646586051684
C        -0.24999551796740   -1.39907086289133    3.18958565672027
C        -0.25986216817025    2.25227589058221    2.44245940703181
C        -0.69478309098541    1.00590700496916    3.02452913713411
C        -0.74108496962379    3.81679796090443    0.64638624712412
C        -1.24194735968704    3.04187864859328    1.70981942260413
C        -0.40314152428971    3.33297146834348   -1.60142186530219
C        -1.38751284838632    3.74880294238269   -0.64215128465245
C         0.54796030549169    1.29631312729739   -2.54155358409989
C        -0.59944154922411    2.15607464902109   -2.35361224785517
C         1.42658223299754   -1.01892920205109   -2.64780627328925
C         0.30852452852411   -0.10457388139908   -2.73618308925904
C         2.01808715754550   -3.25766035122835   -1.75045129158112
C         1.16151194903075   -2.39204497343716   -2.51815486619562
C         1.24797534898524   -4.04423420540082    0.45000373473974
C         1.21204046220120   -4.11329407525020   -0.96374929965998
C        -0.47463180857350   -3.37330994662535    2.01993584202538
C        -0.12452792405017   -4.07604282429584    0.89536671553940
C        -1.64172176774509   -1.66554563128517    2.99886801730860
C        -1.77949675943697   -2.79494938356537    2.12576655950364
C        -2.06584632388067    0.71948806187279    3.00409535913336
C        -2.53477855990746   -0.63270937573848    2.94389570999076
C        -2.63352497341709    2.66455772272820    1.61854621689725
C        -3.04427652384937    1.51898087869737    2.31879079575391
C        -2.66181646664054    3.34027633998880   -0.76316513509302
C        -3.39617688548445    2.97625516032256    0.43619755725207
C        -1.96266351704495    1.67978120682173   -2.44893372500580
C        -3.00015308100754    2.44888284604827   -1.84432227135622
C        -1.04497327046034   -0.61492430495682   -2.65724327976188
C        -2.17792679985057    0.26459677043809   -2.59272241137011
C        -0.17773434707891   -2.86226452401442   -2.29200411170403
C        -0.14500321731096   -3.94404811187670   -1.38584606066311
C        -0.99813568936596   -3.97270443086948   -0.24869893959047
C        -1.25908218617847   -1.98389222437124   -2.27866668727489
C        -2.65592538522975   -2.70295458840492    1.03305633403448
C        -2.14069870350566   -3.17860903739985   -0.23824529455105
C        -2.35482362665643   -2.34329037255417   -1.40295063245988
C        -3.66901999270732   -0.70524810648854    2.07416823753033
C        -4.08191229833664    0.64962067478723    1.82959796902748
C        -3.67645044229747   -1.68445289199138    1.05781773877109
C        -4.44811260946239    2.17443356190202    0.00248095579658
C        -4.21745218387757    1.86672534894556   -1.42503380219699
C        -4.78556603982550    0.96052409405055    0.65967489508233
C        -3.41927987622869   -0.28643784480416   -2.16662859106525
C        -3.42803749427750   -1.48650314277275   -1.38530460539682
C        -4.23128590044679   -1.27974371886878   -0.19385282871114
C        -4.44437990348080    0.52370812822535   -1.61360876783000
C        -4.88014344396974   -0.05893349511913   -0.33966982187177
