80
C80 Isomer 3971 Symmetry C1
C         5.73426681200958    0.59196064287065   -0.02617635457087
C         5.27894483017173    1.46531592054674    1.03689802802354
C         4.59850884093058    2.51954723221748    0.44036393528396
C         5.10628255584837    1.02626313548155   -1.26946892906757
C         4.52573760374318    2.26953027987866   -1.02091316051122
C         4.26295586099875   -0.02077604752059   -1.77795286368000
C         5.20354370016848   -0.66584386785177    0.25656181054644
C         4.40155006503698   -1.12653013348656   -0.84852822018255
C         4.53660571183145    0.69221944715465    2.00433586190700
C         4.57117185117616   -0.67082230161336    1.55227697122446
C         3.32231838577709    1.19114809831207    2.55816934488915
C         3.31180742076800    2.93617844097969    0.87158085558007
C         2.65875456989702    2.35237588408468    1.98693556934888
C         3.21657120095583    2.54325961133192   -1.43524921397602
C         2.53352186636932    3.13777741625632   -0.31163433664815
C         2.98051887421443    0.26555583078535   -2.30958720212553
C         2.47028828701130    1.60378249550615   -2.19217409202304
C         2.02404225720967   -0.81562360468622   -2.38162104799937
C         3.35383426327398   -1.99697830277416   -0.62291165723905
C         2.32303864227635   -2.00091134239674   -1.63619956518924
C         3.51913732779394   -1.56612031296621    1.78443154068784
C         2.99217427355577   -2.38854614686342    0.72753218331319
C         2.47324737422565    0.20981749861953    3.09593417684049
C         2.59560172864073   -1.17499203401017    2.77810471099076
C         1.09430639437245    0.46187079855799    3.36796356760487
C         1.22813456123500    2.49313018589769    2.06555097438558
C         0.44755888832654    1.60645144108982    2.89256726786895
C         1.15795780473813    3.19850004593201   -0.26799299978131
C         0.50216479183379    3.09825875492263    0.99531110971348
C         1.06441318389416    1.81376346449233   -2.26757230357217
C         0.43971724547398    2.78746189191501   -1.43719341005264
C         0.66763046910871   -0.57970592862232   -2.76931739222641
C         0.22986242126883    0.78174537291363   -2.80258703269753
C        -0.34588863584619   -1.60898809268881   -2.66657966983445
C         1.34911983007014   -2.96463028157059   -1.50174781844510
C         0.07902353855945   -2.84718766334670   -2.14614171611913
C         1.77203684258910   -3.08488435262079    0.92909247353917
C         1.16238566303371   -3.62894399893362   -0.23058969346908
C         1.32040505188910   -1.77591710890842    2.89880913502743
C         0.40216828493016   -0.77470979807853    3.37124061126461
C         0.88728113574096   -2.79397557039754    2.04487659137615
C        -0.96734611397326   -0.86252323110636    3.17641058936643
C        -0.97844137510989    1.57525282432432    2.84033193162142
C        -1.70317687589155    0.37365077023829    3.10197083901477
C        -0.91672423552594    3.20253272620570    1.01593552162488
C        -1.63978966469817    2.62784781527195    2.10857991073172
C        -0.95872423504898    2.97374579446647   -1.42542604264916
C        -1.61449231535631    3.43649481490080   -0.22090061256055
C        -1.13764309653310    1.04574676251953   -2.87643935968947
C        -1.70604545089692    2.23065630616579   -2.34426850380426
C        -1.75901535531921   -1.30613201871061   -2.55346532436637
C        -2.14192275198838    0.02602674583642   -2.78948082306501
C        -2.66530612510837   -2.07428204031937   -1.73301772348014
C        -0.82507997874103   -3.64185204860916   -1.41766957623520
C        -0.15423708441989   -4.06755510484487   -0.19046206028890
C        -2.12768430648786   -3.23617167123350   -1.12734155154172
C        -0.54101325777399   -3.02304847864842    1.97951863320072
C        -1.46206628885433   -2.08961914667032    2.60156336732323
C        -1.02147235724721   -3.77741175168225    0.88455389011425
C        -2.30195645448276   -3.47967601326777    0.29024120442294
C        -2.79842132165072   -2.05571564637343    2.17856651821015
C        -3.18711453609989   -2.69761657931217    0.96011411454626
C        -3.11216659334807    0.31556539393954    2.80862632620478
C        -3.62866334086636   -0.90613654803568    2.32106060443919
C        -3.03612157634491    2.66633630971178    2.08770353850827
C        -3.80783356219912    1.49431516795869    2.46190825123890
C        -3.01845647915756    3.47259999295294   -0.21533211829490
C        -3.70678937506917    3.29507278077974    1.00805417500125
C        -3.11059993007477    2.00251514076509   -2.15239297090128
C        -3.36090470981822    0.59827812498099   -2.34145641828975
C        -3.79570837211152    2.74363837411176   -1.22069960809783
C        -3.79248571452392   -1.42984147941370   -1.07657849191996
C        -4.07783554625819   -1.82354576863189    0.24396798562327
C        -4.55273108442247   -0.88207685538090    1.20834861941137
C        -4.23130489965035   -0.10012446193039   -1.46251194652468
C        -4.96496411186682    1.44448879073254    1.62976385326920
C        -4.93531306323378    2.57258834530644    0.76738652291435
C        -4.90586719675861    2.11145778877567   -0.57118897642612
C        -5.15602111773863    0.28893201979995    0.80462751840177
C        -5.03026192045211    0.67875905401633   -0.58799984705943
