66
C66 Isomer 1318 Symmetry C1
C         4.42048571239295   -0.77341674607017    1.54879736106000
C         4.77927604330048    0.13302029487473    0.49608241671892
C         4.59341264691121   -0.53225203677374   -0.76045091101585
C         3.86320790380783   -1.93685545145157    0.97893502850074
C         3.99557921823316   -1.83181312320776   -0.45472877380124
C         2.57841594002058   -2.14890311846449    1.57075109678811
C         3.40694460206940   -0.15152283806616    2.36114515716972
C         2.28391608168470   -1.02272021702264    2.43459407582506
C         4.13567930159337    1.37720400169334    0.76699961740025
C         3.21321717581925    1.16397709602092    1.89732790803832
C         3.70867639560568    2.12955266416953   -0.32237925650971
C         4.08487171533741    0.21590125137533   -1.83136486916442
C         3.82631972081993    1.59001494790277   -1.62874529192263
C         2.97487197603512   -0.28480963333780   -2.64197732959737
C         2.93267529481234   -2.28053451780653   -1.21512375596744
C         2.44814331253766   -1.51771586617359   -2.35537233941383
C         1.52818195147370   -2.66694144456682    0.80131020506138
C         1.76634430374115   -2.84284412293566   -0.58649845269973
C         0.17972638551515   -2.41922839418089    1.23446985078041
C         0.98529398554967   -0.49736445096696    2.51303847978091
C        -0.11148644658169   -1.35696956338781    2.13623741314698
C         1.91045751591362    1.70981138749358    1.90742329121209
C         0.80098219040318    0.92455135236029    2.39841485201173
C         2.44433223700283    2.82882533452770   -0.24409214218538
C         1.63166195087843    2.71059033523298    0.89864020005956
C         2.60802917521198    1.93546167780222   -2.33388264474573
C         2.03718136455010    0.79472222869508   -2.91677895781579
C         1.80835088240601    2.76871306778623   -1.53048293625587
C         0.61899649949928    0.62779926048033   -2.92163015084129
C         1.03314167074942   -1.72491667963987   -2.48209961060917
C         0.66426793138337   -2.64318079153542   -1.46210199010909
C         0.11077233640087   -0.71230801454910   -2.81649896339234
C        -0.87906480859403   -2.83832274968695    0.37375368558574
C        -0.65480337925278   -2.75959532286172   -1.03883061858963
C        -2.19013247925164   -2.67337996033239    0.83165313257070
C        -1.46245294257366   -0.88664663536106    2.29855070952635
C        -2.51000035821983   -1.70431608983731    1.84905370974713
C        -0.55062986138625    1.41903490070747    2.28737943617460
C        -1.70471551855822    0.53413564176774    2.43603288774358
C         0.29801992043292    3.08003726399003    0.71810151631673
C        -0.73631399319470    2.62103735502183    1.59512630723318
C         0.40642693450480    2.72993446180645   -1.68329634687086
C        -0.22973135218184    1.68606454325675   -2.44550191621403
C        -0.29056923276505    3.21722930628558   -0.56537683412142
C        -1.64723141437576    1.46143939484032   -2.28578093287608
C        -1.27891978060064   -0.95274119996656   -2.56465694456390
C        -1.65920263354929   -2.15101249125775   -1.86254639481552
C        -2.18998919009955    0.15987030166521   -2.55472260783091
C        -3.24963835901467   -2.71355309222296   -0.08241428042636
C        -2.99249652487868   -2.32746931701903   -1.43897971172348
C        -3.85509689106921   -1.23290574663679    1.59999438987134
C        -4.34808567442219   -1.91750155709822    0.43744801137770
C        -2.99505507063314    1.00303549908965    2.13165960037677
C        -4.09603570042240    0.13982164174316    1.73236555264653
C        -1.97928988903982    2.87981721954306    0.94376839442756
C        -1.69259414238554    3.05654513402945   -0.44911936297288
C        -2.42093200481309    2.33909783023611   -1.41826769794689
C        -3.11859521493788    2.21092608848799    1.33832983206801
C        -4.83363550115211    0.80369372530033    0.69381644324142
C        -3.74241795204800    1.98666528138199   -1.01538884701676
C        -4.11443750517896    2.02237381597204    0.36748256007538
C        -3.57046137253754   -0.10548553065831   -2.24390504839479
C        -3.97718410024968   -1.38998101778525   -1.79123672334161
C        -4.88782793431835   -1.21016149416726   -0.64165552087545
C        -4.36942810710097    0.85168593143115   -1.56965669623429
C        -5.13440494121042    0.16377897805725   -0.51413826167520
